".variable",".value",".lower",".upper",".width",".point",".interval","model"
"b_Intercept",-0.0437396126766296,-1.2206689808403,1.31084744907659,0.95,"median","hdci","wides_dEstWides"
"b_areaAKDE",0.000955455818840668,-0.00155440099492415,0.00324109735867871,0.95,"median","hdci","wides_dEstWides"
"b_areaKDEhref",0.000805001810159706,-0.00161744588019817,0.00315080535107499,0.95,"median","hdci","wides_dEstWides"
"b_areadBBMM",0.000806649991047786,-0.00156578102461629,0.0031377634034413,0.95,"median","hdci","wides_dEstWides"
"b_availPointsPerScaled",-0.00423698620749594,-0.00497864133722235,-0.00344882674509867,0.95,"median","hdci","wides_dEstWides"
"b_contourScaled",0.00340186374021077,0.00257252189840617,0.00415830040475862,0.95,"median","hdci","wides_dEstWides"
"b_samplingPatternst",-0.00181068934800492,-0.00335814899022854,-0.000250138113772604,0.95,"median","hdci","wides_dEstWides"
"b_tdScaled",-0.020203324062867,-0.0218027590017727,-0.0185341239822336,0.95,"median","hdci","wides_dEstWides"
"b_tdScaled:areaAKDE",-0.00411180518291566,-0.00612740283531917,-0.0016433011473655,0.95,"median","hdci","wides_dEstWides"
"b_tdScaled:areaKDEhref",-0.00337450442158189,-0.00577429943811665,-0.00108016814313356,0.95,"median","hdci","wides_dEstWides"
"b_tdScaled:areadBBMM",-0.0020737358860005,-0.00431865990718047,0.00024324192190292,0.95,"median","hdci","wides_dEstWides"
"b_tfScaled",-0.0134111718283179,-0.0149285675227886,-0.0116433895406715,0.95,"median","hdci","wides_dEstWides"
"b_tfScaled:areaAKDE",-0.00021622824403291,-0.00254184762369537,0.00209747852005478,0.95,"median","hdci","wides_dEstWides"
"b_tfScaled:areaKDEhref",-0.00177502984631305,-0.00399610556206889,0.000695342843952345,0.95,"median","hdci","wides_dEstWides"
"b_tfScaled:areadBBMM",-0.00171979600493775,-0.00387630496979637,0.000717309476155562,0.95,"median","hdci","wides_dEstWides"
"b_Intercept",-0.0306157132101716,-0.928295761300977,1.28781484087806,0.95,"median","hdci","wides_rEstWides"
"b_areaAKDE",0.0126469445064722,0.00896034507363742,0.0158102554230683,0.95,"median","hdci","wides_rEstWides"
"b_areaKDEhref",0.0125410608868733,0.00863971439334209,0.0155667690900882,0.95,"median","hdci","wides_rEstWides"
"b_areadBBMM",0.0109033519364335,0.00741707220102678,0.0140055864445379,0.95,"median","hdci","wides_rEstWides"
"b_availPointsPerScaled",-0.00241154026445366,-0.0035378222104874,-0.00139821199944927,0.95,"median","hdci","wides_rEstWides"
"b_contourScaled",0.00806017786479419,0.00688444903970733,0.00923631631827183,0.95,"median","hdci","wides_rEstWides"
"b_samplingPatternst",-0.000710473355538412,-0.00304116238319071,0.00129888864227862,0.95,"median","hdci","wides_rEstWides"
"b_tdScaled",-0.0228675478153861,-0.0251546628718536,-0.0200248664619392,0.95,"median","hdci","wides_rEstWides"
"b_tdScaled:areaAKDE",-0.00179102883206546,-0.00528961269617696,0.0018678645045244,0.95,"median","hdci","wides_rEstWides"
"b_tdScaled:areaKDEhref",-0.000463218159735897,-0.00380972735357358,0.00331695967228218,0.95,"median","hdci","wides_rEstWides"
"b_tdScaled:areadBBMM",0.00222405546035846,-0.00123828900871862,0.00545643059046917,0.95,"median","hdci","wides_rEstWides"
"b_tfScaled",0.0128320007365194,0.0102820766307778,0.0153227827434578,0.95,"median","hdci","wides_rEstWides"
"b_tfScaled:areaAKDE",-0.00281392961524662,-0.00626559387375865,0.000236856017179164,0.95,"median","hdci","wides_rEstWides"
"b_tfScaled:areaKDEhref",-0.00425484101495461,-0.00827010064683285,-0.00123672017493494,0.95,"median","hdci","wides_rEstWides"
"b_tfScaled:areadBBMM",-0.00581195795247787,-0.00942663017806909,-0.0023735371369254,0.95,"median","hdci","wides_rEstWides"
"b_Intercept",1.59449695353907,-1.1409941071001,3.76592381632424,0.95,"median","hdci","rsf_dEstRSF"
"b_areaAKDE",-0.111401331384338,-0.145010836092304,-0.0784936376372162,0.95,"median","hdci","rsf_dEstRSF"
"b_areaKDEhref",-0.115638646970495,-0.148533737717293,-0.0819776383265114,0.95,"median","hdci","rsf_dEstRSF"
"b_areadBBMM",0.168636029471502,0.134012307773155,0.201075085994551,0.95,"median","hdci","rsf_dEstRSF"
"b_availPointsPerScaled",-0.180328570009503,-0.194301681770179,-0.168971279057173,0.95,"median","hdci","rsf_dEstRSF"
"b_contourScaled",-0.131486488529367,-0.142767974392605,-0.118524670229954,0.95,"median","hdci","rsf_dEstRSF"
"b_samplingPatternst",-0.0309116754623956,-0.0534614654454124,-0.00943064933322408,0.95,"median","hdci","rsf_dEstRSF"
"b_tdScaled",-0.625325619686131,-0.649459839772421,-0.600586487276724,0.95,"median","hdci","rsf_dEstRSF"
"b_tdScaled:areaAKDE",0.0249062635169677,-0.00725448551794228,0.0623097870810864,0.95,"median","hdci","rsf_dEstRSF"
"b_tdScaled:areaKDEhref",0.00242754992729765,-0.0308954052291077,0.0365752560380031,0.95,"median","hdci","rsf_dEstRSF"
"b_tdScaled:areadBBMM",-0.270983925685569,-0.307201558471402,-0.238374045561508,0.95,"median","hdci","rsf_dEstRSF"
"b_tfScaled",-1.08091849028325,-1.10353085415833,-1.05520483605119,0.95,"median","hdci","rsf_dEstRSF"
"b_tfScaled:areaAKDE",0.0633271125569299,0.0301474711370502,0.0971617022103195,0.95,"median","hdci","rsf_dEstRSF"
"b_tfScaled:areaKDEhref",0.0650003363984171,0.0330724013994228,0.101270249728398,0.95,"median","hdci","rsf_dEstRSF"
"b_tfScaled:areadBBMM",0.0852835647786301,0.0489438291549503,0.117265123035815,0.95,"median","hdci","rsf_dEstRSF"
"b_weightingScaled",0.0459673459843175,0.0335485252958836,0.0569013214888989,0.95,"median","hdci","rsf_dEstRSF"
"b_Intercept",0.221340286025455,-1.150476568833,1.89905584946407,0.95,"median","hdci","rsf_rEstRSF"
"b_areaAKDE",0.385383907959324,0.344510999026988,0.427380148755583,0.95,"median","hdci","rsf_rEstRSF"
"b_areaKDEhref",0.427534634969726,0.391708516961793,0.467887118623649,0.95,"median","hdci","rsf_rEstRSF"
"b_areadBBMM",-0.0363510119725326,-0.077032207046871,-0.000879731305631934,0.95,"median","hdci","rsf_rEstRSF"
"b_availPointsPerScaled",0.329192845141556,0.317130967334478,0.344216573923985,0.95,"median","hdci","rsf_rEstRSF"
"b_contourScaled",0.270439636469739,0.257312601524239,0.286222404715674,0.95,"median","hdci","rsf_rEstRSF"
"b_samplingPatternst",0.0477811985898592,0.0195072205450637,0.0734318014756663,0.95,"median","hdci","rsf_rEstRSF"
"b_tdScaled",-0.468681841740061,-0.495555214236387,-0.435360022907792,0.95,"median","hdci","rsf_rEstRSF"
"b_tdScaled:areaAKDE",-0.203092346044815,-0.244000114293545,-0.16267279859287,0.95,"median","hdci","rsf_rEstRSF"
"b_tdScaled:areaKDEhref",-0.194986680025721,-0.236167763778713,-0.145433564797062,0.95,"median","hdci","rsf_rEstRSF"
"b_tdScaled:areadBBMM",0.265261507070832,0.226639720900523,0.312976834866654,0.95,"median","hdci","rsf_rEstRSF"
"b_tfScaled",-0.275848423817142,-0.300278807977145,-0.247855450798366,0.95,"median","hdci","rsf_rEstRSF"
"b_tfScaled:areaAKDE",-0.215630392483415,-0.253660031920821,-0.178883584701919,0.95,"median","hdci","rsf_rEstRSF"
"b_tfScaled:areaKDEhref",-0.302171439301308,-0.336613191067002,-0.264899486377495,0.95,"median","hdci","rsf_rEstRSF"
"b_tfScaled:areadBBMM",-0.306672581145683,-0.345290465592533,-0.273150175046716,0.95,"median","hdci","rsf_rEstRSF"
"b_weightingScaled",-0.0929895321534789,-0.105608455042946,-0.0806069358967644,0.95,"median","hdci","rsf_rEstRSF"
"b_Intercept",1.34927363669989,-2.12308748022415,4.09471581905929,0.95,"median","hdci","ssf_dEstSSF"
"b_availablePerStepScaled",-0.0240061662636878,-0.0670275415371716,0.0198439937678137,0.95,"median","hdci","ssf_dEstSSF"
"b_modelFormmf.ss",-0.00100841505064804,-0.100021477985392,0.103871524987358,0.95,"median","hdci","ssf_dEstSSF"
"b_stepDistgamma",-0.0230059120194187,-0.110740778743406,0.0727210576587164,0.95,"median","hdci","ssf_dEstSSF"
"b_tdScaled",-0.978360596086358,-1.02661029823401,-0.92726458669272,0.95,"median","hdci","ssf_dEstSSF"
"b_tfScaled",-1.18502905360643,-1.23119251308121,-1.13483716356174,0.95,"median","hdci","ssf_dEstSSF"
"b_turnDistvonmises",-0.000230735356175942,-0.0993416635412709,0.104282346869209,0.95,"median","hdci","ssf_dEstSSF"
"b_Intercept",1.16048431942092,-2.00363588344881,4.02316806983952,0.95,"median","hdci","ssf_rEstSSF"
"b_availablePerStepScaled",-0.00606039302775069,-0.0571866252448035,0.0392564540386101,0.95,"median","hdci","ssf_rEstSSF"
"b_modelFormmf.ss",0.0255718973632419,-0.0595515732100178,0.119531881611572,0.95,"median","hdci","ssf_rEstSSF"
"b_stepDistgamma",0.00146129278234544,-0.113918399522945,0.0847937283134549,0.95,"median","hdci","ssf_rEstSSF"
"b_tdScaled",-1.03914786096262,-1.08481440856664,-0.987972796921448,0.95,"median","hdci","ssf_rEstSSF"
"b_tfScaled",-1.13533914561453,-1.18283972121728,-1.08583182531322,0.95,"median","hdci","ssf_rEstSSF"
"b_turnDistvonmises",-0.00827010548211235,-0.0960274589237214,0.0937959206043278,0.95,"median","hdci","ssf_rEstSSF"
"b_Intercept",0.89597586639014,-0.624291058112271,2.34580294302965,0.95,"median","hdci","wrsf_dEstwrsf"
"b_tdScaled",-0.254659051488974,-0.372460302835208,-0.122098105785646,0.95,"median","hdci","wrsf_dEstwrsf"
"b_tfScaled",-0.195983541796124,-0.319349894466358,-0.0624365042887676,0.95,"median","hdci","wrsf_dEstwrsf"
"b_Intercept",0.263450278612814,-1.50137986494477,2.40224113343229,0.95,"median","hdci","wrsf_rEstwrsf"
"b_tdScaled",-0.260360949726035,-0.447190801325775,-0.101319009511068,0.95,"median","hdci","wrsf_rEstwrsf"
"b_tfScaled",-0.0944625691128534,-0.245678584802774,0.0699592069141129,0.95,"median","hdci","wrsf_rEstwrsf"
