"","Estimate","Lower","Upper","analysis","modelForm","stepDist","turnDist","availablePerStep","branches","species","indi","tf","td","sigColour"
"ssfOUT_7_0.5_1_BADGER.1",-0.184985021111035,-0.843771775112678,0.473801732890607,"ssf","mf.is","gamma","vonmises",5,"ssfOUT_7_0.5_1_BADGER","BADGER",1,2,7,"no effect"
"ssfOUT_7_0.5_1_BADGER.2",0.212840108910008,-0.40677726048134,0.832457478301356,"ssf","mf.is","gamma","vonmises",15,"ssfOUT_7_0.5_1_BADGER","BADGER",1,2,7,"no effect"
"ssfOUT_7_0.5_1_BADGER.3",-0.132085145918717,-0.758083374365854,0.49391308252842,"ssf","mf.is","gamma","vonmises",50,"ssfOUT_7_0.5_1_BADGER","BADGER",1,2,7,"no effect"
"ssfOUT_7_0.5_1_BADGER.4",-0.231083587892125,-0.856313631477138,0.394146455692888,"ssf","mf.is","gamma","vonmises",158,"ssfOUT_7_0.5_1_BADGER","BADGER",1,2,7,"no effect"
"ssfOUT_7_0.5_1_BADGER.5",-0.0703014293896306,-0.681172040171571,0.54056918139231,"ssf","mf.is","gamma","vonmises",500,"ssfOUT_7_0.5_1_BADGER","BADGER",1,2,7,"no effect"
"ssfOUT_7_0.5_1_BADGER.6",-0.169534389910675,-0.822865445933416,0.483796666112065,"ssf","mf.is","gamma","unif",5,"ssfOUT_7_0.5_1_BADGER","BADGER",1,2,7,"no effect"
"ssfOUT_7_0.5_1_BADGER.7",-0.0884397137726633,-0.722509168390372,0.545629740845046,"ssf","mf.is","gamma","unif",15,"ssfOUT_7_0.5_1_BADGER","BADGER",1,2,7,"no effect"
"ssfOUT_7_0.5_1_BADGER.8",0.0651228009317677,-0.545118337159231,0.675363939022767,"ssf","mf.is","gamma","unif",50,"ssfOUT_7_0.5_1_BADGER","BADGER",1,2,7,"no effect"
"ssfOUT_7_0.5_1_BADGER.9",-0.0585361496897935,-0.67503600706672,0.557963707687133,"ssf","mf.is","gamma","unif",158,"ssfOUT_7_0.5_1_BADGER","BADGER",1,2,7,"no effect"
"ssfOUT_7_0.5_1_BADGER.10",-0.0835232658632382,-0.698859450083908,0.531812918357432,"ssf","mf.is","gamma","unif",500,"ssfOUT_7_0.5_1_BADGER","BADGER",1,2,7,"no effect"
"ssfOUT_7_0.5_1_BADGER.11",-0.607048294554009,-1.24625042230371,0.0321538331956903,"ssf","mf.is","exp","vonmises",5,"ssfOUT_7_0.5_1_BADGER","BADGER",1,2,7,"no effect"
"ssfOUT_7_0.5_1_BADGER.12",0.0831671513330516,-0.541267734060106,0.707602036726209,"ssf","mf.is","exp","vonmises",15,"ssfOUT_7_0.5_1_BADGER","BADGER",1,2,7,"no effect"
"ssfOUT_7_0.5_1_BADGER.13",0.0126209190640839,-0.601696007425389,0.626937845553557,"ssf","mf.is","exp","vonmises",50,"ssfOUT_7_0.5_1_BADGER","BADGER",1,2,7,"no effect"
"ssfOUT_7_0.5_1_BADGER.14",-0.181119918899474,-0.810541594512651,0.448301756713702,"ssf","mf.is","exp","vonmises",158,"ssfOUT_7_0.5_1_BADGER","BADGER",1,2,7,"no effect"
"ssfOUT_7_0.5_1_BADGER.15",-0.0735402710520211,-0.681055755092641,0.533975212988599,"ssf","mf.is","exp","vonmises",500,"ssfOUT_7_0.5_1_BADGER","BADGER",1,2,7,"no effect"
"ssfOUT_7_0.5_1_BADGER.16",-0.321426653390494,-0.991017857272879,0.348164550491892,"ssf","mf.is","exp","unif",5,"ssfOUT_7_0.5_1_BADGER","BADGER",1,2,7,"no effect"
"ssfOUT_7_0.5_1_BADGER.17",-0.274964028108315,-0.910402871557584,0.360474815340955,"ssf","mf.is","exp","unif",15,"ssfOUT_7_0.5_1_BADGER","BADGER",1,2,7,"no effect"
"ssfOUT_7_0.5_1_BADGER.18",-0.080190643371634,-0.71128862773493,0.550907340991662,"ssf","mf.is","exp","unif",50,"ssfOUT_7_0.5_1_BADGER","BADGER",1,2,7,"no effect"
"ssfOUT_7_0.5_1_BADGER.19",-0.120136124744947,-0.738664001764034,0.49839175227414,"ssf","mf.is","exp","unif",158,"ssfOUT_7_0.5_1_BADGER","BADGER",1,2,7,"no effect"
"ssfOUT_7_0.5_1_BADGER.20",-0.0833878481204032,-0.699231834233581,0.532456137992774,"ssf","mf.is","exp","unif",500,"ssfOUT_7_0.5_1_BADGER","BADGER",1,2,7,"no effect"
"ssfOUT_7_0.5_1_BADGER.21",-0.174610311265926,-0.830998044203676,0.481777421671824,"ssf","mf.ss","gamma","vonmises",5,"ssfOUT_7_0.5_1_BADGER","BADGER",1,2,7,"no effect"
"ssfOUT_7_0.5_1_BADGER.22",0.213795763131347,-0.40331535399749,0.830906880260185,"ssf","mf.ss","gamma","vonmises",15,"ssfOUT_7_0.5_1_BADGER","BADGER",1,2,7,"no effect"
"ssfOUT_7_0.5_1_BADGER.23",-0.133736452241373,-0.758631577758081,0.491158673275335,"ssf","mf.ss","gamma","vonmises",50,"ssfOUT_7_0.5_1_BADGER","BADGER",1,2,7,"no effect"
"ssfOUT_7_0.5_1_BADGER.24",-0.229812541783034,-0.854716044848588,0.39509096128252,"ssf","mf.ss","gamma","vonmises",158,"ssfOUT_7_0.5_1_BADGER","BADGER",1,2,7,"no effect"
"ssfOUT_7_0.5_1_BADGER.25",-0.0690531151434135,-0.67989085958878,0.541784629301953,"ssf","mf.ss","gamma","vonmises",500,"ssfOUT_7_0.5_1_BADGER","BADGER",1,2,7,"no effect"
"ssfOUT_7_0.5_1_BADGER.26",-0.166155110055893,-0.813648114293045,0.481337894181258,"ssf","mf.ss","gamma","unif",5,"ssfOUT_7_0.5_1_BADGER","BADGER",1,2,7,"no effect"
"ssfOUT_7_0.5_1_BADGER.27",-0.122791972626446,-0.75211365642016,0.506529711167268,"ssf","mf.ss","gamma","unif",15,"ssfOUT_7_0.5_1_BADGER","BADGER",1,2,7,"no effect"
"ssfOUT_7_0.5_1_BADGER.28",0.0614364888332335,-0.548825912684669,0.671698890351136,"ssf","mf.ss","gamma","unif",50,"ssfOUT_7_0.5_1_BADGER","BADGER",1,2,7,"no effect"
"ssfOUT_7_0.5_1_BADGER.29",-0.0557757110769719,-0.670746272900391,0.559194850746447,"ssf","mf.ss","gamma","unif",158,"ssfOUT_7_0.5_1_BADGER","BADGER",1,2,7,"no effect"
"ssfOUT_7_0.5_1_BADGER.30",-0.079708121956586,-0.693665980953868,0.534249737040696,"ssf","mf.ss","gamma","unif",500,"ssfOUT_7_0.5_1_BADGER","BADGER",1,2,7,"no effect"
"ssfOUT_7_0.5_1_BADGER.31",-0.214303403493329,-0.85158060810168,0.422973801115022,"ssf","mf.ss","exp","vonmises",5,"ssfOUT_7_0.5_1_BADGER","BADGER",1,2,7,"no effect"
"ssfOUT_7_0.5_1_BADGER.32",-0.0207282106784714,-0.617731240500886,0.576274819143943,"ssf","mf.ss","exp","vonmises",15,"ssfOUT_7_0.5_1_BADGER","BADGER",1,2,7,"no effect"
"ssfOUT_7_0.5_1_BADGER.33",0.0680726083969642,-0.531246531222673,0.667391748016602,"ssf","mf.ss","exp","vonmises",50,"ssfOUT_7_0.5_1_BADGER","BADGER",1,2,7,"no effect"
"ssfOUT_7_0.5_1_BADGER.34",-0.1797804167213,-0.782850455585187,0.423289622142586,"ssf","mf.ss","exp","vonmises",158,"ssfOUT_7_0.5_1_BADGER","BADGER",1,2,7,"no effect"
"ssfOUT_7_0.5_1_BADGER.35",-0.0823320345738547,-0.679192610072223,0.514528540924514,"ssf","mf.ss","exp","vonmises",500,"ssfOUT_7_0.5_1_BADGER","BADGER",1,2,7,"no effect"
"ssfOUT_7_0.5_1_BADGER.36",-0.185794472385615,-0.839643376052428,0.468054431281198,"ssf","mf.ss","exp","unif",5,"ssfOUT_7_0.5_1_BADGER","BADGER",1,2,7,"no effect"
"ssfOUT_7_0.5_1_BADGER.37",-0.181948545923887,-0.79657901975293,0.432681927905156,"ssf","mf.ss","exp","unif",15,"ssfOUT_7_0.5_1_BADGER","BADGER",1,2,7,"no effect"
"ssfOUT_7_0.5_1_BADGER.38",-0.123709393164874,-0.730593820706386,0.483175034376637,"ssf","mf.ss","exp","unif",50,"ssfOUT_7_0.5_1_BADGER","BADGER",1,2,7,"no effect"
"ssfOUT_7_0.5_1_BADGER.39",-0.0478603757699368,-0.65074320227478,0.555022450734906,"ssf","mf.ss","exp","unif",158,"ssfOUT_7_0.5_1_BADGER","BADGER",1,2,7,"no effect"
"ssfOUT_7_0.5_1_BADGER.40",-0.0955506435127871,-0.696768627669885,0.505667340644311,"ssf","mf.ss","exp","unif",500,"ssfOUT_7_0.5_1_BADGER","BADGER",1,2,7,"no effect"
"ssfOUT_7_0.5_1_VULTURE.1",0.471445479271407,-0.326944846863503,1.26983580540632,"ssf","mf.is","gamma","vonmises",5,"ssfOUT_7_0.5_1_VULTURE","VULTURE",1,2,7,"no effect"
"ssfOUT_7_0.5_1_VULTURE.2",0.760704889005581,-0.00265895289744633,1.52406873090861,"ssf","mf.is","gamma","vonmises",15,"ssfOUT_7_0.5_1_VULTURE","VULTURE",1,2,7,"no effect"
"ssfOUT_7_0.5_1_VULTURE.3",0.870159164295954,0.11264109275361,1.6276772358383,"ssf","mf.is","gamma","vonmises",50,"ssfOUT_7_0.5_1_VULTURE","VULTURE",1,2,7,"preference"
"ssfOUT_7_0.5_1_VULTURE.4",1.04437121694108,0.281525493668606,1.80721694021355,"ssf","mf.is","gamma","vonmises",158,"ssfOUT_7_0.5_1_VULTURE","VULTURE",1,2,7,"preference"
"ssfOUT_7_0.5_1_VULTURE.5",0.970637781075314,0.207767789510119,1.73350777264051,"ssf","mf.is","gamma","vonmises",500,"ssfOUT_7_0.5_1_VULTURE","VULTURE",1,2,7,"preference"
"ssfOUT_7_0.5_1_VULTURE.6",1.11482712994785,0.30361651783413,1.92603774206156,"ssf","mf.is","gamma","unif",5,"ssfOUT_7_0.5_1_VULTURE","VULTURE",1,2,7,"preference"
"ssfOUT_7_0.5_1_VULTURE.7",0.820439430541664,0.0513145632679644,1.58956429781536,"ssf","mf.is","gamma","unif",15,"ssfOUT_7_0.5_1_VULTURE","VULTURE",1,2,7,"preference"
"ssfOUT_7_0.5_1_VULTURE.8",0.964893057639641,0.19729995798422,1.73248615729506,"ssf","mf.is","gamma","unif",50,"ssfOUT_7_0.5_1_VULTURE","VULTURE",1,2,7,"preference"
"ssfOUT_7_0.5_1_VULTURE.9",0.977390345685053,0.214321838952153,1.74045885241795,"ssf","mf.is","gamma","unif",158,"ssfOUT_7_0.5_1_VULTURE","VULTURE",1,2,7,"preference"
"ssfOUT_7_0.5_1_VULTURE.10",0.991012898147673,0.231812142324614,1.75021365397073,"ssf","mf.is","gamma","unif",500,"ssfOUT_7_0.5_1_VULTURE","VULTURE",1,2,7,"preference"
"ssfOUT_7_0.5_1_VULTURE.11",0.873030591677406,0.0673591876375624,1.67870199571725,"ssf","mf.is","exp","vonmises",5,"ssfOUT_7_0.5_1_VULTURE","VULTURE",1,2,7,"preference"
"ssfOUT_7_0.5_1_VULTURE.12",0.876519741237486,0.102347943168132,1.65069153930684,"ssf","mf.is","exp","vonmises",15,"ssfOUT_7_0.5_1_VULTURE","VULTURE",1,2,7,"preference"
"ssfOUT_7_0.5_1_VULTURE.13",0.836275715889307,0.0629184091605709,1.60963302261804,"ssf","mf.is","exp","vonmises",50,"ssfOUT_7_0.5_1_VULTURE","VULTURE",1,2,7,"preference"
"ssfOUT_7_0.5_1_VULTURE.14",1.00491914033349,0.243215921287156,1.76662235937983,"ssf","mf.is","exp","vonmises",158,"ssfOUT_7_0.5_1_VULTURE","VULTURE",1,2,7,"preference"
"ssfOUT_7_0.5_1_VULTURE.15",0.971862049932361,0.213469985239477,1.73025411462525,"ssf","mf.is","exp","vonmises",500,"ssfOUT_7_0.5_1_VULTURE","VULTURE",1,2,7,"preference"
"ssfOUT_7_0.5_1_VULTURE.16",0.558563931358453,-0.373149735443834,1.49027759816074,"ssf","mf.is","exp","unif",5,"ssfOUT_7_0.5_1_VULTURE","VULTURE",1,2,7,"no effect"
"ssfOUT_7_0.5_1_VULTURE.17",0.75331215579249,-0.0137319547755106,1.52035626636049,"ssf","mf.is","exp","unif",15,"ssfOUT_7_0.5_1_VULTURE","VULTURE",1,2,7,"no effect"
"ssfOUT_7_0.5_1_VULTURE.18",0.978675161849355,0.212551771345832,1.74479855235288,"ssf","mf.is","exp","unif",50,"ssfOUT_7_0.5_1_VULTURE","VULTURE",1,2,7,"preference"
"ssfOUT_7_0.5_1_VULTURE.19",1.03806401178045,0.276823479125548,1.79930454443536,"ssf","mf.is","exp","unif",158,"ssfOUT_7_0.5_1_VULTURE","VULTURE",1,2,7,"preference"
"ssfOUT_7_0.5_1_VULTURE.20",0.956950336071992,0.197819770342698,1.71608090180129,"ssf","mf.is","exp","unif",500,"ssfOUT_7_0.5_1_VULTURE","VULTURE",1,2,7,"preference"
"ssfOUT_7_0.5_1_VULTURE.21",0.406157579209186,-0.394362997031515,1.20667815544989,"ssf","mf.ss","gamma","vonmises",5,"ssfOUT_7_0.5_1_VULTURE","VULTURE",1,2,7,"no effect"
"ssfOUT_7_0.5_1_VULTURE.22",0.771031279454117,0.00905287866823501,1.53300968024,"ssf","mf.ss","gamma","vonmises",15,"ssfOUT_7_0.5_1_VULTURE","VULTURE",1,2,7,"preference"
"ssfOUT_7_0.5_1_VULTURE.23",0.832832257043326,0.077125282087659,1.58853923199899,"ssf","mf.ss","gamma","vonmises",50,"ssfOUT_7_0.5_1_VULTURE","VULTURE",1,2,7,"preference"
"ssfOUT_7_0.5_1_VULTURE.24",1.01756534685487,0.256147927549647,1.77898276616009,"ssf","mf.ss","gamma","vonmises",158,"ssfOUT_7_0.5_1_VULTURE","VULTURE",1,2,7,"preference"
"ssfOUT_7_0.5_1_VULTURE.25",0.943331916774145,0.180483545635526,1.70618028791276,"ssf","mf.ss","gamma","vonmises",500,"ssfOUT_7_0.5_1_VULTURE","VULTURE",1,2,7,"preference"
"ssfOUT_7_0.5_1_VULTURE.26",1.09185728282754,0.287247772535743,1.89646679311934,"ssf","mf.ss","gamma","unif",5,"ssfOUT_7_0.5_1_VULTURE","VULTURE",1,2,7,"preference"
"ssfOUT_7_0.5_1_VULTURE.27",0.759046794068788,-0.00672692881702608,1.5248205169546,"ssf","mf.ss","gamma","unif",15,"ssfOUT_7_0.5_1_VULTURE","VULTURE",1,2,7,"no effect"
"ssfOUT_7_0.5_1_VULTURE.28",0.961101986713288,0.19179852826114,1.73040544516544,"ssf","mf.ss","gamma","unif",50,"ssfOUT_7_0.5_1_VULTURE","VULTURE",1,2,7,"preference"
"ssfOUT_7_0.5_1_VULTURE.29",0.95397083824458,0.191960560580724,1.71598111590844,"ssf","mf.ss","gamma","unif",158,"ssfOUT_7_0.5_1_VULTURE","VULTURE",1,2,7,"preference"
"ssfOUT_7_0.5_1_VULTURE.30",0.98096377794715,0.221544577928159,1.74038297796614,"ssf","mf.ss","gamma","unif",500,"ssfOUT_7_0.5_1_VULTURE","VULTURE",1,2,7,"preference"
"ssfOUT_7_0.5_1_VULTURE.31",0.98448258004769,0.186360612345904,1.78260454774948,"ssf","mf.ss","exp","vonmises",5,"ssfOUT_7_0.5_1_VULTURE","VULTURE",1,2,7,"preference"
"ssfOUT_7_0.5_1_VULTURE.32",0.882557858613112,0.105798072412875,1.65931764481335,"ssf","mf.ss","exp","vonmises",15,"ssfOUT_7_0.5_1_VULTURE","VULTURE",1,2,7,"preference"
"ssfOUT_7_0.5_1_VULTURE.33",0.807378453139673,0.0293752397768162,1.58538166650253,"ssf","mf.ss","exp","vonmises",50,"ssfOUT_7_0.5_1_VULTURE","VULTURE",1,2,7,"preference"
"ssfOUT_7_0.5_1_VULTURE.34",0.978721408310447,0.20695449321212,1.75048832340877,"ssf","mf.ss","exp","vonmises",158,"ssfOUT_7_0.5_1_VULTURE","VULTURE",1,2,7,"preference"
"ssfOUT_7_0.5_1_VULTURE.35",0.932160408009787,0.164071679048517,1.70024913697106,"ssf","mf.ss","exp","vonmises",500,"ssfOUT_7_0.5_1_VULTURE","VULTURE",1,2,7,"preference"
"ssfOUT_7_0.5_1_VULTURE.36",0.445572884736032,-0.511688421106754,1.40283419057882,"ssf","mf.ss","exp","unif",5,"ssfOUT_7_0.5_1_VULTURE","VULTURE",1,2,7,"no effect"
"ssfOUT_7_0.5_1_VULTURE.37",0.614512534071585,-0.161982992856696,1.39100806099987,"ssf","mf.ss","exp","unif",15,"ssfOUT_7_0.5_1_VULTURE","VULTURE",1,2,7,"no effect"
"ssfOUT_7_0.5_1_VULTURE.38",0.962524357932908,0.186820281708674,1.73822843415714,"ssf","mf.ss","exp","unif",50,"ssfOUT_7_0.5_1_VULTURE","VULTURE",1,2,7,"preference"
"ssfOUT_7_0.5_1_VULTURE.39",1.05980161019251,0.285873138950809,1.83373008143422,"ssf","mf.ss","exp","unif",158,"ssfOUT_7_0.5_1_VULTURE","VULTURE",1,2,7,"preference"
"ssfOUT_7_0.5_1_VULTURE.40",0.952066853176536,0.182791201451782,1.72134250490129,"ssf","mf.ss","exp","unif",500,"ssfOUT_7_0.5_1_VULTURE","VULTURE",1,2,7,"preference"
"ssfOUT_7_0.5_1_KINGCOBRA.1",14.8399943378481,-2018.73908966773,2048.41907834343,"ssf","mf.is","gamma","vonmises",5,"ssfOUT_7_0.5_1_KINGCOBRA","KINGCOBRA",1,2,7,"no effect"
"ssfOUT_7_0.5_1_KINGCOBRA.2",14.8614519259516,-1387.84743959399,1417.57034344589,"ssf","mf.is","gamma","vonmises",15,"ssfOUT_7_0.5_1_KINGCOBRA","KINGCOBRA",1,2,7,"no effect"
"ssfOUT_7_0.5_1_KINGCOBRA.3",14.5310017258578,-1556.29262622183,1585.35462967355,"ssf","mf.is","gamma","vonmises",50,"ssfOUT_7_0.5_1_KINGCOBRA","KINGCOBRA",1,2,7,"no effect"
"ssfOUT_7_0.5_1_KINGCOBRA.4",14.5359541714222,-1640.260241619,1669.33214996184,"ssf","mf.is","gamma","vonmises",158,"ssfOUT_7_0.5_1_KINGCOBRA","KINGCOBRA",1,2,7,"no effect"
"ssfOUT_7_0.5_1_KINGCOBRA.5",14.4853589951642,-1445.95422098638,1474.92493897671,"ssf","mf.is","gamma","vonmises",500,"ssfOUT_7_0.5_1_KINGCOBRA","KINGCOBRA",1,2,7,"no effect"
"ssfOUT_7_0.5_1_KINGCOBRA.6",13.7952348569079,-1736.15618277752,1763.74665249133,"ssf","mf.is","gamma","unif",5,"ssfOUT_7_0.5_1_KINGCOBRA","KINGCOBRA",1,2,7,"no effect"
"ssfOUT_7_0.5_1_KINGCOBRA.7",14.4299519409353,-1589.28965264864,1618.14955653051,"ssf","mf.is","gamma","unif",15,"ssfOUT_7_0.5_1_KINGCOBRA","KINGCOBRA",1,2,7,"no effect"
"ssfOUT_7_0.5_1_KINGCOBRA.8",14.46777906124,-1652.77230320429,1681.70786132677,"ssf","mf.is","gamma","unif",50,"ssfOUT_7_0.5_1_KINGCOBRA","KINGCOBRA",1,2,7,"no effect"
"ssfOUT_7_0.5_1_KINGCOBRA.9",14.4947147668944,-1422.27682370713,1451.26625324092,"ssf","mf.is","gamma","unif",158,"ssfOUT_7_0.5_1_KINGCOBRA","KINGCOBRA",1,2,7,"no effect"
"ssfOUT_7_0.5_1_KINGCOBRA.10",14.4585229574702,-1478.21626505096,1507.1333109659,"ssf","mf.is","gamma","unif",500,"ssfOUT_7_0.5_1_KINGCOBRA","KINGCOBRA",1,2,7,"no effect"
"ssfOUT_7_0.5_1_KINGCOBRA.11",13.8786448947516,-2415.25939239553,2443.01668218503,"ssf","mf.is","exp","vonmises",5,"ssfOUT_7_0.5_1_KINGCOBRA","KINGCOBRA",1,2,7,"no effect"
"ssfOUT_7_0.5_1_KINGCOBRA.12",14.6529113638123,-2093.26793630926,2122.57375903689,"ssf","mf.is","exp","vonmises",15,"ssfOUT_7_0.5_1_KINGCOBRA","KINGCOBRA",1,2,7,"no effect"
"ssfOUT_7_0.5_1_KINGCOBRA.13",15.0373713291683,-1615.2896445699,1645.36438722824,"ssf","mf.is","exp","vonmises",50,"ssfOUT_7_0.5_1_KINGCOBRA","KINGCOBRA",1,2,7,"no effect"
"ssfOUT_7_0.5_1_KINGCOBRA.14",14.0914498718275,-1331.85442341795,1360.03732316161,"ssf","mf.is","exp","vonmises",158,"ssfOUT_7_0.5_1_KINGCOBRA","KINGCOBRA",1,2,7,"no effect"
"ssfOUT_7_0.5_1_KINGCOBRA.15",14.094769125259,-1297.38944380765,1325.57898205817,"ssf","mf.is","exp","vonmises",500,"ssfOUT_7_0.5_1_KINGCOBRA","KINGCOBRA",1,2,7,"no effect"
"ssfOUT_7_0.5_1_KINGCOBRA.16",14.8496903955782,-2699.6396871983,2729.33906798946,"ssf","mf.is","exp","unif",5,"ssfOUT_7_0.5_1_KINGCOBRA","KINGCOBRA",1,2,7,"no effect"
"ssfOUT_7_0.5_1_KINGCOBRA.17",14.2966117139501,-2306.33356288104,2334.92678630894,"ssf","mf.is","exp","unif",15,"ssfOUT_7_0.5_1_KINGCOBRA","KINGCOBRA",1,2,7,"no effect"
"ssfOUT_7_0.5_1_KINGCOBRA.18",13.812993753833,-1453.95429682961,1481.58028433728,"ssf","mf.is","exp","unif",50,"ssfOUT_7_0.5_1_KINGCOBRA","KINGCOBRA",1,2,7,"no effect"
"ssfOUT_7_0.5_1_KINGCOBRA.19",14.3647639196187,-1555.32940713836,1584.0589349776,"ssf","mf.is","exp","unif",158,"ssfOUT_7_0.5_1_KINGCOBRA","KINGCOBRA",1,2,7,"no effect"
"ssfOUT_7_0.5_1_KINGCOBRA.20",14.3380805773908,-1112.41216725655,1141.08832841134,"ssf","mf.is","exp","unif",500,"ssfOUT_7_0.5_1_KINGCOBRA","KINGCOBRA",1,2,7,"no effect"
"ssfOUT_7_0.5_1_KINGCOBRA.21",16.0420746413427,-2411.6508221091,2443.73497139179,"ssf","mf.ss","gamma","vonmises",5,"ssfOUT_7_0.5_1_KINGCOBRA","KINGCOBRA",1,2,7,"no effect"
"ssfOUT_7_0.5_1_KINGCOBRA.22",16.3416321635975,-1803.20312388236,1835.88638820956,"ssf","mf.ss","gamma","vonmises",15,"ssfOUT_7_0.5_1_KINGCOBRA","KINGCOBRA",1,2,7,"no effect"
"ssfOUT_7_0.5_1_KINGCOBRA.23",15.5942941173909,-1136.54921706408,1167.73780529886,"ssf","mf.ss","gamma","vonmises",50,"ssfOUT_7_0.5_1_KINGCOBRA","KINGCOBRA",1,2,7,"no effect"
"ssfOUT_7_0.5_1_KINGCOBRA.24",15.8527687298532,-1159.95629804237,1191.66183550207,"ssf","mf.ss","gamma","vonmises",158,"ssfOUT_7_0.5_1_KINGCOBRA","KINGCOBRA",1,2,7,"no effect"
"ssfOUT_7_0.5_1_KINGCOBRA.25",15.7109866496771,-1075.88246958788,1107.30444288724,"ssf","mf.ss","gamma","vonmises",500,"ssfOUT_7_0.5_1_KINGCOBRA","KINGCOBRA",1,2,7,"no effect"
"ssfOUT_7_0.5_1_KINGCOBRA.26",16.347375362491,-2673.98417337792,2706.6789241029,"ssf","mf.ss","gamma","unif",5,"ssfOUT_7_0.5_1_KINGCOBRA","KINGCOBRA",1,2,7,"no effect"
"ssfOUT_7_0.5_1_KINGCOBRA.27",16.2715150143152,-1945.54639128612,1978.08942131475,"ssf","mf.ss","gamma","unif",15,"ssfOUT_7_0.5_1_KINGCOBRA","KINGCOBRA",1,2,7,"no effect"
"ssfOUT_7_0.5_1_KINGCOBRA.28",15.8795920399786,-1165.04838712769,1196.80757120765,"ssf","mf.ss","gamma","unif",50,"ssfOUT_7_0.5_1_KINGCOBRA","KINGCOBRA",1,2,7,"no effect"
"ssfOUT_7_0.5_1_KINGCOBRA.29",16.0682605992719,-1054.22408444471,1086.36060564326,"ssf","mf.ss","gamma","unif",158,"ssfOUT_7_0.5_1_KINGCOBRA","KINGCOBRA",1,2,7,"no effect"
"ssfOUT_7_0.5_1_KINGCOBRA.30",15.7291712819866,-1085.79543880258,1117.25378136655,"ssf","mf.ss","gamma","unif",500,"ssfOUT_7_0.5_1_KINGCOBRA","KINGCOBRA",1,2,7,"no effect"
"ssfOUT_7_0.5_1_KINGCOBRA.31",16.5894585078389,-2237.50384449782,2270.6827615135,"ssf","mf.ss","exp","vonmises",5,"ssfOUT_7_0.5_1_KINGCOBRA","KINGCOBRA",1,2,7,"no effect"
"ssfOUT_7_0.5_1_KINGCOBRA.32",16.8412898338913,-1710.49185993152,1744.1744395993,"ssf","mf.ss","exp","vonmises",15,"ssfOUT_7_0.5_1_KINGCOBRA","KINGCOBRA",1,2,7,"no effect"
"ssfOUT_7_0.5_1_KINGCOBRA.33",16.9966774871572,-1614.09501453966,1648.08836951398,"ssf","mf.ss","exp","vonmises",50,"ssfOUT_7_0.5_1_KINGCOBRA","KINGCOBRA",1,2,7,"no effect"
"ssfOUT_7_0.5_1_KINGCOBRA.34",15.9021212760322,-1017.00987593584,1048.8141184879,"ssf","mf.ss","exp","vonmises",158,"ssfOUT_7_0.5_1_KINGCOBRA","KINGCOBRA",1,2,7,"no effect"
"ssfOUT_7_0.5_1_KINGCOBRA.35",15.7169494960631,-1007.66088392203,1039.09478291415,"ssf","mf.ss","exp","vonmises",500,"ssfOUT_7_0.5_1_KINGCOBRA","KINGCOBRA",1,2,7,"no effect"
"ssfOUT_7_0.5_1_KINGCOBRA.36",16.8465467752979,-1970.25358797677,2003.94668152736,"ssf","mf.ss","exp","unif",5,"ssfOUT_7_0.5_1_KINGCOBRA","KINGCOBRA",1,2,7,"no effect"
"ssfOUT_7_0.5_1_KINGCOBRA.37",17.6666467754463,-2031.10417392757,2066.43746747847,"ssf","mf.ss","exp","unif",15,"ssfOUT_7_0.5_1_KINGCOBRA","KINGCOBRA",1,2,7,"no effect"
"ssfOUT_7_0.5_1_KINGCOBRA.38",17.0903252650705,-1765.72077337106,1799.9014239012,"ssf","mf.ss","exp","unif",50,"ssfOUT_7_0.5_1_KINGCOBRA","KINGCOBRA",1,2,7,"no effect"
"ssfOUT_7_0.5_1_KINGCOBRA.39",15.8278158663235,-1039.27103661518,1070.92666834783,"ssf","mf.ss","exp","unif",158,"ssfOUT_7_0.5_1_KINGCOBRA","KINGCOBRA",1,2,7,"no effect"
"ssfOUT_7_0.5_1_KINGCOBRA.40",15.7053185522944,-971.450185567246,1002.86082267183,"ssf","mf.ss","exp","unif",500,"ssfOUT_7_0.5_1_KINGCOBRA","KINGCOBRA",1,2,7,"no effect"
"ssfOUT_7_0.5_2_BADGER.1",1.28259619603822,0.50033525819689,2.06485713387956,"ssf","mf.is","gamma","vonmises",5,"ssfOUT_7_0.5_2_BADGER","BADGER",2,2,7,"preference"
"ssfOUT_7_0.5_2_BADGER.2",1.49792109987093,0.754070997961969,2.24177120177989,"ssf","mf.is","gamma","vonmises",15,"ssfOUT_7_0.5_2_BADGER","BADGER",2,2,7,"preference"
"ssfOUT_7_0.5_2_BADGER.3",1.0793696319869,0.371725054714079,1.78701420925973,"ssf","mf.is","gamma","vonmises",50,"ssfOUT_7_0.5_2_BADGER","BADGER",2,2,7,"preference"
"ssfOUT_7_0.5_2_BADGER.4",1.27452027516169,0.527667308641583,2.0213732416818,"ssf","mf.is","gamma","vonmises",158,"ssfOUT_7_0.5_2_BADGER","BADGER",2,2,7,"preference"
"ssfOUT_7_0.5_2_BADGER.5",1.24740900948439,0.527896549294251,1.96692146967454,"ssf","mf.is","gamma","vonmises",500,"ssfOUT_7_0.5_2_BADGER","BADGER",2,2,7,"preference"
"ssfOUT_7_0.5_2_BADGER.6",1.37255687802248,0.590782591733672,2.1543311643113,"ssf","mf.is","gamma","unif",5,"ssfOUT_7_0.5_2_BADGER","BADGER",2,2,7,"preference"
"ssfOUT_7_0.5_2_BADGER.7",1.51073678515673,0.776453441078819,2.24502012923463,"ssf","mf.is","gamma","unif",15,"ssfOUT_7_0.5_2_BADGER","BADGER",2,2,7,"preference"
"ssfOUT_7_0.5_2_BADGER.8",1.11070831903101,0.381162780833451,1.84025385722857,"ssf","mf.is","gamma","unif",50,"ssfOUT_7_0.5_2_BADGER","BADGER",2,2,7,"preference"
"ssfOUT_7_0.5_2_BADGER.9",1.21136137007883,0.497552083627996,1.92517065652967,"ssf","mf.is","gamma","unif",158,"ssfOUT_7_0.5_2_BADGER","BADGER",2,2,7,"preference"
"ssfOUT_7_0.5_2_BADGER.10",1.24333797503878,0.518180018469727,1.96849593160782,"ssf","mf.is","gamma","unif",500,"ssfOUT_7_0.5_2_BADGER","BADGER",2,2,7,"preference"
"ssfOUT_7_0.5_2_BADGER.11",0.930214685586031,0.111072077009418,1.74935729416264,"ssf","mf.is","exp","vonmises",5,"ssfOUT_7_0.5_2_BADGER","BADGER",2,2,7,"preference"
"ssfOUT_7_0.5_2_BADGER.12",1.29821866476949,0.547883963652659,2.04855336588632,"ssf","mf.is","exp","vonmises",15,"ssfOUT_7_0.5_2_BADGER","BADGER",2,2,7,"preference"
"ssfOUT_7_0.5_2_BADGER.13",1.143524341967,0.416821898600522,1.87022678533347,"ssf","mf.is","exp","vonmises",50,"ssfOUT_7_0.5_2_BADGER","BADGER",2,2,7,"preference"
"ssfOUT_7_0.5_2_BADGER.14",1.46417830749177,0.726505723551976,2.20185089143156,"ssf","mf.is","exp","vonmises",158,"ssfOUT_7_0.5_2_BADGER","BADGER",2,2,7,"preference"
"ssfOUT_7_0.5_2_BADGER.15",1.19605709209108,0.474010763786845,1.9181034203953,"ssf","mf.is","exp","vonmises",500,"ssfOUT_7_0.5_2_BADGER","BADGER",2,2,7,"preference"
"ssfOUT_7_0.5_2_BADGER.16",1.17996805537298,0.45859550037293,1.90134061037302,"ssf","mf.is","exp","unif",5,"ssfOUT_7_0.5_2_BADGER","BADGER",2,2,7,"preference"
"ssfOUT_7_0.5_2_BADGER.17",1.45737314094496,0.716523979501064,2.19822230238886,"ssf","mf.is","exp","unif",15,"ssfOUT_7_0.5_2_BADGER","BADGER",2,2,7,"preference"
"ssfOUT_7_0.5_2_BADGER.18",1.02089573402945,0.316421781799701,1.7253696862592,"ssf","mf.is","exp","unif",50,"ssfOUT_7_0.5_2_BADGER","BADGER",2,2,7,"preference"
"ssfOUT_7_0.5_2_BADGER.19",1.39597005737578,0.651061884967582,2.14087822978397,"ssf","mf.is","exp","unif",158,"ssfOUT_7_0.5_2_BADGER","BADGER",2,2,7,"preference"
"ssfOUT_7_0.5_2_BADGER.20",1.17104417495539,0.447633128317666,1.89445522159311,"ssf","mf.is","exp","unif",500,"ssfOUT_7_0.5_2_BADGER","BADGER",2,2,7,"preference"
"ssfOUT_7_0.5_2_BADGER.21",1.30238138297229,0.526879047658069,2.07788371828651,"ssf","mf.ss","gamma","vonmises",5,"ssfOUT_7_0.5_2_BADGER","BADGER",2,2,7,"preference"
"ssfOUT_7_0.5_2_BADGER.22",1.53660511452956,0.77407335661753,2.29913687244159,"ssf","mf.ss","gamma","vonmises",15,"ssfOUT_7_0.5_2_BADGER","BADGER",2,2,7,"preference"
"ssfOUT_7_0.5_2_BADGER.23",1.10880686550213,0.388639749127159,1.82897398187709,"ssf","mf.ss","gamma","vonmises",50,"ssfOUT_7_0.5_2_BADGER","BADGER",2,2,7,"preference"
"ssfOUT_7_0.5_2_BADGER.24",1.29551100297201,0.539343105940638,2.05167890000339,"ssf","mf.ss","gamma","vonmises",158,"ssfOUT_7_0.5_2_BADGER","BADGER",2,2,7,"preference"
"ssfOUT_7_0.5_2_BADGER.25",1.26270377254178,0.534597655409185,1.99080988967437,"ssf","mf.ss","gamma","vonmises",500,"ssfOUT_7_0.5_2_BADGER","BADGER",2,2,7,"preference"
"ssfOUT_7_0.5_2_BADGER.26",1.40304499479635,0.633099513566436,2.17299047602626,"ssf","mf.ss","gamma","unif",5,"ssfOUT_7_0.5_2_BADGER","BADGER",2,2,7,"preference"
"ssfOUT_7_0.5_2_BADGER.27",1.5064268055648,0.758085368886353,2.25476824224325,"ssf","mf.ss","gamma","unif",15,"ssfOUT_7_0.5_2_BADGER","BADGER",2,2,7,"preference"
"ssfOUT_7_0.5_2_BADGER.28",1.13102271416084,0.391150560429659,1.87089486789202,"ssf","mf.ss","gamma","unif",50,"ssfOUT_7_0.5_2_BADGER","BADGER",2,2,7,"preference"
"ssfOUT_7_0.5_2_BADGER.29",1.24049000360213,0.519604721586779,1.96137528561748,"ssf","mf.ss","gamma","unif",158,"ssfOUT_7_0.5_2_BADGER","BADGER",2,2,7,"preference"
"ssfOUT_7_0.5_2_BADGER.30",1.26774798823326,0.535076648000627,2.00041932846589,"ssf","mf.ss","gamma","unif",500,"ssfOUT_7_0.5_2_BADGER","BADGER",2,2,7,"preference"
"ssfOUT_7_0.5_2_BADGER.31",0.948815744865866,0.150893721903335,1.7467377678284,"ssf","mf.ss","exp","vonmises",5,"ssfOUT_7_0.5_2_BADGER","BADGER",2,2,7,"preference"
"ssfOUT_7_0.5_2_BADGER.32",1.58506265685811,0.825123739042989,2.34500157467323,"ssf","mf.ss","exp","vonmises",15,"ssfOUT_7_0.5_2_BADGER","BADGER",2,2,7,"preference"
"ssfOUT_7_0.5_2_BADGER.33",1.47844018158412,0.731969322338327,2.22491104082991,"ssf","mf.ss","exp","vonmises",50,"ssfOUT_7_0.5_2_BADGER","BADGER",2,2,7,"preference"
"ssfOUT_7_0.5_2_BADGER.34",1.43663217226992,0.719129300170688,2.15413504436916,"ssf","mf.ss","exp","vonmises",158,"ssfOUT_7_0.5_2_BADGER","BADGER",2,2,7,"preference"
"ssfOUT_7_0.5_2_BADGER.35",1.4207456477397,0.698654211446577,2.14283708403283,"ssf","mf.ss","exp","vonmises",500,"ssfOUT_7_0.5_2_BADGER","BADGER",2,2,7,"preference"
"ssfOUT_7_0.5_2_BADGER.36",1.40531762637581,0.704081750624347,2.10655350212728,"ssf","mf.ss","exp","unif",5,"ssfOUT_7_0.5_2_BADGER","BADGER",2,2,7,"preference"
"ssfOUT_7_0.5_2_BADGER.37",1.57682120948898,0.85526692896667,2.29837549001128,"ssf","mf.ss","exp","unif",15,"ssfOUT_7_0.5_2_BADGER","BADGER",2,2,7,"preference"
"ssfOUT_7_0.5_2_BADGER.38",1.33359512613654,0.625264693143787,2.04192555912929,"ssf","mf.ss","exp","unif",50,"ssfOUT_7_0.5_2_BADGER","BADGER",2,2,7,"preference"
"ssfOUT_7_0.5_2_BADGER.39",1.40031377742807,0.691950181329656,2.10867737352649,"ssf","mf.ss","exp","unif",158,"ssfOUT_7_0.5_2_BADGER","BADGER",2,2,7,"preference"
"ssfOUT_7_0.5_2_BADGER.40",1.3818771964224,0.662499752736813,2.10125464010799,"ssf","mf.ss","exp","unif",500,"ssfOUT_7_0.5_2_BADGER","BADGER",2,2,7,"preference"
"ssfOUT_7_0.5_2_VULTURE.1",-0.108912737435892,-0.68493620673076,0.467110731858976,"ssf","mf.is","gamma","vonmises",5,"ssfOUT_7_0.5_2_VULTURE","VULTURE",2,2,7,"no effect"
"ssfOUT_7_0.5_2_VULTURE.2",0.333189851783517,-0.202042340630183,0.868422044197216,"ssf","mf.is","gamma","vonmises",15,"ssfOUT_7_0.5_2_VULTURE","VULTURE",2,2,7,"no effect"
"ssfOUT_7_0.5_2_VULTURE.3",-0.0420648240773659,-0.572713491714943,0.488583843560211,"ssf","mf.is","gamma","vonmises",50,"ssfOUT_7_0.5_2_VULTURE","VULTURE",2,2,7,"no effect"
"ssfOUT_7_0.5_2_VULTURE.4",0.0376155379654138,-0.485864650120134,0.561095726050961,"ssf","mf.is","gamma","vonmises",158,"ssfOUT_7_0.5_2_VULTURE","VULTURE",2,2,7,"no effect"
"ssfOUT_7_0.5_2_VULTURE.5",0.0436227604082921,-0.474878216496908,0.562123737313493,"ssf","mf.is","gamma","vonmises",500,"ssfOUT_7_0.5_2_VULTURE","VULTURE",2,2,7,"no effect"
"ssfOUT_7_0.5_2_VULTURE.6",-0.0938721265688965,-0.680504999825557,0.492760746687764,"ssf","mf.is","gamma","unif",5,"ssfOUT_7_0.5_2_VULTURE","VULTURE",2,2,7,"no effect"
"ssfOUT_7_0.5_2_VULTURE.7",0.238770352249535,-0.294791831727003,0.772332536226074,"ssf","mf.is","gamma","unif",15,"ssfOUT_7_0.5_2_VULTURE","VULTURE",2,2,7,"no effect"
"ssfOUT_7_0.5_2_VULTURE.8",0.0856275029459113,-0.438589572538546,0.609844578430368,"ssf","mf.is","gamma","unif",50,"ssfOUT_7_0.5_2_VULTURE","VULTURE",2,2,7,"no effect"
"ssfOUT_7_0.5_2_VULTURE.9",0.00574869432566552,-0.513538534350897,0.525035923002228,"ssf","mf.is","gamma","unif",158,"ssfOUT_7_0.5_2_VULTURE","VULTURE",2,2,7,"no effect"
"ssfOUT_7_0.5_2_VULTURE.10",-0.00683453550424679,-0.527991391146822,0.514322320138328,"ssf","mf.is","gamma","unif",500,"ssfOUT_7_0.5_2_VULTURE","VULTURE",2,2,7,"no effect"
"ssfOUT_7_0.5_2_VULTURE.11",-0.244851627069182,-0.857198078719367,0.367494824581004,"ssf","mf.is","exp","vonmises",5,"ssfOUT_7_0.5_2_VULTURE","VULTURE",2,2,7,"no effect"
"ssfOUT_7_0.5_2_VULTURE.12",0.177355592215116,-0.363793618627508,0.71850480305774,"ssf","mf.is","exp","vonmises",15,"ssfOUT_7_0.5_2_VULTURE","VULTURE",2,2,7,"no effect"
"ssfOUT_7_0.5_2_VULTURE.13",0.126160468047392,-0.399809489718571,0.652130425813356,"ssf","mf.is","exp","vonmises",50,"ssfOUT_7_0.5_2_VULTURE","VULTURE",2,2,7,"no effect"
"ssfOUT_7_0.5_2_VULTURE.14",0.0768631888723007,-0.446991829138696,0.600718206883297,"ssf","mf.is","exp","vonmises",158,"ssfOUT_7_0.5_2_VULTURE","VULTURE",2,2,7,"no effect"
"ssfOUT_7_0.5_2_VULTURE.15",0.0668804454065451,-0.45329250942593,0.58705340023902,"ssf","mf.is","exp","vonmises",500,"ssfOUT_7_0.5_2_VULTURE","VULTURE",2,2,7,"no effect"
"ssfOUT_7_0.5_2_VULTURE.16",-0.0411487899540523,-0.657567072796404,0.575269492888299,"ssf","mf.is","exp","unif",5,"ssfOUT_7_0.5_2_VULTURE","VULTURE",2,2,7,"no effect"
"ssfOUT_7_0.5_2_VULTURE.17",-0.218886460769959,-0.76999816505923,0.332225243519312,"ssf","mf.is","exp","unif",15,"ssfOUT_7_0.5_2_VULTURE","VULTURE",2,2,7,"no effect"
"ssfOUT_7_0.5_2_VULTURE.18",0.0802507990111778,-0.447017833691524,0.60751943171388,"ssf","mf.is","exp","unif",50,"ssfOUT_7_0.5_2_VULTURE","VULTURE",2,2,7,"no effect"
"ssfOUT_7_0.5_2_VULTURE.19",0.108029975434673,-0.411418966230047,0.627478917099392,"ssf","mf.is","exp","unif",158,"ssfOUT_7_0.5_2_VULTURE","VULTURE",2,2,7,"no effect"
"ssfOUT_7_0.5_2_VULTURE.20",-0.00398915077602436,-0.524204875856432,0.516226574304384,"ssf","mf.is","exp","unif",500,"ssfOUT_7_0.5_2_VULTURE","VULTURE",2,2,7,"no effect"
"ssfOUT_7_0.5_2_VULTURE.21",-0.0891642554050392,-0.662933425067539,0.484604914257461,"ssf","mf.ss","gamma","vonmises",5,"ssfOUT_7_0.5_2_VULTURE","VULTURE",2,2,7,"no effect"
"ssfOUT_7_0.5_2_VULTURE.22",0.348443538026618,-0.186513318471776,0.883400394525013,"ssf","mf.ss","gamma","vonmises",15,"ssfOUT_7_0.5_2_VULTURE","VULTURE",2,2,7,"no effect"
"ssfOUT_7_0.5_2_VULTURE.23",-0.0352631311125232,-0.565859359987771,0.495333097762724,"ssf","mf.ss","gamma","vonmises",50,"ssfOUT_7_0.5_2_VULTURE","VULTURE",2,2,7,"no effect"
"ssfOUT_7_0.5_2_VULTURE.24",0.0384900345250405,-0.485021071346886,0.562001140396967,"ssf","mf.ss","gamma","vonmises",158,"ssfOUT_7_0.5_2_VULTURE","VULTURE",2,2,7,"no effect"
"ssfOUT_7_0.5_2_VULTURE.25",0.042739648272424,-0.475668914818005,0.561148211362853,"ssf","mf.ss","gamma","vonmises",500,"ssfOUT_7_0.5_2_VULTURE","VULTURE",2,2,7,"no effect"
"ssfOUT_7_0.5_2_VULTURE.26",-0.0874572184917714,-0.674012729668129,0.499098292684586,"ssf","mf.ss","gamma","unif",5,"ssfOUT_7_0.5_2_VULTURE","VULTURE",2,2,7,"no effect"
"ssfOUT_7_0.5_2_VULTURE.27",0.243858465574393,-0.2890552351208,0.776772166269585,"ssf","mf.ss","gamma","unif",15,"ssfOUT_7_0.5_2_VULTURE","VULTURE",2,2,7,"no effect"
"ssfOUT_7_0.5_2_VULTURE.28",0.0890743118785433,-0.434933570715012,0.613082194472099,"ssf","mf.ss","gamma","unif",50,"ssfOUT_7_0.5_2_VULTURE","VULTURE",2,2,7,"no effect"
"ssfOUT_7_0.5_2_VULTURE.29",0.0062183471257339,-0.512889705451204,0.525326399702672,"ssf","mf.ss","gamma","unif",158,"ssfOUT_7_0.5_2_VULTURE","VULTURE",2,2,7,"no effect"
"ssfOUT_7_0.5_2_VULTURE.30",-0.00664712746658162,-0.527743131584803,0.51444887665164,"ssf","mf.ss","gamma","unif",500,"ssfOUT_7_0.5_2_VULTURE","VULTURE",2,2,7,"no effect"
"ssfOUT_7_0.5_2_VULTURE.31",-0.420659512262013,-1.01388949654451,0.172570472020486,"ssf","mf.ss","exp","vonmises",5,"ssfOUT_7_0.5_2_VULTURE","VULTURE",2,2,7,"no effect"
"ssfOUT_7_0.5_2_VULTURE.32",0.0959340058519227,-0.44584626818072,0.637714279884565,"ssf","mf.ss","exp","vonmises",15,"ssfOUT_7_0.5_2_VULTURE","VULTURE",2,2,7,"no effect"
"ssfOUT_7_0.5_2_VULTURE.33",0.0183993401051625,-0.510675445764083,0.547474125974408,"ssf","mf.ss","exp","vonmises",50,"ssfOUT_7_0.5_2_VULTURE","VULTURE",2,2,7,"no effect"
"ssfOUT_7_0.5_2_VULTURE.34",0.00267442332767296,-0.527699729034218,0.533048575689564,"ssf","mf.ss","exp","vonmises",158,"ssfOUT_7_0.5_2_VULTURE","VULTURE",2,2,7,"no effect"
"ssfOUT_7_0.5_2_VULTURE.35",-0.0162860893815166,-0.541486631931798,0.508914453168765,"ssf","mf.ss","exp","vonmises",500,"ssfOUT_7_0.5_2_VULTURE","VULTURE",2,2,7,"no effect"
"ssfOUT_7_0.5_2_VULTURE.36",-0.225064487764912,-0.814976556270142,0.364847580740317,"ssf","mf.ss","exp","unif",5,"ssfOUT_7_0.5_2_VULTURE","VULTURE",2,2,7,"no effect"
"ssfOUT_7_0.5_2_VULTURE.37",-0.181624332569124,-0.738347399161607,0.375098734023359,"ssf","mf.ss","exp","unif",15,"ssfOUT_7_0.5_2_VULTURE","VULTURE",2,2,7,"no effect"
"ssfOUT_7_0.5_2_VULTURE.38",-0.00162330850272374,-0.534341946593649,0.531095329588201,"ssf","mf.ss","exp","unif",50,"ssfOUT_7_0.5_2_VULTURE","VULTURE",2,2,7,"no effect"
"ssfOUT_7_0.5_2_VULTURE.39",0.0269717656360877,-0.497581237555704,0.55152476882788,"ssf","mf.ss","exp","unif",158,"ssfOUT_7_0.5_2_VULTURE","VULTURE",2,2,7,"no effect"
"ssfOUT_7_0.5_2_VULTURE.40",-0.0764107968209165,-0.602555487192194,0.449733893550361,"ssf","mf.ss","exp","unif",500,"ssfOUT_7_0.5_2_VULTURE","VULTURE",2,2,7,"no effect"
"ssfOUT_7_0.5_2_KINGCOBRA.1",-0.115752201845434,-0.897531281597853,0.666026877906984,"ssf","mf.is","gamma","vonmises",5,"ssfOUT_7_0.5_2_KINGCOBRA","KINGCOBRA",2,2,7,"no effect"
"ssfOUT_7_0.5_2_KINGCOBRA.2",-0.263275801918635,-1.00469890608096,0.478147302243687,"ssf","mf.is","gamma","vonmises",15,"ssfOUT_7_0.5_2_KINGCOBRA","KINGCOBRA",2,2,7,"no effect"
"ssfOUT_7_0.5_2_KINGCOBRA.3",-0.121068893296173,-0.893475233217004,0.651337446624657,"ssf","mf.is","gamma","vonmises",50,"ssfOUT_7_0.5_2_KINGCOBRA","KINGCOBRA",2,2,7,"no effect"
"ssfOUT_7_0.5_2_KINGCOBRA.4",0.176083623113606,-0.590093767747824,0.942261013975037,"ssf","mf.is","gamma","vonmises",158,"ssfOUT_7_0.5_2_KINGCOBRA","KINGCOBRA",2,2,7,"no effect"
"ssfOUT_7_0.5_2_KINGCOBRA.5",0.0873242288366518,-0.686131751309423,0.860780208982726,"ssf","mf.is","gamma","vonmises",500,"ssfOUT_7_0.5_2_KINGCOBRA","KINGCOBRA",2,2,7,"no effect"
"ssfOUT_7_0.5_2_KINGCOBRA.6",0.40554070311778,-0.405487018616466,1.21656842485203,"ssf","mf.is","gamma","unif",5,"ssfOUT_7_0.5_2_KINGCOBRA","KINGCOBRA",2,2,7,"no effect"
"ssfOUT_7_0.5_2_KINGCOBRA.7",0.0689647083614892,-0.708347132425529,0.846276549148507,"ssf","mf.is","gamma","unif",15,"ssfOUT_7_0.5_2_KINGCOBRA","KINGCOBRA",2,2,7,"no effect"
"ssfOUT_7_0.5_2_KINGCOBRA.8",0.240006437387189,-0.54176489612583,1.02177777090021,"ssf","mf.is","gamma","unif",50,"ssfOUT_7_0.5_2_KINGCOBRA","KINGCOBRA",2,2,7,"no effect"
"ssfOUT_7_0.5_2_KINGCOBRA.9",0.0330423039247972,-0.761220987849658,0.827305595699253,"ssf","mf.is","gamma","unif",158,"ssfOUT_7_0.5_2_KINGCOBRA","KINGCOBRA",2,2,7,"no effect"
"ssfOUT_7_0.5_2_KINGCOBRA.10",0.0438146707187829,-0.721858746779788,0.809488088217354,"ssf","mf.is","gamma","unif",500,"ssfOUT_7_0.5_2_KINGCOBRA","KINGCOBRA",2,2,7,"no effect"
"ssfOUT_7_0.5_2_KINGCOBRA.11",-0.333730879912904,-1.15310647871455,0.485644718888739,"ssf","mf.is","exp","vonmises",5,"ssfOUT_7_0.5_2_KINGCOBRA","KINGCOBRA",2,2,7,"no effect"
"ssfOUT_7_0.5_2_KINGCOBRA.12",0.7702435129068,0.0409365668449646,1.49955045896864,"ssf","mf.is","exp","vonmises",15,"ssfOUT_7_0.5_2_KINGCOBRA","KINGCOBRA",2,2,7,"preference"
"ssfOUT_7_0.5_2_KINGCOBRA.13",-0.0553830089360313,-0.782318853703078,0.671552835831015,"ssf","mf.is","exp","vonmises",50,"ssfOUT_7_0.5_2_KINGCOBRA","KINGCOBRA",2,2,7,"no effect"
"ssfOUT_7_0.5_2_KINGCOBRA.14",0.286352863605139,-0.621491410164485,1.19419713737476,"ssf","mf.is","exp","vonmises",158,"ssfOUT_7_0.5_2_KINGCOBRA","KINGCOBRA",2,2,7,"no effect"
"ssfOUT_7_0.5_2_KINGCOBRA.15",0.0609650308085924,-0.71192562017159,0.833855681788775,"ssf","mf.is","exp","vonmises",500,"ssfOUT_7_0.5_2_KINGCOBRA","KINGCOBRA",2,2,7,"no effect"
"ssfOUT_7_0.5_2_KINGCOBRA.16",0.197542613195462,-0.622355830119739,1.01744105651066,"ssf","mf.is","exp","unif",5,"ssfOUT_7_0.5_2_KINGCOBRA","KINGCOBRA",2,2,7,"no effect"
"ssfOUT_7_0.5_2_KINGCOBRA.17",0.201566646280584,-0.574476210656906,0.977609503218075,"ssf","mf.is","exp","unif",15,"ssfOUT_7_0.5_2_KINGCOBRA","KINGCOBRA",2,2,7,"no effect"
"ssfOUT_7_0.5_2_KINGCOBRA.18",-0.0896657449878161,-0.903504745237906,0.724173255262273,"ssf","mf.is","exp","unif",50,"ssfOUT_7_0.5_2_KINGCOBRA","KINGCOBRA",2,2,7,"no effect"
"ssfOUT_7_0.5_2_KINGCOBRA.19",0.332370792225446,-0.394949679252113,1.059691263703,"ssf","mf.is","exp","unif",158,"ssfOUT_7_0.5_2_KINGCOBRA","KINGCOBRA",2,2,7,"no effect"
"ssfOUT_7_0.5_2_KINGCOBRA.20",-0.0234424752680416,-0.805557625756403,0.75867267522032,"ssf","mf.is","exp","unif",500,"ssfOUT_7_0.5_2_KINGCOBRA","KINGCOBRA",2,2,7,"no effect"
"ssfOUT_7_0.5_2_KINGCOBRA.21",-0.149262667608771,-0.933767253374378,0.635241918156836,"ssf","mf.ss","gamma","vonmises",5,"ssfOUT_7_0.5_2_KINGCOBRA","KINGCOBRA",2,2,7,"no effect"
"ssfOUT_7_0.5_2_KINGCOBRA.22",-0.259730267719666,-1.01088312735077,0.491422591911437,"ssf","mf.ss","gamma","vonmises",15,"ssfOUT_7_0.5_2_KINGCOBRA","KINGCOBRA",2,2,7,"no effect"
"ssfOUT_7_0.5_2_KINGCOBRA.23",-0.115588119518487,-0.893017698201848,0.661841459164873,"ssf","mf.ss","gamma","vonmises",50,"ssfOUT_7_0.5_2_KINGCOBRA","KINGCOBRA",2,2,7,"no effect"
"ssfOUT_7_0.5_2_KINGCOBRA.24",0.187612245831449,-0.580767979316465,0.955992470979362,"ssf","mf.ss","gamma","vonmises",158,"ssfOUT_7_0.5_2_KINGCOBRA","KINGCOBRA",2,2,7,"no effect"
"ssfOUT_7_0.5_2_KINGCOBRA.25",0.0919280363632677,-0.689771359521343,0.873627432247879,"ssf","mf.ss","gamma","vonmises",500,"ssfOUT_7_0.5_2_KINGCOBRA","KINGCOBRA",2,2,7,"no effect"
"ssfOUT_7_0.5_2_KINGCOBRA.26",0.410158857281052,-0.40362100182699,1.22393871638909,"ssf","mf.ss","gamma","unif",5,"ssfOUT_7_0.5_2_KINGCOBRA","KINGCOBRA",2,2,7,"no effect"
"ssfOUT_7_0.5_2_KINGCOBRA.27",0.0917067263118662,-0.684484617268597,0.86789806989233,"ssf","mf.ss","gamma","unif",15,"ssfOUT_7_0.5_2_KINGCOBRA","KINGCOBRA",2,2,7,"no effect"
"ssfOUT_7_0.5_2_KINGCOBRA.28",0.224512161939968,-0.561231088917997,1.01025541279793,"ssf","mf.ss","gamma","unif",50,"ssfOUT_7_0.5_2_KINGCOBRA","KINGCOBRA",2,2,7,"no effect"
"ssfOUT_7_0.5_2_KINGCOBRA.29",0.0266967236044247,-0.777016952897556,0.830410400106406,"ssf","mf.ss","gamma","unif",158,"ssfOUT_7_0.5_2_KINGCOBRA","KINGCOBRA",2,2,7,"no effect"
"ssfOUT_7_0.5_2_KINGCOBRA.30",0.0423117637345996,-0.727667930774021,0.81229145824322,"ssf","mf.ss","gamma","unif",500,"ssfOUT_7_0.5_2_KINGCOBRA","KINGCOBRA",2,2,7,"no effect"
"ssfOUT_7_0.5_2_KINGCOBRA.31",-0.155175153458154,-0.992073732717328,0.681723425801019,"ssf","mf.ss","exp","vonmises",5,"ssfOUT_7_0.5_2_KINGCOBRA","KINGCOBRA",2,2,7,"no effect"
"ssfOUT_7_0.5_2_KINGCOBRA.32",0.218173702306263,-0.497143624132249,0.933491028744775,"ssf","mf.ss","exp","vonmises",15,"ssfOUT_7_0.5_2_KINGCOBRA","KINGCOBRA",2,2,7,"no effect"
"ssfOUT_7_0.5_2_KINGCOBRA.33",-0.0579694184374067,-0.809201443919552,0.693262607044738,"ssf","mf.ss","exp","vonmises",50,"ssfOUT_7_0.5_2_KINGCOBRA","KINGCOBRA",2,2,7,"no effect"
"ssfOUT_7_0.5_2_KINGCOBRA.34",-0.0617777783657937,-0.841999566603555,0.718444009871967,"ssf","mf.ss","exp","vonmises",158,"ssfOUT_7_0.5_2_KINGCOBRA","KINGCOBRA",2,2,7,"no effect"
"ssfOUT_7_0.5_2_KINGCOBRA.35",-0.114782552821973,-0.857901780924291,0.628336675280346,"ssf","mf.ss","exp","vonmises",500,"ssfOUT_7_0.5_2_KINGCOBRA","KINGCOBRA",2,2,7,"no effect"
"ssfOUT_7_0.5_2_KINGCOBRA.36",0.142935329632064,-0.645038116740297,0.930908776004424,"ssf","mf.ss","exp","unif",5,"ssfOUT_7_0.5_2_KINGCOBRA","KINGCOBRA",2,2,7,"no effect"
"ssfOUT_7_0.5_2_KINGCOBRA.37",-0.0247649088653834,-0.777824110114396,0.728294292383629,"ssf","mf.ss","exp","unif",15,"ssfOUT_7_0.5_2_KINGCOBRA","KINGCOBRA",2,2,7,"no effect"
"ssfOUT_7_0.5_2_KINGCOBRA.38",-0.153392463247404,-0.897224396542712,0.590439470047904,"ssf","mf.ss","exp","unif",50,"ssfOUT_7_0.5_2_KINGCOBRA","KINGCOBRA",2,2,7,"no effect"
"ssfOUT_7_0.5_2_KINGCOBRA.39",-0.11519007246965,-0.844632267398713,0.614252122459413,"ssf","mf.ss","exp","unif",158,"ssfOUT_7_0.5_2_KINGCOBRA","KINGCOBRA",2,2,7,"no effect"
"ssfOUT_7_0.5_2_KINGCOBRA.40",-0.163053221796468,-0.906493646307759,0.580387202714823,"ssf","mf.ss","exp","unif",500,"ssfOUT_7_0.5_2_KINGCOBRA","KINGCOBRA",2,2,7,"no effect"
"ssfOUT_7_0.5_3_BADGER.1",0.202802662548068,-0.456098542277069,0.861703867373205,"ssf","mf.is","gamma","vonmises",5,"ssfOUT_7_0.5_3_BADGER","BADGER",3,2,7,"no effect"
"ssfOUT_7_0.5_3_BADGER.2",0.0108318663722918,-0.634707058581362,0.656370791325945,"ssf","mf.is","gamma","vonmises",15,"ssfOUT_7_0.5_3_BADGER","BADGER",3,2,7,"no effect"
"ssfOUT_7_0.5_3_BADGER.3",-0.153680599101905,-0.793245488551208,0.485884290347397,"ssf","mf.is","gamma","vonmises",50,"ssfOUT_7_0.5_3_BADGER","BADGER",3,2,7,"no effect"
"ssfOUT_7_0.5_3_BADGER.4",-0.0062518667893966,-0.644274651175481,0.631770917596688,"ssf","mf.is","gamma","vonmises",158,"ssfOUT_7_0.5_3_BADGER","BADGER",3,2,7,"no effect"
"ssfOUT_7_0.5_3_BADGER.5",0.00529951972596691,-0.628756289057151,0.639355328509084,"ssf","mf.is","gamma","vonmises",500,"ssfOUT_7_0.5_3_BADGER","BADGER",3,2,7,"no effect"
"ssfOUT_7_0.5_3_BADGER.6",-0.305505245049803,-1.00402001088895,0.393009520789346,"ssf","mf.is","gamma","unif",5,"ssfOUT_7_0.5_3_BADGER","BADGER",3,2,7,"no effect"
"ssfOUT_7_0.5_3_BADGER.7",0.105782636968221,-0.545838601620573,0.757403875557015,"ssf","mf.is","gamma","unif",15,"ssfOUT_7_0.5_3_BADGER","BADGER",3,2,7,"no effect"
"ssfOUT_7_0.5_3_BADGER.8",0.114415824014998,-0.531526011444565,0.760357659474562,"ssf","mf.is","gamma","unif",50,"ssfOUT_7_0.5_3_BADGER","BADGER",3,2,7,"no effect"
"ssfOUT_7_0.5_3_BADGER.9",-0.0359081246818558,-0.672608673551055,0.600792424187343,"ssf","mf.is","gamma","unif",158,"ssfOUT_7_0.5_3_BADGER","BADGER",3,2,7,"no effect"
"ssfOUT_7_0.5_3_BADGER.10",0.0145348595198818,-0.620076166340974,0.649145885380737,"ssf","mf.is","gamma","unif",500,"ssfOUT_7_0.5_3_BADGER","BADGER",3,2,7,"no effect"
"ssfOUT_7_0.5_3_BADGER.11",0.145308303413279,-0.529412342242715,0.820028949069273,"ssf","mf.is","exp","vonmises",5,"ssfOUT_7_0.5_3_BADGER","BADGER",3,2,7,"no effect"
"ssfOUT_7_0.5_3_BADGER.12",-0.104639218172399,-0.748966592866865,0.539688156522066,"ssf","mf.is","exp","vonmises",15,"ssfOUT_7_0.5_3_BADGER","BADGER",3,2,7,"no effect"
"ssfOUT_7_0.5_3_BADGER.13",-0.186876960506077,-0.82207277807462,0.448318857062465,"ssf","mf.is","exp","vonmises",50,"ssfOUT_7_0.5_3_BADGER","BADGER",3,2,7,"no effect"
"ssfOUT_7_0.5_3_BADGER.14",-0.0309212819595305,-0.668434771996335,0.606592208077274,"ssf","mf.is","exp","vonmises",158,"ssfOUT_7_0.5_3_BADGER","BADGER",3,2,7,"no effect"
"ssfOUT_7_0.5_3_BADGER.15",-0.0391014834667958,-0.670326156746291,0.592123189812699,"ssf","mf.is","exp","vonmises",500,"ssfOUT_7_0.5_3_BADGER","BADGER",3,2,7,"no effect"
"ssfOUT_7_0.5_3_BADGER.16",-0.532802694995626,-1.23234439025834,0.166739000267085,"ssf","mf.is","exp","unif",5,"ssfOUT_7_0.5_3_BADGER","BADGER",3,2,7,"no effect"
"ssfOUT_7_0.5_3_BADGER.17",-0.0865252894232878,-0.749244191765227,0.576193612918652,"ssf","mf.is","exp","unif",15,"ssfOUT_7_0.5_3_BADGER","BADGER",3,2,7,"no effect"
"ssfOUT_7_0.5_3_BADGER.18",-0.0824097782949374,-0.713982286214946,0.549162729625072,"ssf","mf.is","exp","unif",50,"ssfOUT_7_0.5_3_BADGER","BADGER",3,2,7,"no effect"
"ssfOUT_7_0.5_3_BADGER.19",-0.0845648780517181,-0.716232408703999,0.547102652600563,"ssf","mf.is","exp","unif",158,"ssfOUT_7_0.5_3_BADGER","BADGER",3,2,7,"no effect"
"ssfOUT_7_0.5_3_BADGER.20",-0.054209256066404,-0.684489979244676,0.576071467111868,"ssf","mf.is","exp","unif",500,"ssfOUT_7_0.5_3_BADGER","BADGER",3,2,7,"no effect"
"ssfOUT_7_0.5_3_BADGER.21",0.213531168113857,-0.444681171902625,0.871743508130338,"ssf","mf.ss","gamma","vonmises",5,"ssfOUT_7_0.5_3_BADGER","BADGER",3,2,7,"no effect"
"ssfOUT_7_0.5_3_BADGER.22",0.0152031520630422,-0.63071600383582,0.661122307961905,"ssf","mf.ss","gamma","vonmises",15,"ssfOUT_7_0.5_3_BADGER","BADGER",3,2,7,"no effect"
"ssfOUT_7_0.5_3_BADGER.23",-0.143223408217709,-0.78189950728651,0.495452690851093,"ssf","mf.ss","gamma","vonmises",50,"ssfOUT_7_0.5_3_BADGER","BADGER",3,2,7,"no effect"
"ssfOUT_7_0.5_3_BADGER.24",0.00564426065938593,-0.632307871995283,0.643596393314055,"ssf","mf.ss","gamma","vonmises",158,"ssfOUT_7_0.5_3_BADGER","BADGER",3,2,7,"no effect"
"ssfOUT_7_0.5_3_BADGER.25",0.0173961464114347,-0.616199219844892,0.650991512667761,"ssf","mf.ss","gamma","vonmises",500,"ssfOUT_7_0.5_3_BADGER","BADGER",3,2,7,"no effect"
"ssfOUT_7_0.5_3_BADGER.26",-0.328290367588726,-1.02640821780928,0.369827482631827,"ssf","mf.ss","gamma","unif",5,"ssfOUT_7_0.5_3_BADGER","BADGER",3,2,7,"no effect"
"ssfOUT_7_0.5_3_BADGER.27",0.0659201848570186,-0.581862204670709,0.713702574384746,"ssf","mf.ss","gamma","unif",15,"ssfOUT_7_0.5_3_BADGER","BADGER",3,2,7,"no effect"
"ssfOUT_7_0.5_3_BADGER.28",0.0784547016894,-0.563724648518133,0.720634051896933,"ssf","mf.ss","gamma","unif",50,"ssfOUT_7_0.5_3_BADGER","BADGER",3,2,7,"no effect"
"ssfOUT_7_0.5_3_BADGER.29",-0.0319745241908097,-0.666287367360382,0.602338318978763,"ssf","mf.ss","gamma","unif",158,"ssfOUT_7_0.5_3_BADGER","BADGER",3,2,7,"no effect"
"ssfOUT_7_0.5_3_BADGER.30",0.0129946836303944,-0.618568113530135,0.644557480790924,"ssf","mf.ss","gamma","unif",500,"ssfOUT_7_0.5_3_BADGER","BADGER",3,2,7,"no effect"
"ssfOUT_7_0.5_3_BADGER.31",0.151961764252195,-0.51781973709693,0.82174326560132,"ssf","mf.ss","exp","vonmises",5,"ssfOUT_7_0.5_3_BADGER","BADGER",3,2,7,"no effect"
"ssfOUT_7_0.5_3_BADGER.32",-0.0624974606441925,-0.704923784704027,0.579928863415642,"ssf","mf.ss","exp","vonmises",15,"ssfOUT_7_0.5_3_BADGER","BADGER",3,2,7,"no effect"
"ssfOUT_7_0.5_3_BADGER.33",-0.173580032960627,-0.808034488104644,0.460874422183391,"ssf","mf.ss","exp","vonmises",50,"ssfOUT_7_0.5_3_BADGER","BADGER",3,2,7,"no effect"
"ssfOUT_7_0.5_3_BADGER.34",-0.0617960914240575,-0.692321457975352,0.568729275127237,"ssf","mf.ss","exp","vonmises",158,"ssfOUT_7_0.5_3_BADGER","BADGER",3,2,7,"no effect"
"ssfOUT_7_0.5_3_BADGER.35",-0.0960560087980093,-0.722283097547305,0.530171079951287,"ssf","mf.ss","exp","vonmises",500,"ssfOUT_7_0.5_3_BADGER","BADGER",3,2,7,"no effect"
"ssfOUT_7_0.5_3_BADGER.36",-0.47056407440756,-1.15736971145759,0.21624156264247,"ssf","mf.ss","exp","unif",5,"ssfOUT_7_0.5_3_BADGER","BADGER",3,2,7,"no effect"
"ssfOUT_7_0.5_3_BADGER.37",-0.0367977131646149,-0.682482518265326,0.608887091936096,"ssf","mf.ss","exp","unif",15,"ssfOUT_7_0.5_3_BADGER","BADGER",3,2,7,"no effect"
"ssfOUT_7_0.5_3_BADGER.38",-0.199961129443673,-0.823365136487548,0.423442877600203,"ssf","mf.ss","exp","unif",50,"ssfOUT_7_0.5_3_BADGER","BADGER",3,2,7,"no effect"
"ssfOUT_7_0.5_3_BADGER.39",-0.128850170368727,-0.757727454217415,0.500027113479961,"ssf","mf.ss","exp","unif",158,"ssfOUT_7_0.5_3_BADGER","BADGER",3,2,7,"no effect"
"ssfOUT_7_0.5_3_BADGER.40",-0.107523622230295,-0.731129877774654,0.516082633314063,"ssf","mf.ss","exp","unif",500,"ssfOUT_7_0.5_3_BADGER","BADGER",3,2,7,"no effect"
"ssfOUT_7_0.5_3_VULTURE.1",0.645534006901039,-0.42006446765598,1.71113248145806,"ssf","mf.is","gamma","vonmises",5,"ssfOUT_7_0.5_3_VULTURE","VULTURE",3,2,7,"no effect"
"ssfOUT_7_0.5_3_VULTURE.2",0.987439815517162,-0.0580357855176395,2.03291541655196,"ssf","mf.is","gamma","vonmises",15,"ssfOUT_7_0.5_3_VULTURE","VULTURE",3,2,7,"no effect"
"ssfOUT_7_0.5_3_VULTURE.3",0.891238743238903,-0.138597706875503,1.92107519335331,"ssf","mf.is","gamma","vonmises",50,"ssfOUT_7_0.5_3_VULTURE","VULTURE",3,2,7,"no effect"
"ssfOUT_7_0.5_3_VULTURE.4",0.933469031485015,-0.0931743762289365,1.96011243919897,"ssf","mf.is","gamma","vonmises",158,"ssfOUT_7_0.5_3_VULTURE","VULTURE",3,2,7,"no effect"
"ssfOUT_7_0.5_3_VULTURE.5",0.873599740462565,-0.152466381849662,1.89966586277479,"ssf","mf.is","gamma","vonmises",500,"ssfOUT_7_0.5_3_VULTURE","VULTURE",3,2,7,"no effect"
"ssfOUT_7_0.5_3_VULTURE.6",0.6598418427404,-0.405243409236458,1.72492709471726,"ssf","mf.is","gamma","unif",5,"ssfOUT_7_0.5_3_VULTURE","VULTURE",3,2,7,"no effect"
"ssfOUT_7_0.5_3_VULTURE.7",0.821940558593814,-0.212081342488253,1.85596245967588,"ssf","mf.is","gamma","unif",15,"ssfOUT_7_0.5_3_VULTURE","VULTURE",3,2,7,"no effect"
"ssfOUT_7_0.5_3_VULTURE.8",0.886315482067036,-0.140352475736977,1.91298343987105,"ssf","mf.is","gamma","unif",50,"ssfOUT_7_0.5_3_VULTURE","VULTURE",3,2,7,"no effect"
"ssfOUT_7_0.5_3_VULTURE.9",0.722707669040505,-0.301434064170175,1.74684940225118,"ssf","mf.is","gamma","unif",158,"ssfOUT_7_0.5_3_VULTURE","VULTURE",3,2,7,"no effect"
"ssfOUT_7_0.5_3_VULTURE.10",0.820898211624751,-0.206410579778586,1.84820700302809,"ssf","mf.is","gamma","unif",500,"ssfOUT_7_0.5_3_VULTURE","VULTURE",3,2,7,"no effect"
"ssfOUT_7_0.5_3_VULTURE.11",0.660182932865867,-0.487980181963887,1.80834604769562,"ssf","mf.is","exp","vonmises",5,"ssfOUT_7_0.5_3_VULTURE","VULTURE",3,2,7,"no effect"
"ssfOUT_7_0.5_3_VULTURE.12",0.748526323401324,-0.289398157804704,1.78645080460735,"ssf","mf.is","exp","vonmises",15,"ssfOUT_7_0.5_3_VULTURE","VULTURE",3,2,7,"no effect"
"ssfOUT_7_0.5_3_VULTURE.13",0.959656000746304,-0.0659939831109347,1.98530598460354,"ssf","mf.is","exp","vonmises",50,"ssfOUT_7_0.5_3_VULTURE","VULTURE",3,2,7,"no effect"
"ssfOUT_7_0.5_3_VULTURE.14",0.9489655059544,-0.0730609670390034,1.9709919789478,"ssf","mf.is","exp","vonmises",158,"ssfOUT_7_0.5_3_VULTURE","VULTURE",3,2,7,"no effect"
"ssfOUT_7_0.5_3_VULTURE.15",0.800658631933951,-0.22369835982236,1.82501562369026,"ssf","mf.is","exp","vonmises",500,"ssfOUT_7_0.5_3_VULTURE","VULTURE",3,2,7,"no effect"
"ssfOUT_7_0.5_3_VULTURE.16",-0.140248170629069,-1.41486123383974,1.1343648925816,"ssf","mf.is","exp","unif",5,"ssfOUT_7_0.5_3_VULTURE","VULTURE",3,2,7,"no effect"
"ssfOUT_7_0.5_3_VULTURE.17",0.680622704073837,-0.355884086359874,1.71712949450755,"ssf","mf.is","exp","unif",15,"ssfOUT_7_0.5_3_VULTURE","VULTURE",3,2,7,"no effect"
"ssfOUT_7_0.5_3_VULTURE.18",0.945347796577735,-0.080861012717647,1.97155660587312,"ssf","mf.is","exp","unif",50,"ssfOUT_7_0.5_3_VULTURE","VULTURE",3,2,7,"no effect"
"ssfOUT_7_0.5_3_VULTURE.19",0.923817750303011,-0.0994222981665986,1.94705779877262,"ssf","mf.is","exp","unif",158,"ssfOUT_7_0.5_3_VULTURE","VULTURE",3,2,7,"no effect"
"ssfOUT_7_0.5_3_VULTURE.20",0.91720984150998,-0.107439118556793,1.94185880157675,"ssf","mf.is","exp","unif",500,"ssfOUT_7_0.5_3_VULTURE","VULTURE",3,2,7,"no effect"
"ssfOUT_7_0.5_3_VULTURE.21",0.625955368166322,-0.43802917841896,1.6899399147516,"ssf","mf.ss","gamma","vonmises",5,"ssfOUT_7_0.5_3_VULTURE","VULTURE",3,2,7,"no effect"
"ssfOUT_7_0.5_3_VULTURE.22",1.01765370053578,-0.0263125057059346,2.0616199067775,"ssf","mf.ss","gamma","vonmises",15,"ssfOUT_7_0.5_3_VULTURE","VULTURE",3,2,7,"no effect"
"ssfOUT_7_0.5_3_VULTURE.23",0.919425048394606,-0.109272772615251,1.94812286940446,"ssf","mf.ss","gamma","vonmises",50,"ssfOUT_7_0.5_3_VULTURE","VULTURE",3,2,7,"no effect"
"ssfOUT_7_0.5_3_VULTURE.24",0.952664489919671,-0.0731925787930113,1.97852155863235,"ssf","mf.ss","gamma","vonmises",158,"ssfOUT_7_0.5_3_VULTURE","VULTURE",3,2,7,"no effect"
"ssfOUT_7_0.5_3_VULTURE.25",0.898251749890604,-0.127352748073113,1.92385624785432,"ssf","mf.ss","gamma","vonmises",500,"ssfOUT_7_0.5_3_VULTURE","VULTURE",3,2,7,"no effect"
"ssfOUT_7_0.5_3_VULTURE.26",0.65025191786904,-0.414892776809896,1.71539661254798,"ssf","mf.ss","gamma","unif",5,"ssfOUT_7_0.5_3_VULTURE","VULTURE",3,2,7,"no effect"
"ssfOUT_7_0.5_3_VULTURE.27",0.826638193428599,-0.207518467743987,1.86079485460118,"ssf","mf.ss","gamma","unif",15,"ssfOUT_7_0.5_3_VULTURE","VULTURE",3,2,7,"no effect"
"ssfOUT_7_0.5_3_VULTURE.28",0.880275729334251,-0.146180171888422,1.90673163055692,"ssf","mf.ss","gamma","unif",50,"ssfOUT_7_0.5_3_VULTURE","VULTURE",3,2,7,"no effect"
"ssfOUT_7_0.5_3_VULTURE.29",0.730783871603495,-0.292795180307803,1.75436292351479,"ssf","mf.ss","gamma","unif",158,"ssfOUT_7_0.5_3_VULTURE","VULTURE",3,2,7,"no effect"
"ssfOUT_7_0.5_3_VULTURE.30",0.858152871894138,-0.168544403133327,1.8848501469216,"ssf","mf.ss","gamma","unif",500,"ssfOUT_7_0.5_3_VULTURE","VULTURE",3,2,7,"no effect"
"ssfOUT_7_0.5_3_VULTURE.31",0.976888318003322,-0.111226087611235,2.06500272361788,"ssf","mf.ss","exp","vonmises",5,"ssfOUT_7_0.5_3_VULTURE","VULTURE",3,2,7,"no effect"
"ssfOUT_7_0.5_3_VULTURE.32",0.662250636806868,-0.368164417240797,1.69266569085453,"ssf","mf.ss","exp","vonmises",15,"ssfOUT_7_0.5_3_VULTURE","VULTURE",3,2,7,"no effect"
"ssfOUT_7_0.5_3_VULTURE.33",0.779835966932417,-0.241412257285734,1.80108419115057,"ssf","mf.ss","exp","vonmises",50,"ssfOUT_7_0.5_3_VULTURE","VULTURE",3,2,7,"no effect"
"ssfOUT_7_0.5_3_VULTURE.34",0.878790270558573,-0.138652363935225,1.89623290505237,"ssf","mf.ss","exp","vonmises",158,"ssfOUT_7_0.5_3_VULTURE","VULTURE",3,2,7,"no effect"
"ssfOUT_7_0.5_3_VULTURE.35",0.780664379683001,-0.24039903785303,1.80172779721903,"ssf","mf.ss","exp","vonmises",500,"ssfOUT_7_0.5_3_VULTURE","VULTURE",3,2,7,"no effect"
"ssfOUT_7_0.5_3_VULTURE.36",-0.0760483550885522,-1.26248703779719,1.11039032762009,"ssf","mf.ss","exp","unif",5,"ssfOUT_7_0.5_3_VULTURE","VULTURE",3,2,7,"no effect"
"ssfOUT_7_0.5_3_VULTURE.37",0.85402587188871,-0.17767453953772,1.88572628331514,"ssf","mf.ss","exp","unif",15,"ssfOUT_7_0.5_3_VULTURE","VULTURE",3,2,7,"no effect"
"ssfOUT_7_0.5_3_VULTURE.38",0.945540799894251,-0.073792454636978,1.96487405442548,"ssf","mf.ss","exp","unif",50,"ssfOUT_7_0.5_3_VULTURE","VULTURE",3,2,7,"no effect"
"ssfOUT_7_0.5_3_VULTURE.39",0.928351982468167,-0.0918641024936901,1.94856806743002,"ssf","mf.ss","exp","unif",158,"ssfOUT_7_0.5_3_VULTURE","VULTURE",3,2,7,"no effect"
"ssfOUT_7_0.5_3_VULTURE.40",0.888392476406397,-0.131723174373373,1.90850812718617,"ssf","mf.ss","exp","unif",500,"ssfOUT_7_0.5_3_VULTURE","VULTURE",3,2,7,"no effect"
"ssfOUT_7_0.5_3_KINGCOBRA.1",0.627889298856714,0.378942646595146,0.876835951118282,"ssf","mf.is","gamma","vonmises",5,"ssfOUT_7_0.5_3_KINGCOBRA","KINGCOBRA",3,2,7,"preference"
"ssfOUT_7_0.5_3_KINGCOBRA.2",0.696287458600837,0.445241294289444,0.94733362291223,"ssf","mf.is","gamma","vonmises",15,"ssfOUT_7_0.5_3_KINGCOBRA","KINGCOBRA",3,2,7,"preference"
"ssfOUT_7_0.5_3_KINGCOBRA.3",12.5042551229371,-1178.22003792466,1203.22854817053,"ssf","mf.is","gamma","vonmises",50,"ssfOUT_7_0.5_3_KINGCOBRA","KINGCOBRA",3,2,7,"no effect"
"ssfOUT_7_0.5_3_KINGCOBRA.4",12.2378084422948,-1477.34773699757,1501.82335388216,"ssf","mf.is","gamma","vonmises",158,"ssfOUT_7_0.5_3_KINGCOBRA","KINGCOBRA",3,2,7,"no effect"
"ssfOUT_7_0.5_3_KINGCOBRA.5",12.3957269090776,-1494.36091754944,1519.1523713676,"ssf","mf.is","gamma","vonmises",500,"ssfOUT_7_0.5_3_KINGCOBRA","KINGCOBRA",3,2,7,"no effect"
"ssfOUT_7_0.5_3_KINGCOBRA.6",0.633501085237543,0.381092539409558,0.885909631065528,"ssf","mf.is","gamma","unif",5,"ssfOUT_7_0.5_3_KINGCOBRA","KINGCOBRA",3,2,7,"preference"
"ssfOUT_7_0.5_3_KINGCOBRA.7",12.5615080382981,-1683.86100225843,1708.98401833503,"ssf","mf.is","gamma","unif",15,"ssfOUT_7_0.5_3_KINGCOBRA","KINGCOBRA",3,2,7,"no effect"
"ssfOUT_7_0.5_3_KINGCOBRA.8",12.2625085833774,-1450.77468661026,1475.29970377702,"ssf","mf.is","gamma","unif",50,"ssfOUT_7_0.5_3_KINGCOBRA","KINGCOBRA",3,2,7,"no effect"
"ssfOUT_7_0.5_3_KINGCOBRA.9",12.4971300943578,-1481.95636067667,1506.95062086539,"ssf","mf.is","gamma","unif",158,"ssfOUT_7_0.5_3_KINGCOBRA","KINGCOBRA",3,2,7,"no effect"
"ssfOUT_7_0.5_3_KINGCOBRA.10",12.3979724997733,-1338.30976175706,1363.1057067566,"ssf","mf.is","gamma","unif",500,"ssfOUT_7_0.5_3_KINGCOBRA","KINGCOBRA",3,2,7,"no effect"
"ssfOUT_7_0.5_3_KINGCOBRA.11",0.861210459790378,0.576802837938666,1.14561808164209,"ssf","mf.is","exp","vonmises",5,"ssfOUT_7_0.5_3_KINGCOBRA","KINGCOBRA",3,2,7,"preference"
"ssfOUT_7_0.5_3_KINGCOBRA.12",14.1125429053422,-2657.29457784575,2685.51966365643,"ssf","mf.is","exp","vonmises",15,"ssfOUT_7_0.5_3_KINGCOBRA","KINGCOBRA",3,2,7,"no effect"
"ssfOUT_7_0.5_3_KINGCOBRA.13",12.5035939037624,-1813.35751314872,1838.36470095625,"ssf","mf.is","exp","vonmises",50,"ssfOUT_7_0.5_3_KINGCOBRA","KINGCOBRA",3,2,7,"no effect"
"ssfOUT_7_0.5_3_KINGCOBRA.14",11.9824625428807,-1279.04814202707,1303.01306711284,"ssf","mf.is","exp","vonmises",158,"ssfOUT_7_0.5_3_KINGCOBRA","KINGCOBRA",3,2,7,"no effect"
"ssfOUT_7_0.5_3_KINGCOBRA.15",12.5673230209731,-1343.79627987144,1368.93092591339,"ssf","mf.is","exp","vonmises",500,"ssfOUT_7_0.5_3_KINGCOBRA","KINGCOBRA",3,2,7,"no effect"
"ssfOUT_7_0.5_3_KINGCOBRA.16",0.537129948071312,0.251954142206197,0.822305753936426,"ssf","mf.is","exp","unif",5,"ssfOUT_7_0.5_3_KINGCOBRA","KINGCOBRA",3,2,7,"preference"
"ssfOUT_7_0.5_3_KINGCOBRA.17",0.661950923781528,0.40531935690606,0.918582490656996,"ssf","mf.is","exp","unif",15,"ssfOUT_7_0.5_3_KINGCOBRA","KINGCOBRA",3,2,7,"preference"
"ssfOUT_7_0.5_3_KINGCOBRA.18",15.246790737598,-1982.82142066489,2013.31500214009,"ssf","mf.is","exp","unif",50,"ssfOUT_7_0.5_3_KINGCOBRA","KINGCOBRA",3,2,7,"no effect"
"ssfOUT_7_0.5_3_KINGCOBRA.19",12.1334910092115,-1197.79154904305,1222.05853106148,"ssf","mf.is","exp","unif",158,"ssfOUT_7_0.5_3_KINGCOBRA","KINGCOBRA",3,2,7,"no effect"
"ssfOUT_7_0.5_3_KINGCOBRA.20",11.2599569492453,-1307.81850128664,1330.33841518513,"ssf","mf.is","exp","unif",500,"ssfOUT_7_0.5_3_KINGCOBRA","KINGCOBRA",3,2,7,"no effect"
"ssfOUT_7_0.5_3_KINGCOBRA.21",0.592669384340502,0.350271585204793,0.83506718347621,"ssf","mf.ss","gamma","vonmises",5,"ssfOUT_7_0.5_3_KINGCOBRA","KINGCOBRA",3,2,7,"preference"
"ssfOUT_7_0.5_3_KINGCOBRA.22",0.648148600942577,0.401659818280116,0.894637383605038,"ssf","mf.ss","gamma","vonmises",15,"ssfOUT_7_0.5_3_KINGCOBRA","KINGCOBRA",3,2,7,"preference"
"ssfOUT_7_0.5_3_KINGCOBRA.23",12.2538667402232,-1173.85100652156,1198.35874000201,"ssf","mf.ss","gamma","vonmises",50,"ssfOUT_7_0.5_3_KINGCOBRA","KINGCOBRA",3,2,7,"no effect"
"ssfOUT_7_0.5_3_KINGCOBRA.24",12.2134542149075,-1461.16514841063,1485.59205684044,"ssf","mf.ss","gamma","vonmises",158,"ssfOUT_7_0.5_3_KINGCOBRA","KINGCOBRA",3,2,7,"no effect"
"ssfOUT_7_0.5_3_KINGCOBRA.25",11.1482174023185,-904.002489270492,926.298924075129,"ssf","mf.ss","gamma","vonmises",500,"ssfOUT_7_0.5_3_KINGCOBRA","KINGCOBRA",3,2,7,"no effect"
"ssfOUT_7_0.5_3_KINGCOBRA.26",0.626709079864465,0.377549346424629,0.8758688133043,"ssf","mf.ss","gamma","unif",5,"ssfOUT_7_0.5_3_KINGCOBRA","KINGCOBRA",3,2,7,"preference"
"ssfOUT_7_0.5_3_KINGCOBRA.27",12.3743622115318,-1666.80737540883,1691.5560998319,"ssf","mf.ss","gamma","unif",15,"ssfOUT_7_0.5_3_KINGCOBRA","KINGCOBRA",3,2,7,"no effect"
"ssfOUT_7_0.5_3_KINGCOBRA.28",12.0808402869452,-1444.14405521378,1468.30573578767,"ssf","mf.ss","gamma","unif",50,"ssfOUT_7_0.5_3_KINGCOBRA","KINGCOBRA",3,2,7,"no effect"
"ssfOUT_7_0.5_3_KINGCOBRA.29",12.3778237359649,-1465.57057731647,1490.3262247884,"ssf","mf.ss","gamma","unif",158,"ssfOUT_7_0.5_3_KINGCOBRA","KINGCOBRA",3,2,7,"no effect"
"ssfOUT_7_0.5_3_KINGCOBRA.30",12.1923375898918,-1335.6911101501,1360.07578532988,"ssf","mf.ss","gamma","unif",500,"ssfOUT_7_0.5_3_KINGCOBRA","KINGCOBRA",3,2,7,"no effect"
"ssfOUT_7_0.5_3_KINGCOBRA.31",0.556178302440877,0.310665454128774,0.80169115075298,"ssf","mf.ss","exp","vonmises",5,"ssfOUT_7_0.5_3_KINGCOBRA","KINGCOBRA",3,2,7,"preference"
"ssfOUT_7_0.5_3_KINGCOBRA.32",13.7393266435917,-1963.14234249266,1990.62099577984,"ssf","mf.ss","exp","vonmises",15,"ssfOUT_7_0.5_3_KINGCOBRA","KINGCOBRA",3,2,7,"no effect"
"ssfOUT_7_0.5_3_KINGCOBRA.33",11.3152571246591,-1249.56988289557,1272.20039714489,"ssf","mf.ss","exp","vonmises",50,"ssfOUT_7_0.5_3_KINGCOBRA","KINGCOBRA",3,2,7,"no effect"
"ssfOUT_7_0.5_3_KINGCOBRA.34",11.3824044964761,-1557.27389689122,1580.03870588417,"ssf","mf.ss","exp","vonmises",158,"ssfOUT_7_0.5_3_KINGCOBRA","KINGCOBRA",3,2,7,"no effect"
"ssfOUT_7_0.5_3_KINGCOBRA.35",10.3524728853239,-996.936591225279,1017.64153699593,"ssf","mf.ss","exp","vonmises",500,"ssfOUT_7_0.5_3_KINGCOBRA","KINGCOBRA",3,2,7,"no effect"
"ssfOUT_7_0.5_3_KINGCOBRA.36",0.603609413990684,0.355803683920658,0.85141514406071,"ssf","mf.ss","exp","unif",5,"ssfOUT_7_0.5_3_KINGCOBRA","KINGCOBRA",3,2,7,"preference"
"ssfOUT_7_0.5_3_KINGCOBRA.37",0.570999936991843,0.334970409719135,0.80702946426455,"ssf","mf.ss","exp","unif",15,"ssfOUT_7_0.5_3_KINGCOBRA","KINGCOBRA",3,2,7,"preference"
"ssfOUT_7_0.5_3_KINGCOBRA.38",11.3822355336644,-1780.2272181812,1802.99168924852,"ssf","mf.ss","exp","unif",50,"ssfOUT_7_0.5_3_KINGCOBRA","KINGCOBRA",3,2,7,"no effect"
"ssfOUT_7_0.5_3_KINGCOBRA.39",11.1477249588165,-1541.72214569677,1564.01759561441,"ssf","mf.ss","exp","unif",158,"ssfOUT_7_0.5_3_KINGCOBRA","KINGCOBRA",3,2,7,"no effect"
"ssfOUT_7_0.5_3_KINGCOBRA.40",10.3864603726492,-995.865023914359,1016.63794465966,"ssf","mf.ss","exp","unif",500,"ssfOUT_7_0.5_3_KINGCOBRA","KINGCOBRA",3,2,7,"no effect"
"ssfOUT_7_0.5_4_BADGER.1",1.04709381543921,0.259624516859507,1.83456311401891,"ssf","mf.is","gamma","vonmises",5,"ssfOUT_7_0.5_4_BADGER","BADGER",4,2,7,"preference"
"ssfOUT_7_0.5_4_BADGER.2",1.20026213394153,0.435778732408461,1.9647455354746,"ssf","mf.is","gamma","vonmises",15,"ssfOUT_7_0.5_4_BADGER","BADGER",4,2,7,"preference"
"ssfOUT_7_0.5_4_BADGER.3",0.94168044537731,0.187503325154111,1.69585756560051,"ssf","mf.is","gamma","vonmises",50,"ssfOUT_7_0.5_4_BADGER","BADGER",4,2,7,"preference"
"ssfOUT_7_0.5_4_BADGER.4",0.831886417404902,0.0837091727453474,1.58006366206446,"ssf","mf.is","gamma","vonmises",158,"ssfOUT_7_0.5_4_BADGER","BADGER",4,2,7,"preference"
"ssfOUT_7_0.5_4_BADGER.5",0.895772349681858,0.144334506469536,1.64721019289418,"ssf","mf.is","gamma","vonmises",500,"ssfOUT_7_0.5_4_BADGER","BADGER",4,2,7,"preference"
"ssfOUT_7_0.5_4_BADGER.6",0.932996491126994,0.110891689151915,1.75510129310207,"ssf","mf.is","gamma","unif",5,"ssfOUT_7_0.5_4_BADGER","BADGER",4,2,7,"preference"
"ssfOUT_7_0.5_4_BADGER.7",0.67999410918495,-0.0854039868222082,1.44539220519211,"ssf","mf.is","gamma","unif",15,"ssfOUT_7_0.5_4_BADGER","BADGER",4,2,7,"no effect"
"ssfOUT_7_0.5_4_BADGER.8",0.989386559130567,0.233292598316338,1.7454805199448,"ssf","mf.is","gamma","unif",50,"ssfOUT_7_0.5_4_BADGER","BADGER",4,2,7,"preference"
"ssfOUT_7_0.5_4_BADGER.9",0.838148364753272,0.0883161913862551,1.58798053812029,"ssf","mf.is","gamma","unif",158,"ssfOUT_7_0.5_4_BADGER","BADGER",4,2,7,"preference"
"ssfOUT_7_0.5_4_BADGER.10",0.949571631822661,0.20058796823097,1.69855529541435,"ssf","mf.is","gamma","unif",500,"ssfOUT_7_0.5_4_BADGER","BADGER",4,2,7,"preference"
"ssfOUT_7_0.5_4_BADGER.11",1.57926798158551,0.782722118404722,2.3758138447663,"ssf","mf.is","exp","vonmises",5,"ssfOUT_7_0.5_4_BADGER","BADGER",4,2,7,"preference"
"ssfOUT_7_0.5_4_BADGER.12",1.10601666261204,0.321836401874375,1.8901969233497,"ssf","mf.is","exp","vonmises",15,"ssfOUT_7_0.5_4_BADGER","BADGER",4,2,7,"preference"
"ssfOUT_7_0.5_4_BADGER.13",0.850923410498054,0.092303974356677,1.60954284663943,"ssf","mf.is","exp","vonmises",50,"ssfOUT_7_0.5_4_BADGER","BADGER",4,2,7,"preference"
"ssfOUT_7_0.5_4_BADGER.14",0.897606495786258,0.154091104366941,1.64112188720557,"ssf","mf.is","exp","vonmises",158,"ssfOUT_7_0.5_4_BADGER","BADGER",4,2,7,"preference"
"ssfOUT_7_0.5_4_BADGER.15",0.863402615405779,0.113190978826906,1.61361425198465,"ssf","mf.is","exp","vonmises",500,"ssfOUT_7_0.5_4_BADGER","BADGER",4,2,7,"preference"
"ssfOUT_7_0.5_4_BADGER.16",1.39321316258779,0.623415020118749,2.16301130505683,"ssf","mf.is","exp","unif",5,"ssfOUT_7_0.5_4_BADGER","BADGER",4,2,7,"preference"
"ssfOUT_7_0.5_4_BADGER.17",0.930036476037776,0.164519073514514,1.69555387856104,"ssf","mf.is","exp","unif",15,"ssfOUT_7_0.5_4_BADGER","BADGER",4,2,7,"preference"
"ssfOUT_7_0.5_4_BADGER.18",0.73711777615077,-0.00243599249877191,1.47667154480031,"ssf","mf.is","exp","unif",50,"ssfOUT_7_0.5_4_BADGER","BADGER",4,2,7,"no effect"
"ssfOUT_7_0.5_4_BADGER.19",1.01566989498837,0.272901628592133,1.75843816138461,"ssf","mf.is","exp","unif",158,"ssfOUT_7_0.5_4_BADGER","BADGER",4,2,7,"preference"
"ssfOUT_7_0.5_4_BADGER.20",0.859288725414569,0.106855799396063,1.61172165143307,"ssf","mf.is","exp","unif",500,"ssfOUT_7_0.5_4_BADGER","BADGER",4,2,7,"preference"
"ssfOUT_7_0.5_4_BADGER.21",1.01900712154756,0.234235417527471,1.80377882556766,"ssf","mf.ss","gamma","vonmises",5,"ssfOUT_7_0.5_4_BADGER","BADGER",4,2,7,"preference"
"ssfOUT_7_0.5_4_BADGER.22",1.19550853763664,0.42950124923978,1.96151582603349,"ssf","mf.ss","gamma","vonmises",15,"ssfOUT_7_0.5_4_BADGER","BADGER",4,2,7,"preference"
"ssfOUT_7_0.5_4_BADGER.23",0.92894455184644,0.172847108398296,1.68504199529458,"ssf","mf.ss","gamma","vonmises",50,"ssfOUT_7_0.5_4_BADGER","BADGER",4,2,7,"preference"
"ssfOUT_7_0.5_4_BADGER.24",0.815037985176908,0.0654157729033771,1.56466019745044,"ssf","mf.ss","gamma","vonmises",158,"ssfOUT_7_0.5_4_BADGER","BADGER",4,2,7,"preference"
"ssfOUT_7_0.5_4_BADGER.25",0.882394114519667,0.129418167468217,1.63537006157112,"ssf","mf.ss","gamma","vonmises",500,"ssfOUT_7_0.5_4_BADGER","BADGER",4,2,7,"preference"
"ssfOUT_7_0.5_4_BADGER.26",0.887056052258636,0.0641221642936463,1.70998994022363,"ssf","mf.ss","gamma","unif",5,"ssfOUT_7_0.5_4_BADGER","BADGER",4,2,7,"preference"
"ssfOUT_7_0.5_4_BADGER.27",0.694406877429107,-0.0702186681845292,1.45903242304274,"ssf","mf.ss","gamma","unif",15,"ssfOUT_7_0.5_4_BADGER","BADGER",4,2,7,"no effect"
"ssfOUT_7_0.5_4_BADGER.28",0.956130863475411,0.197535557526928,1.71472616942389,"ssf","mf.ss","gamma","unif",50,"ssfOUT_7_0.5_4_BADGER","BADGER",4,2,7,"preference"
"ssfOUT_7_0.5_4_BADGER.29",0.831211044749482,0.0799552483125958,1.58246684118637,"ssf","mf.ss","gamma","unif",158,"ssfOUT_7_0.5_4_BADGER","BADGER",4,2,7,"preference"
"ssfOUT_7_0.5_4_BADGER.30",0.931136620324309,0.180491717764114,1.6817815228845,"ssf","mf.ss","gamma","unif",500,"ssfOUT_7_0.5_4_BADGER","BADGER",4,2,7,"preference"
"ssfOUT_7_0.5_4_BADGER.31",1.35194079387553,0.564706092646823,2.13917549510425,"ssf","mf.ss","exp","vonmises",5,"ssfOUT_7_0.5_4_BADGER","BADGER",4,2,7,"preference"
"ssfOUT_7_0.5_4_BADGER.32",0.998027645509622,0.236680080812313,1.75937521020693,"ssf","mf.ss","exp","vonmises",15,"ssfOUT_7_0.5_4_BADGER","BADGER",4,2,7,"preference"
"ssfOUT_7_0.5_4_BADGER.33",0.838950901861808,0.0767560739856651,1.60114572973795,"ssf","mf.ss","exp","vonmises",50,"ssfOUT_7_0.5_4_BADGER","BADGER",4,2,7,"preference"
"ssfOUT_7_0.5_4_BADGER.34",0.90140980749154,0.155115650444957,1.64770396453812,"ssf","mf.ss","exp","vonmises",158,"ssfOUT_7_0.5_4_BADGER","BADGER",4,2,7,"preference"
"ssfOUT_7_0.5_4_BADGER.35",0.849155326102717,0.100649946373348,1.59766070583209,"ssf","mf.ss","exp","vonmises",500,"ssfOUT_7_0.5_4_BADGER","BADGER",4,2,7,"preference"
"ssfOUT_7_0.5_4_BADGER.36",1.32207100076217,0.5562826915339,2.08785930999045,"ssf","mf.ss","exp","unif",5,"ssfOUT_7_0.5_4_BADGER","BADGER",4,2,7,"preference"
"ssfOUT_7_0.5_4_BADGER.37",0.803037624287635,0.0433163995456576,1.56275884902961,"ssf","mf.ss","exp","unif",15,"ssfOUT_7_0.5_4_BADGER","BADGER",4,2,7,"preference"
"ssfOUT_7_0.5_4_BADGER.38",0.715940202251808,-0.0258944295476973,1.45777483405131,"ssf","mf.ss","exp","unif",50,"ssfOUT_7_0.5_4_BADGER","BADGER",4,2,7,"no effect"
"ssfOUT_7_0.5_4_BADGER.39",0.967742418573434,0.224494165801506,1.71099067134536,"ssf","mf.ss","exp","unif",158,"ssfOUT_7_0.5_4_BADGER","BADGER",4,2,7,"preference"
"ssfOUT_7_0.5_4_BADGER.40",0.852139497525269,0.105072340110425,1.59920665494011,"ssf","mf.ss","exp","unif",500,"ssfOUT_7_0.5_4_BADGER","BADGER",4,2,7,"preference"
"ssfOUT_7_0.5_4_VULTURE.1",0.484273971862377,0.00426212416534327,0.964285819559412,"ssf","mf.is","gamma","vonmises",5,"ssfOUT_7_0.5_4_VULTURE","VULTURE",4,2,7,"preference"
"ssfOUT_7_0.5_4_VULTURE.2",0.330186753394551,-0.120520229055324,0.780893735844425,"ssf","mf.is","gamma","vonmises",15,"ssfOUT_7_0.5_4_VULTURE","VULTURE",4,2,7,"no effect"
"ssfOUT_7_0.5_4_VULTURE.3",0.409471041997274,-0.0366759249104303,0.855618008904979,"ssf","mf.is","gamma","vonmises",50,"ssfOUT_7_0.5_4_VULTURE","VULTURE",4,2,7,"no effect"
"ssfOUT_7_0.5_4_VULTURE.4",0.424537018495251,-0.0162686321171429,0.865342669107644,"ssf","mf.is","gamma","vonmises",158,"ssfOUT_7_0.5_4_VULTURE","VULTURE",4,2,7,"no effect"
"ssfOUT_7_0.5_4_VULTURE.5",0.331454037348938,-0.109429219326949,0.772337294024824,"ssf","mf.is","gamma","vonmises",500,"ssfOUT_7_0.5_4_VULTURE","VULTURE",4,2,7,"no effect"
"ssfOUT_7_0.5_4_VULTURE.6",0.191722764328216,-0.291169220958203,0.674614749614636,"ssf","mf.is","gamma","unif",5,"ssfOUT_7_0.5_4_VULTURE","VULTURE",4,2,7,"no effect"
"ssfOUT_7_0.5_4_VULTURE.7",0.427805897843017,-0.0299511434939661,0.88556293918,"ssf","mf.is","gamma","unif",15,"ssfOUT_7_0.5_4_VULTURE","VULTURE",4,2,7,"no effect"
"ssfOUT_7_0.5_4_VULTURE.8",0.365874488637753,-0.0748207506458148,0.806569727921321,"ssf","mf.is","gamma","unif",50,"ssfOUT_7_0.5_4_VULTURE","VULTURE",4,2,7,"no effect"
"ssfOUT_7_0.5_4_VULTURE.9",0.398884416364355,-0.0436879524636007,0.841456785192311,"ssf","mf.is","gamma","unif",158,"ssfOUT_7_0.5_4_VULTURE","VULTURE",4,2,7,"no effect"
"ssfOUT_7_0.5_4_VULTURE.10",0.398760134150261,-0.0430196452022043,0.840539913502727,"ssf","mf.is","gamma","unif",500,"ssfOUT_7_0.5_4_VULTURE","VULTURE",4,2,7,"no effect"
"ssfOUT_7_0.5_4_VULTURE.11",0.543905912730791,0.0726796233289191,1.01513220213266,"ssf","mf.is","exp","vonmises",5,"ssfOUT_7_0.5_4_VULTURE","VULTURE",4,2,7,"preference"
"ssfOUT_7_0.5_4_VULTURE.12",0.492634225671107,0.0400477094338488,0.945220741908366,"ssf","mf.is","exp","vonmises",15,"ssfOUT_7_0.5_4_VULTURE","VULTURE",4,2,7,"preference"
"ssfOUT_7_0.5_4_VULTURE.13",0.282278942460478,-0.160917936980952,0.725475821901908,"ssf","mf.is","exp","vonmises",50,"ssfOUT_7_0.5_4_VULTURE","VULTURE",4,2,7,"no effect"
"ssfOUT_7_0.5_4_VULTURE.14",0.41377287086428,-0.0271794682487363,0.854725209977296,"ssf","mf.is","exp","vonmises",158,"ssfOUT_7_0.5_4_VULTURE","VULTURE",4,2,7,"no effect"
"ssfOUT_7_0.5_4_VULTURE.15",0.365591677725043,-0.0751326645946034,0.806316020044689,"ssf","mf.is","exp","vonmises",500,"ssfOUT_7_0.5_4_VULTURE","VULTURE",4,2,7,"no effect"
"ssfOUT_7_0.5_4_VULTURE.16",0.0546216452260353,-0.435476646065464,0.544719936517535,"ssf","mf.is","exp","unif",5,"ssfOUT_7_0.5_4_VULTURE","VULTURE",4,2,7,"no effect"
"ssfOUT_7_0.5_4_VULTURE.17",0.202885437877351,-0.261228906930252,0.666999782684953,"ssf","mf.is","exp","unif",15,"ssfOUT_7_0.5_4_VULTURE","VULTURE",4,2,7,"no effect"
"ssfOUT_7_0.5_4_VULTURE.18",0.389053280210119,-0.0567391370392437,0.834845697459482,"ssf","mf.is","exp","unif",50,"ssfOUT_7_0.5_4_VULTURE","VULTURE",4,2,7,"no effect"
"ssfOUT_7_0.5_4_VULTURE.19",0.426257568754138,-0.0165335477069312,0.869048685215207,"ssf","mf.is","exp","unif",158,"ssfOUT_7_0.5_4_VULTURE","VULTURE",4,2,7,"no effect"
"ssfOUT_7_0.5_4_VULTURE.20",0.376961098355401,-0.064434041462553,0.818356238173356,"ssf","mf.is","exp","unif",500,"ssfOUT_7_0.5_4_VULTURE","VULTURE",4,2,7,"no effect"
"ssfOUT_7_0.5_4_VULTURE.21",0.479016337056003,-0.000726305010024297,0.958758979122031,"ssf","mf.ss","gamma","vonmises",5,"ssfOUT_7_0.5_4_VULTURE","VULTURE",4,2,7,"no effect"
"ssfOUT_7_0.5_4_VULTURE.22",0.326494578225006,-0.12397906671293,0.776968223162942,"ssf","mf.ss","gamma","vonmises",15,"ssfOUT_7_0.5_4_VULTURE","VULTURE",4,2,7,"no effect"
"ssfOUT_7_0.5_4_VULTURE.23",0.40953156885755,-0.0370935447669669,0.856156682482067,"ssf","mf.ss","gamma","vonmises",50,"ssfOUT_7_0.5_4_VULTURE","VULTURE",4,2,7,"no effect"
"ssfOUT_7_0.5_4_VULTURE.24",0.422786067054919,-0.0181578051208204,0.863729939230658,"ssf","mf.ss","gamma","vonmises",158,"ssfOUT_7_0.5_4_VULTURE","VULTURE",4,2,7,"no effect"
"ssfOUT_7_0.5_4_VULTURE.25",0.329435784442803,-0.111529756440571,0.770401325326176,"ssf","mf.ss","gamma","vonmises",500,"ssfOUT_7_0.5_4_VULTURE","VULTURE",4,2,7,"no effect"
"ssfOUT_7_0.5_4_VULTURE.26",0.151812181837076,-0.330539101162756,0.634163464836909,"ssf","mf.ss","gamma","unif",5,"ssfOUT_7_0.5_4_VULTURE","VULTURE",4,2,7,"no effect"
"ssfOUT_7_0.5_4_VULTURE.27",0.42251914394144,-0.0334505627662491,0.878488850649129,"ssf","mf.ss","gamma","unif",15,"ssfOUT_7_0.5_4_VULTURE","VULTURE",4,2,7,"no effect"
"ssfOUT_7_0.5_4_VULTURE.28",0.373540685064759,-0.0666995388704522,0.81378090899997,"ssf","mf.ss","gamma","unif",50,"ssfOUT_7_0.5_4_VULTURE","VULTURE",4,2,7,"no effect"
"ssfOUT_7_0.5_4_VULTURE.29",0.400290021584353,-0.0421026194040591,0.842682662572765,"ssf","mf.ss","gamma","unif",158,"ssfOUT_7_0.5_4_VULTURE","VULTURE",4,2,7,"no effect"
"ssfOUT_7_0.5_4_VULTURE.30",0.399050334026597,-0.0424655129118673,0.840566180965061,"ssf","mf.ss","gamma","unif",500,"ssfOUT_7_0.5_4_VULTURE","VULTURE",4,2,7,"no effect"
"ssfOUT_7_0.5_4_VULTURE.31",0.471345424803187,0.00751778432866901,0.935173065277705,"ssf","mf.ss","exp","vonmises",5,"ssfOUT_7_0.5_4_VULTURE","VULTURE",4,2,7,"preference"
"ssfOUT_7_0.5_4_VULTURE.32",0.52747670906204,0.0727501944287449,0.982203223695335,"ssf","mf.ss","exp","vonmises",15,"ssfOUT_7_0.5_4_VULTURE","VULTURE",4,2,7,"preference"
"ssfOUT_7_0.5_4_VULTURE.33",0.362381673719208,-0.0839212470179272,0.808684594456343,"ssf","mf.ss","exp","vonmises",50,"ssfOUT_7_0.5_4_VULTURE","VULTURE",4,2,7,"no effect"
"ssfOUT_7_0.5_4_VULTURE.34",0.453563295025831,0.00866029202411356,0.898466298027549,"ssf","mf.ss","exp","vonmises",158,"ssfOUT_7_0.5_4_VULTURE","VULTURE",4,2,7,"preference"
"ssfOUT_7_0.5_4_VULTURE.35",0.392123886573251,-0.0521248528296334,0.836372625976135,"ssf","mf.ss","exp","vonmises",500,"ssfOUT_7_0.5_4_VULTURE","VULTURE",4,2,7,"no effect"
"ssfOUT_7_0.5_4_VULTURE.36",0.111623031596935,-0.377683751085505,0.600929814279375,"ssf","mf.ss","exp","unif",5,"ssfOUT_7_0.5_4_VULTURE","VULTURE",4,2,7,"no effect"
"ssfOUT_7_0.5_4_VULTURE.37",0.201773014710802,-0.26451933166975,0.668065361091354,"ssf","mf.ss","exp","unif",15,"ssfOUT_7_0.5_4_VULTURE","VULTURE",4,2,7,"no effect"
"ssfOUT_7_0.5_4_VULTURE.38",0.42421474256846,-0.0240072623411407,0.872436747478061,"ssf","mf.ss","exp","unif",50,"ssfOUT_7_0.5_4_VULTURE","VULTURE",4,2,7,"no effect"
"ssfOUT_7_0.5_4_VULTURE.39",0.442154736612659,-0.00338244356629275,0.887691916791611,"ssf","mf.ss","exp","unif",158,"ssfOUT_7_0.5_4_VULTURE","VULTURE",4,2,7,"no effect"
"ssfOUT_7_0.5_4_VULTURE.40",0.409594340802679,-0.0346550781125611,0.853843759717919,"ssf","mf.ss","exp","unif",500,"ssfOUT_7_0.5_4_VULTURE","VULTURE",4,2,7,"no effect"
"ssfOUT_7_0.5_4_KINGCOBRA.1",0.790925745091038,-0.261121433150243,1.84297292333232,"ssf","mf.is","gamma","vonmises",5,"ssfOUT_7_0.5_4_KINGCOBRA","KINGCOBRA",4,2,7,"no effect"
"ssfOUT_7_0.5_4_KINGCOBRA.2",1.14621968079036,0.0921516124632933,2.20028774911743,"ssf","mf.is","gamma","vonmises",15,"ssfOUT_7_0.5_4_KINGCOBRA","KINGCOBRA",4,2,7,"preference"
"ssfOUT_7_0.5_4_KINGCOBRA.3",1.06473614631902,0.0209853494867547,2.10848694315129,"ssf","mf.is","gamma","vonmises",50,"ssfOUT_7_0.5_4_KINGCOBRA","KINGCOBRA",4,2,7,"preference"
"ssfOUT_7_0.5_4_KINGCOBRA.4",1.02544941410507,-0.0248479719548509,2.07574680016499,"ssf","mf.is","gamma","vonmises",158,"ssfOUT_7_0.5_4_KINGCOBRA","KINGCOBRA",4,2,7,"no effect"
"ssfOUT_7_0.5_4_KINGCOBRA.5",1.11952784813431,0.0716163542958446,2.16743934197277,"ssf","mf.is","gamma","vonmises",500,"ssfOUT_7_0.5_4_KINGCOBRA","KINGCOBRA",4,2,7,"preference"
"ssfOUT_7_0.5_4_KINGCOBRA.6",1.57469291124125,0.505891187146386,2.64349463533612,"ssf","mf.is","gamma","unif",5,"ssfOUT_7_0.5_4_KINGCOBRA","KINGCOBRA",4,2,7,"preference"
"ssfOUT_7_0.5_4_KINGCOBRA.7",0.862954671313814,-0.182007718854661,1.90791706148229,"ssf","mf.is","gamma","unif",15,"ssfOUT_7_0.5_4_KINGCOBRA","KINGCOBRA",4,2,7,"no effect"
"ssfOUT_7_0.5_4_KINGCOBRA.8",1.13816204883273,0.0863642718421826,2.18995982582328,"ssf","mf.is","gamma","unif",50,"ssfOUT_7_0.5_4_KINGCOBRA","KINGCOBRA",4,2,7,"preference"
"ssfOUT_7_0.5_4_KINGCOBRA.9",1.05633284063643,0.0026971222966734,2.10996855897618,"ssf","mf.is","gamma","unif",158,"ssfOUT_7_0.5_4_KINGCOBRA","KINGCOBRA",4,2,7,"preference"
"ssfOUT_7_0.5_4_KINGCOBRA.10",1.03093324321869,-0.0154220402949505,2.07728852673232,"ssf","mf.is","gamma","unif",500,"ssfOUT_7_0.5_4_KINGCOBRA","KINGCOBRA",4,2,7,"no effect"
"ssfOUT_7_0.5_4_KINGCOBRA.11",0.808454114114712,-0.266985833190685,1.88389406142011,"ssf","mf.is","exp","vonmises",5,"ssfOUT_7_0.5_4_KINGCOBRA","KINGCOBRA",4,2,7,"no effect"
"ssfOUT_7_0.5_4_KINGCOBRA.12",1.16557882440464,0.115380873991852,2.21577677481744,"ssf","mf.is","exp","vonmises",15,"ssfOUT_7_0.5_4_KINGCOBRA","KINGCOBRA",4,2,7,"preference"
"ssfOUT_7_0.5_4_KINGCOBRA.13",0.994436267467029,-0.0467346898462415,2.0356072247803,"ssf","mf.is","exp","vonmises",50,"ssfOUT_7_0.5_4_KINGCOBRA","KINGCOBRA",4,2,7,"no effect"
"ssfOUT_7_0.5_4_KINGCOBRA.14",1.1779553507475,0.135087753147253,2.22082294834776,"ssf","mf.is","exp","vonmises",158,"ssfOUT_7_0.5_4_KINGCOBRA","KINGCOBRA",4,2,7,"preference"
"ssfOUT_7_0.5_4_KINGCOBRA.15",1.2284475854908,0.165838969545315,2.29105620143628,"ssf","mf.is","exp","vonmises",500,"ssfOUT_7_0.5_4_KINGCOBRA","KINGCOBRA",4,2,7,"preference"
"ssfOUT_7_0.5_4_KINGCOBRA.16",1.05122856253132,-0.0525310417824969,2.15498816684513,"ssf","mf.is","exp","unif",5,"ssfOUT_7_0.5_4_KINGCOBRA","KINGCOBRA",4,2,7,"no effect"
"ssfOUT_7_0.5_4_KINGCOBRA.17",1.04676491298434,-0.0274127160954967,2.12094254206417,"ssf","mf.is","exp","unif",15,"ssfOUT_7_0.5_4_KINGCOBRA","KINGCOBRA",4,2,7,"no effect"
"ssfOUT_7_0.5_4_KINGCOBRA.18",1.05447523031178,-0.00902979495090772,2.11798025557448,"ssf","mf.is","exp","unif",50,"ssfOUT_7_0.5_4_KINGCOBRA","KINGCOBRA",4,2,7,"no effect"
"ssfOUT_7_0.5_4_KINGCOBRA.19",1.14529839713271,0.0785665335043435,2.21203026076108,"ssf","mf.is","exp","unif",158,"ssfOUT_7_0.5_4_KINGCOBRA","KINGCOBRA",4,2,7,"preference"
"ssfOUT_7_0.5_4_KINGCOBRA.20",0.937828388806752,-0.0987859128796107,1.97444269049312,"ssf","mf.is","exp","unif",500,"ssfOUT_7_0.5_4_KINGCOBRA","KINGCOBRA",4,2,7,"no effect"
"ssfOUT_7_0.5_4_KINGCOBRA.21",0.774409342282308,-0.276756602406654,1.82557528697127,"ssf","mf.ss","gamma","vonmises",5,"ssfOUT_7_0.5_4_KINGCOBRA","KINGCOBRA",4,2,7,"no effect"
"ssfOUT_7_0.5_4_KINGCOBRA.22",1.16176010334688,0.109215453936609,2.21430475275715,"ssf","mf.ss","gamma","vonmises",15,"ssfOUT_7_0.5_4_KINGCOBRA","KINGCOBRA",4,2,7,"preference"
"ssfOUT_7_0.5_4_KINGCOBRA.23",1.07116627313003,0.0262115779504022,2.11612096830966,"ssf","mf.ss","gamma","vonmises",50,"ssfOUT_7_0.5_4_KINGCOBRA","KINGCOBRA",4,2,7,"preference"
"ssfOUT_7_0.5_4_KINGCOBRA.24",1.02689953902898,-0.0228194151463621,2.07661849320432,"ssf","mf.ss","gamma","vonmises",158,"ssfOUT_7_0.5_4_KINGCOBRA","KINGCOBRA",4,2,7,"no effect"
"ssfOUT_7_0.5_4_KINGCOBRA.25",1.12735460046412,0.0797529980039569,2.17495620292428,"ssf","mf.ss","gamma","vonmises",500,"ssfOUT_7_0.5_4_KINGCOBRA","KINGCOBRA",4,2,7,"preference"
"ssfOUT_7_0.5_4_KINGCOBRA.26",1.56567160598327,0.494860110938403,2.63648310102814,"ssf","mf.ss","gamma","unif",5,"ssfOUT_7_0.5_4_KINGCOBRA","KINGCOBRA",4,2,7,"preference"
"ssfOUT_7_0.5_4_KINGCOBRA.27",0.868737882251049,-0.177822542568598,1.9152983070707,"ssf","mf.ss","gamma","unif",15,"ssfOUT_7_0.5_4_KINGCOBRA","KINGCOBRA",4,2,7,"no effect"
"ssfOUT_7_0.5_4_KINGCOBRA.28",1.13424295594236,0.0832864353600984,2.18519947652462,"ssf","mf.ss","gamma","unif",50,"ssfOUT_7_0.5_4_KINGCOBRA","KINGCOBRA",4,2,7,"preference"
"ssfOUT_7_0.5_4_KINGCOBRA.29",1.05600759750568,0.00280684024135058,2.10920835477,"ssf","mf.ss","gamma","unif",158,"ssfOUT_7_0.5_4_KINGCOBRA","KINGCOBRA",4,2,7,"preference"
"ssfOUT_7_0.5_4_KINGCOBRA.30",1.0340774952784,-0.0121023674936616,2.08025735805047,"ssf","mf.ss","gamma","unif",500,"ssfOUT_7_0.5_4_KINGCOBRA","KINGCOBRA",4,2,7,"no effect"
"ssfOUT_7_0.5_4_KINGCOBRA.31",0.731788557970971,-0.333135956775672,1.79671307271761,"ssf","mf.ss","exp","vonmises",5,"ssfOUT_7_0.5_4_KINGCOBRA","KINGCOBRA",4,2,7,"no effect"
"ssfOUT_7_0.5_4_KINGCOBRA.32",0.711908571058334,-0.332793507287305,1.75661064940397,"ssf","mf.ss","exp","vonmises",15,"ssfOUT_7_0.5_4_KINGCOBRA","KINGCOBRA",4,2,7,"no effect"
"ssfOUT_7_0.5_4_KINGCOBRA.33",0.838017687653486,-0.197524750038003,1.87356012534498,"ssf","mf.ss","exp","vonmises",50,"ssfOUT_7_0.5_4_KINGCOBRA","KINGCOBRA",4,2,7,"no effect"
"ssfOUT_7_0.5_4_KINGCOBRA.34",0.874384059482707,-0.155537029430903,1.90430514839632,"ssf","mf.ss","exp","vonmises",158,"ssfOUT_7_0.5_4_KINGCOBRA","KINGCOBRA",4,2,7,"no effect"
"ssfOUT_7_0.5_4_KINGCOBRA.35",0.936130805512682,-0.0968442009330611,1.96910581195843,"ssf","mf.ss","exp","vonmises",500,"ssfOUT_7_0.5_4_KINGCOBRA","KINGCOBRA",4,2,7,"no effect"
"ssfOUT_7_0.5_4_KINGCOBRA.36",0.491556638902895,-0.597891029212093,1.58100430701788,"ssf","mf.ss","exp","unif",5,"ssfOUT_7_0.5_4_KINGCOBRA","KINGCOBRA",4,2,7,"no effect"
"ssfOUT_7_0.5_4_KINGCOBRA.37",0.770170477316526,-0.270484953396295,1.81082590802935,"ssf","mf.ss","exp","unif",15,"ssfOUT_7_0.5_4_KINGCOBRA","KINGCOBRA",4,2,7,"no effect"
"ssfOUT_7_0.5_4_KINGCOBRA.38",0.852251983117585,-0.187127050791471,1.89163101702664,"ssf","mf.ss","exp","unif",50,"ssfOUT_7_0.5_4_KINGCOBRA","KINGCOBRA",4,2,7,"no effect"
"ssfOUT_7_0.5_4_KINGCOBRA.39",0.944020235721006,-0.0997937463403616,1.98783421778237,"ssf","mf.ss","exp","unif",158,"ssfOUT_7_0.5_4_KINGCOBRA","KINGCOBRA",4,2,7,"no effect"
"ssfOUT_7_0.5_4_KINGCOBRA.40",0.87104767079963,-0.158625616305761,1.90072095790502,"ssf","mf.ss","exp","unif",500,"ssfOUT_7_0.5_4_KINGCOBRA","KINGCOBRA",4,2,7,"no effect"
"ssfOUT_7_1_1_BADGER.1",0.730042907730956,-0.425610540855472,1.88569635631738,"ssf","mf.is","gamma","vonmises",5,"ssfOUT_7_1_1_BADGER","BADGER",1,1,7,"no effect"
"ssfOUT_7_1_1_BADGER.2",0.598768171276253,-0.491653990762319,1.68919033331483,"ssf","mf.is","gamma","vonmises",15,"ssfOUT_7_1_1_BADGER","BADGER",1,1,7,"no effect"
"ssfOUT_7_1_1_BADGER.3",0.737544282521863,-0.347798301501555,1.82288686654528,"ssf","mf.is","gamma","vonmises",50,"ssfOUT_7_1_1_BADGER","BADGER",1,1,7,"no effect"
"ssfOUT_7_1_1_BADGER.4",0.692904712618354,-0.388749702451931,1.77455912768864,"ssf","mf.is","gamma","vonmises",158,"ssfOUT_7_1_1_BADGER","BADGER",1,1,7,"no effect"
"ssfOUT_7_1_1_BADGER.5",0.591606978388257,-0.48886143811707,1.67207539489358,"ssf","mf.is","gamma","vonmises",500,"ssfOUT_7_1_1_BADGER","BADGER",1,1,7,"no effect"
"ssfOUT_7_1_1_BADGER.6",0.963531477596763,-0.162238386419823,2.08930134161335,"ssf","mf.is","gamma","unif",5,"ssfOUT_7_1_1_BADGER","BADGER",1,1,7,"no effect"
"ssfOUT_7_1_1_BADGER.7",0.50686249352726,-0.5489565714191,1.56268155847362,"ssf","mf.is","gamma","unif",15,"ssfOUT_7_1_1_BADGER","BADGER",1,1,7,"no effect"
"ssfOUT_7_1_1_BADGER.8",0.435885416926883,-0.640234151725433,1.5120049855792,"ssf","mf.is","gamma","unif",50,"ssfOUT_7_1_1_BADGER","BADGER",1,1,7,"no effect"
"ssfOUT_7_1_1_BADGER.9",0.612906947049007,-0.464287637553897,1.69010153165191,"ssf","mf.is","gamma","unif",158,"ssfOUT_7_1_1_BADGER","BADGER",1,1,7,"no effect"
"ssfOUT_7_1_1_BADGER.10",0.63030895873398,-0.440904327163014,1.70152224463097,"ssf","mf.is","gamma","unif",500,"ssfOUT_7_1_1_BADGER","BADGER",1,1,7,"no effect"
"ssfOUT_7_1_1_BADGER.11",-0.2441842082282,-1.62370355456012,1.13533513810372,"ssf","mf.is","exp","vonmises",5,"ssfOUT_7_1_1_BADGER","BADGER",1,1,7,"no effect"
"ssfOUT_7_1_1_BADGER.12",0.820904216501214,-0.262368571754873,1.9041770047573,"ssf","mf.is","exp","vonmises",15,"ssfOUT_7_1_1_BADGER","BADGER",1,1,7,"no effect"
"ssfOUT_7_1_1_BADGER.13",0.683721076806013,-0.392580488542355,1.76002264215438,"ssf","mf.is","exp","vonmises",50,"ssfOUT_7_1_1_BADGER","BADGER",1,1,7,"no effect"
"ssfOUT_7_1_1_BADGER.14",0.654572832307474,-0.428004689754189,1.73715035436914,"ssf","mf.is","exp","vonmises",158,"ssfOUT_7_1_1_BADGER","BADGER",1,1,7,"no effect"
"ssfOUT_7_1_1_BADGER.15",0.561337262488451,-0.523327634916806,1.64600215989371,"ssf","mf.is","exp","vonmises",500,"ssfOUT_7_1_1_BADGER","BADGER",1,1,7,"no effect"
"ssfOUT_7_1_1_BADGER.16",0.965908853140118,-0.136303429707472,2.06812113598771,"ssf","mf.is","exp","unif",5,"ssfOUT_7_1_1_BADGER","BADGER",1,1,7,"no effect"
"ssfOUT_7_1_1_BADGER.17",0.850332825218531,-0.253571076094773,1.95423672653184,"ssf","mf.is","exp","unif",15,"ssfOUT_7_1_1_BADGER","BADGER",1,1,7,"no effect"
"ssfOUT_7_1_1_BADGER.18",0.43554493436159,-0.642020318051565,1.51311018677474,"ssf","mf.is","exp","unif",50,"ssfOUT_7_1_1_BADGER","BADGER",1,1,7,"no effect"
"ssfOUT_7_1_1_BADGER.19",0.582366841426223,-0.508177039391889,1.67291072224434,"ssf","mf.is","exp","unif",158,"ssfOUT_7_1_1_BADGER","BADGER",1,1,7,"no effect"
"ssfOUT_7_1_1_BADGER.20",0.59000117425634,-0.500992355589756,1.68099470410244,"ssf","mf.is","exp","unif",500,"ssfOUT_7_1_1_BADGER","BADGER",1,1,7,"no effect"
"ssfOUT_7_1_1_BADGER.21",0.732828355373485,-0.418074823952785,1.88373153469976,"ssf","mf.ss","gamma","vonmises",5,"ssfOUT_7_1_1_BADGER","BADGER",1,1,7,"no effect"
"ssfOUT_7_1_1_BADGER.22",0.603149867147712,-0.486972753229541,1.69327248752496,"ssf","mf.ss","gamma","vonmises",15,"ssfOUT_7_1_1_BADGER","BADGER",1,1,7,"no effect"
"ssfOUT_7_1_1_BADGER.23",0.7506707614045,-0.335023149886371,1.83636467269537,"ssf","mf.ss","gamma","vonmises",50,"ssfOUT_7_1_1_BADGER","BADGER",1,1,7,"no effect"
"ssfOUT_7_1_1_BADGER.24",0.690181745322153,-0.389955074498899,1.77031856514321,"ssf","mf.ss","gamma","vonmises",158,"ssfOUT_7_1_1_BADGER","BADGER",1,1,7,"no effect"
"ssfOUT_7_1_1_BADGER.25",0.592145488932638,-0.487910215073068,1.67220119293834,"ssf","mf.ss","gamma","vonmises",500,"ssfOUT_7_1_1_BADGER","BADGER",1,1,7,"no effect"
"ssfOUT_7_1_1_BADGER.26",0.961545969705143,-0.160499505257616,2.0835914446679,"ssf","mf.ss","gamma","unif",5,"ssfOUT_7_1_1_BADGER","BADGER",1,1,7,"no effect"
"ssfOUT_7_1_1_BADGER.27",0.520278120506029,-0.534466994831628,1.57502323584369,"ssf","mf.ss","gamma","unif",15,"ssfOUT_7_1_1_BADGER","BADGER",1,1,7,"no effect"
"ssfOUT_7_1_1_BADGER.28",0.448004582810339,-0.628404426516246,1.52441359213692,"ssf","mf.ss","gamma","unif",50,"ssfOUT_7_1_1_BADGER","BADGER",1,1,7,"no effect"
"ssfOUT_7_1_1_BADGER.29",0.612238882473567,-0.463673493846944,1.68815125879408,"ssf","mf.ss","gamma","unif",158,"ssfOUT_7_1_1_BADGER","BADGER",1,1,7,"no effect"
"ssfOUT_7_1_1_BADGER.30",0.641269847819089,-0.428819925665462,1.71135962130364,"ssf","mf.ss","gamma","unif",500,"ssfOUT_7_1_1_BADGER","BADGER",1,1,7,"no effect"
"ssfOUT_7_1_1_BADGER.31",-0.101434483858812,-1.42871107506078,1.22584210734316,"ssf","mf.ss","exp","vonmises",5,"ssfOUT_7_1_1_BADGER","BADGER",1,1,7,"no effect"
"ssfOUT_7_1_1_BADGER.32",0.752509741266779,-0.334804928506472,1.83982441104003,"ssf","mf.ss","exp","vonmises",15,"ssfOUT_7_1_1_BADGER","BADGER",1,1,7,"no effect"
"ssfOUT_7_1_1_BADGER.33",0.636837621707953,-0.432490920254639,1.70616616367055,"ssf","mf.ss","exp","vonmises",50,"ssfOUT_7_1_1_BADGER","BADGER",1,1,7,"no effect"
"ssfOUT_7_1_1_BADGER.34",0.565292742846354,-0.506265795254022,1.63685128094673,"ssf","mf.ss","exp","vonmises",158,"ssfOUT_7_1_1_BADGER","BADGER",1,1,7,"no effect"
"ssfOUT_7_1_1_BADGER.35",0.544142022128985,-0.529870938869261,1.61815498312723,"ssf","mf.ss","exp","vonmises",500,"ssfOUT_7_1_1_BADGER","BADGER",1,1,7,"no effect"
"ssfOUT_7_1_1_BADGER.36",0.887905677096879,-0.206740716464842,1.9825520706586,"ssf","mf.ss","exp","unif",5,"ssfOUT_7_1_1_BADGER","BADGER",1,1,7,"no effect"
"ssfOUT_7_1_1_BADGER.37",0.712115030455931,-0.366474197277705,1.79070425818957,"ssf","mf.ss","exp","unif",15,"ssfOUT_7_1_1_BADGER","BADGER",1,1,7,"no effect"
"ssfOUT_7_1_1_BADGER.38",0.348937256865504,-0.724338237160555,1.42221275089156,"ssf","mf.ss","exp","unif",50,"ssfOUT_7_1_1_BADGER","BADGER",1,1,7,"no effect"
"ssfOUT_7_1_1_BADGER.39",0.496259081063616,-0.583972369628774,1.57649053175601,"ssf","mf.ss","exp","unif",158,"ssfOUT_7_1_1_BADGER","BADGER",1,1,7,"no effect"
"ssfOUT_7_1_1_BADGER.40",0.490910307767636,-0.584557550711182,1.56637816624645,"ssf","mf.ss","exp","unif",500,"ssfOUT_7_1_1_BADGER","BADGER",1,1,7,"no effect"
"ssfOUT_7_1_1_VULTURE.1",16.8709475959814,-2545.22404173192,2578.96593692388,"ssf","mf.is","gamma","vonmises",5,"ssfOUT_7_1_1_VULTURE","VULTURE",1,1,7,"no effect"
"ssfOUT_7_1_1_VULTURE.2",16.6056182487361,-2218.3935975481,2251.60483404557,"ssf","mf.is","gamma","vonmises",15,"ssfOUT_7_1_1_VULTURE","VULTURE",1,1,7,"no effect"
"ssfOUT_7_1_1_VULTURE.3",16.5412503515198,-2453.66469774299,2486.74719844602,"ssf","mf.is","gamma","vonmises",50,"ssfOUT_7_1_1_VULTURE","VULTURE",1,1,7,"no effect"
"ssfOUT_7_1_1_VULTURE.4",15.4695267508976,-1493.83429022741,1524.7733437292,"ssf","mf.is","gamma","vonmises",158,"ssfOUT_7_1_1_VULTURE","VULTURE",1,1,7,"no effect"
"ssfOUT_7_1_1_VULTURE.5",15.4914862637023,-1503.63853149265,1534.62150402006,"ssf","mf.is","gamma","vonmises",500,"ssfOUT_7_1_1_VULTURE","VULTURE",1,1,7,"no effect"
"ssfOUT_7_1_1_VULTURE.6",16.5509060412691,-2760.74125740997,2793.84306949251,"ssf","mf.is","gamma","unif",5,"ssfOUT_7_1_1_VULTURE","VULTURE",1,1,7,"no effect"
"ssfOUT_7_1_1_VULTURE.7",16.5919341865866,-2499.42791909174,2532.61178746491,"ssf","mf.is","gamma","unif",15,"ssfOUT_7_1_1_VULTURE","VULTURE",1,1,7,"no effect"
"ssfOUT_7_1_1_VULTURE.8",15.4562458524812,-1716.56591431596,1747.47840602093,"ssf","mf.is","gamma","unif",50,"ssfOUT_7_1_1_VULTURE","VULTURE",1,1,7,"no effect"
"ssfOUT_7_1_1_VULTURE.9",16.5206074489877,-2308.32737872265,2341.36859362063,"ssf","mf.is","gamma","unif",158,"ssfOUT_7_1_1_VULTURE","VULTURE",1,1,7,"no effect"
"ssfOUT_7_1_1_VULTURE.10",15.5110735854938,-1458.5350574655,1489.55720463648,"ssf","mf.is","gamma","unif",500,"ssfOUT_7_1_1_VULTURE","VULTURE",1,1,7,"no effect"
"ssfOUT_7_1_1_VULTURE.11",16.526573937447,-2648.50483170106,2681.55797957595,"ssf","mf.is","exp","vonmises",5,"ssfOUT_7_1_1_VULTURE","VULTURE",1,1,7,"no effect"
"ssfOUT_7_1_1_VULTURE.12",16.7834704633816,-2940.39806867595,2973.96500960271,"ssf","mf.is","exp","vonmises",15,"ssfOUT_7_1_1_VULTURE","VULTURE",1,1,7,"no effect"
"ssfOUT_7_1_1_VULTURE.13",16.5613458973269,-2591.02968967327,2624.15238146793,"ssf","mf.is","exp","vonmises",50,"ssfOUT_7_1_1_VULTURE","VULTURE",1,1,7,"no effect"
"ssfOUT_7_1_1_VULTURE.14",15.516682197158,-1457.57214048511,1488.60550487942,"ssf","mf.is","exp","vonmises",158,"ssfOUT_7_1_1_VULTURE","VULTURE",1,1,7,"no effect"
"ssfOUT_7_1_1_VULTURE.15",15.5262544778035,-1520.47278715533,1551.52529611093,"ssf","mf.is","exp","vonmises",500,"ssfOUT_7_1_1_VULTURE","VULTURE",1,1,7,"no effect"
"ssfOUT_7_1_1_VULTURE.16",16.8194612873482,-2994.78743076806,3028.42635334275,"ssf","mf.is","exp","unif",5,"ssfOUT_7_1_1_VULTURE","VULTURE",1,1,7,"no effect"
"ssfOUT_7_1_1_VULTURE.17",16.6795856672731,-2360.35795501021,2393.71712634475,"ssf","mf.is","exp","unif",15,"ssfOUT_7_1_1_VULTURE","VULTURE",1,1,7,"no effect"
"ssfOUT_7_1_1_VULTURE.18",16.4737213586991,-2362.66471843104,2395.61216114844,"ssf","mf.is","exp","unif",50,"ssfOUT_7_1_1_VULTURE","VULTURE",1,1,7,"no effect"
"ssfOUT_7_1_1_VULTURE.19",15.4906617120927,-1462.5698993418,1493.55122276598,"ssf","mf.is","exp","unif",158,"ssfOUT_7_1_1_VULTURE","VULTURE",1,1,7,"no effect"
"ssfOUT_7_1_1_VULTURE.20",15.512713010621,-1554.7288106569,1585.75423667815,"ssf","mf.is","exp","unif",500,"ssfOUT_7_1_1_VULTURE","VULTURE",1,1,7,"no effect"
"ssfOUT_7_1_1_VULTURE.21",16.897985267674,-2538.50303348826,2572.2990040236,"ssf","mf.ss","gamma","vonmises",5,"ssfOUT_7_1_1_VULTURE","VULTURE",1,1,7,"no effect"
"ssfOUT_7_1_1_VULTURE.22",16.6095635931134,-2215.65584388781,2248.87497107404,"ssf","mf.ss","gamma","vonmises",15,"ssfOUT_7_1_1_VULTURE","VULTURE",1,1,7,"no effect"
"ssfOUT_7_1_1_VULTURE.23",16.5339980330011,-2452.94431254851,2486.01230861451,"ssf","mf.ss","gamma","vonmises",50,"ssfOUT_7_1_1_VULTURE","VULTURE",1,1,7,"no effect"
"ssfOUT_7_1_1_VULTURE.24",15.4687379890732,-1492.75691379356,1523.6943897717,"ssf","mf.ss","gamma","vonmises",158,"ssfOUT_7_1_1_VULTURE","VULTURE",1,1,7,"no effect"
"ssfOUT_7_1_1_VULTURE.25",15.4898267270614,-1503.08908156265,1534.06873501677,"ssf","mf.ss","gamma","vonmises",500,"ssfOUT_7_1_1_VULTURE","VULTURE",1,1,7,"no effect"
"ssfOUT_7_1_1_VULTURE.26",16.5725699711452,-2760.42130128319,2793.56644122548,"ssf","mf.ss","gamma","unif",5,"ssfOUT_7_1_1_VULTURE","VULTURE",1,1,7,"no effect"
"ssfOUT_7_1_1_VULTURE.27",16.5760579935264,-2500.59173024718,2533.74384623423,"ssf","mf.ss","gamma","unif",15,"ssfOUT_7_1_1_VULTURE","VULTURE",1,1,7,"no effect"
"ssfOUT_7_1_1_VULTURE.28",15.4540659363323,-1715.91935705149,1746.82748892416,"ssf","mf.ss","gamma","unif",50,"ssfOUT_7_1_1_VULTURE","VULTURE",1,1,7,"no effect"
"ssfOUT_7_1_1_VULTURE.29",16.5187742812804,-2306.07274418331,2339.11029274587,"ssf","mf.ss","gamma","unif",158,"ssfOUT_7_1_1_VULTURE","VULTURE",1,1,7,"no effect"
"ssfOUT_7_1_1_VULTURE.30",15.5109604291491,-1455.93728340439,1486.95920426268,"ssf","mf.ss","gamma","unif",500,"ssfOUT_7_1_1_VULTURE","VULTURE",1,1,7,"no effect"
"ssfOUT_7_1_1_VULTURE.31",16.4855079055636,-2560.62906795318,2593.60008376431,"ssf","mf.ss","exp","vonmises",5,"ssfOUT_7_1_1_VULTURE","VULTURE",1,1,7,"no effect"
"ssfOUT_7_1_1_VULTURE.32",16.4662575388974,-2828.91286630726,2861.84538138505,"ssf","mf.ss","exp","vonmises",15,"ssfOUT_7_1_1_VULTURE","VULTURE",1,1,7,"no effect"
"ssfOUT_7_1_1_VULTURE.33",16.5808135162121,-2565.25152942701,2598.41315645943,"ssf","mf.ss","exp","vonmises",50,"ssfOUT_7_1_1_VULTURE","VULTURE",1,1,7,"no effect"
"ssfOUT_7_1_1_VULTURE.34",15.4656057452738,-1439.34056303764,1470.27177452819,"ssf","mf.ss","exp","vonmises",158,"ssfOUT_7_1_1_VULTURE","VULTURE",1,1,7,"no effect"
"ssfOUT_7_1_1_VULTURE.35",15.5022595339966,-1500.18972440975,1531.19424347775,"ssf","mf.ss","exp","vonmises",500,"ssfOUT_7_1_1_VULTURE","VULTURE",1,1,7,"no effect"
"ssfOUT_7_1_1_VULTURE.36",16.6722487848829,-2967.86833268576,3001.21283025552,"ssf","mf.ss","exp","unif",5,"ssfOUT_7_1_1_VULTURE","VULTURE",1,1,7,"no effect"
"ssfOUT_7_1_1_VULTURE.37",16.5500268079188,-2307.09191194973,2340.19196556556,"ssf","mf.ss","exp","unif",15,"ssfOUT_7_1_1_VULTURE","VULTURE",1,1,7,"no effect"
"ssfOUT_7_1_1_VULTURE.38",16.5050454271658,-2335.49865761186,2368.5087484662,"ssf","mf.ss","exp","unif",50,"ssfOUT_7_1_1_VULTURE","VULTURE",1,1,7,"no effect"
"ssfOUT_7_1_1_VULTURE.39",15.4090100074328,-1451.64229690617,1482.46031692104,"ssf","mf.ss","exp","unif",158,"ssfOUT_7_1_1_VULTURE","VULTURE",1,1,7,"no effect"
"ssfOUT_7_1_1_VULTURE.40",15.4264703855088,-1532.70336933701,1563.55631010802,"ssf","mf.ss","exp","unif",500,"ssfOUT_7_1_1_VULTURE","VULTURE",1,1,7,"no effect"
"ssfOUT_7_1_1_KINGCOBRA.1",NA,NA,NA,"ssf","mf.is","gamma","vonmises",5,"ssfOUT_7_1_1_KINGCOBRA","KINGCOBRA",1,1,7,NA
"ssfOUT_7_1_1_KINGCOBRA.2",14.435648554406,-2231.55076371459,2260.4220608234,"ssf","mf.is","gamma","vonmises",15,"ssfOUT_7_1_1_KINGCOBRA","KINGCOBRA",1,1,7,"no effect"
"ssfOUT_7_1_1_KINGCOBRA.3",14.3536194665866,-2206.28928248741,2234.99652142058,"ssf","mf.is","gamma","vonmises",50,"ssfOUT_7_1_1_KINGCOBRA","KINGCOBRA",1,1,7,"no effect"
"ssfOUT_7_1_1_KINGCOBRA.4",14.3609452822117,-2139.6334112673,2168.35530183172,"ssf","mf.is","gamma","vonmises",158,"ssfOUT_7_1_1_KINGCOBRA","KINGCOBRA",1,1,7,"no effect"
"ssfOUT_7_1_1_KINGCOBRA.5",14.355898751378,-2070.55588053239,2099.26767803514,"ssf","mf.is","gamma","vonmises",500,"ssfOUT_7_1_1_KINGCOBRA","KINGCOBRA",1,1,7,"no effect"
"ssfOUT_7_1_1_KINGCOBRA.6",NA,NA,NA,"ssf","mf.is","gamma","unif",5,"ssfOUT_7_1_1_KINGCOBRA","KINGCOBRA",1,1,7,NA
"ssfOUT_7_1_1_KINGCOBRA.7",13.5571454288182,-2776.61716216686,2803.7314530245,"ssf","mf.is","gamma","unif",15,"ssfOUT_7_1_1_KINGCOBRA","KINGCOBRA",1,1,7,"no effect"
"ssfOUT_7_1_1_KINGCOBRA.8",14.3955725637402,-1938.11004721794,1966.90119234542,"ssf","mf.is","gamma","unif",50,"ssfOUT_7_1_1_KINGCOBRA","KINGCOBRA",1,1,7,"no effect"
"ssfOUT_7_1_1_KINGCOBRA.9",14.3300475012585,-1927.02784424713,1955.68793924965,"ssf","mf.is","gamma","unif",158,"ssfOUT_7_1_1_KINGCOBRA","KINGCOBRA",1,1,7,"no effect"
"ssfOUT_7_1_1_KINGCOBRA.10",14.3161025255684,-1959.58962941273,1988.22183446387,"ssf","mf.is","gamma","unif",500,"ssfOUT_7_1_1_KINGCOBRA","KINGCOBRA",1,1,7,"no effect"
"ssfOUT_7_1_1_KINGCOBRA.11",15.8597463790674,-3164.42062137159,3196.14011412973,"ssf","mf.is","exp","vonmises",5,"ssfOUT_7_1_1_KINGCOBRA","KINGCOBRA",1,1,7,"no effect"
"ssfOUT_7_1_1_KINGCOBRA.12",NA,NA,NA,"ssf","mf.is","exp","vonmises",15,"ssfOUT_7_1_1_KINGCOBRA","KINGCOBRA",1,1,7,NA
"ssfOUT_7_1_1_KINGCOBRA.13",14.9709418205957,-2251.68131125644,2281.62319489763,"ssf","mf.is","exp","vonmises",50,"ssfOUT_7_1_1_KINGCOBRA","KINGCOBRA",1,1,7,"no effect"
"ssfOUT_7_1_1_KINGCOBRA.14",14.4588057539231,-2284.81408357792,2313.73169508576,"ssf","mf.is","exp","vonmises",158,"ssfOUT_7_1_1_KINGCOBRA","KINGCOBRA",1,1,7,"no effect"
"ssfOUT_7_1_1_KINGCOBRA.15",13.9533990675101,-1704.72645655851,1732.63325469353,"ssf","mf.is","exp","vonmises",500,"ssfOUT_7_1_1_KINGCOBRA","KINGCOBRA",1,1,7,"no effect"
"ssfOUT_7_1_1_KINGCOBRA.16",16.3799755759481,-3193.95228270662,3226.71223385852,"ssf","mf.is","exp","unif",5,"ssfOUT_7_1_1_KINGCOBRA","KINGCOBRA",1,1,7,"no effect"
"ssfOUT_7_1_1_KINGCOBRA.17",15.1229908035475,-3302.0550146681,3332.30099627519,"ssf","mf.is","exp","unif",15,"ssfOUT_7_1_1_KINGCOBRA","KINGCOBRA",1,1,7,"no effect"
"ssfOUT_7_1_1_KINGCOBRA.18",15.1174417072839,-1888.98636048462,1919.22124389919,"ssf","mf.is","exp","unif",50,"ssfOUT_7_1_1_KINGCOBRA","KINGCOBRA",1,1,7,"no effect"
"ssfOUT_7_1_1_KINGCOBRA.19",14.6859492163874,-2361.50643868562,2390.8783371184,"ssf","mf.is","exp","unif",158,"ssfOUT_7_1_1_KINGCOBRA","KINGCOBRA",1,1,7,"no effect"
"ssfOUT_7_1_1_KINGCOBRA.20",13.7459309410603,-1476.08488976193,1503.57675164405,"ssf","mf.is","exp","unif",500,"ssfOUT_7_1_1_KINGCOBRA","KINGCOBRA",1,1,7,"no effect"
"ssfOUT_7_1_1_KINGCOBRA.21",16.1991133737301,-3633.04121061001,3665.43943735747,"ssf","mf.ss","gamma","vonmises",5,"ssfOUT_7_1_1_KINGCOBRA","KINGCOBRA",1,1,7,"no effect"
"ssfOUT_7_1_1_KINGCOBRA.22",16.1631079440916,-2385.74309990941,2418.0693157976,"ssf","mf.ss","gamma","vonmises",15,"ssfOUT_7_1_1_KINGCOBRA","KINGCOBRA",1,1,7,"no effect"
"ssfOUT_7_1_1_KINGCOBRA.23",16.6672234881947,-2250.55157810357,2283.88602507996,"ssf","mf.ss","gamma","vonmises",50,"ssfOUT_7_1_1_KINGCOBRA","KINGCOBRA",1,1,7,"no effect"
"ssfOUT_7_1_1_KINGCOBRA.24",16.9851716041726,-2202.238029699,2236.20837290735,"ssf","mf.ss","gamma","vonmises",158,"ssfOUT_7_1_1_KINGCOBRA","KINGCOBRA",1,1,7,"no effect"
"ssfOUT_7_1_1_KINGCOBRA.25",15.860386132221,-1314.21045306682,1345.93122533127,"ssf","mf.ss","gamma","vonmises",500,"ssfOUT_7_1_1_KINGCOBRA","KINGCOBRA",1,1,7,"no effect"
"ssfOUT_7_1_1_KINGCOBRA.26",18.019504071463,-3641.30249792752,3677.34150607045,"ssf","mf.ss","gamma","unif",5,"ssfOUT_7_1_1_KINGCOBRA","KINGCOBRA",1,1,7,"no effect"
"ssfOUT_7_1_1_KINGCOBRA.27",16.5053661382871,-1935.83061525891,1968.84134753548,"ssf","mf.ss","gamma","unif",15,"ssfOUT_7_1_1_KINGCOBRA","KINGCOBRA",1,1,7,"no effect"
"ssfOUT_7_1_1_KINGCOBRA.28",16.4296419018822,-2161.80103564243,2194.6603194462,"ssf","mf.ss","gamma","unif",50,"ssfOUT_7_1_1_KINGCOBRA","KINGCOBRA",1,1,7,"no effect"
"ssfOUT_7_1_1_KINGCOBRA.29",16.6790403699611,-2104.98094566361,2138.33902640353,"ssf","mf.ss","gamma","unif",158,"ssfOUT_7_1_1_KINGCOBRA","KINGCOBRA",1,1,7,"no effect"
"ssfOUT_7_1_1_KINGCOBRA.30",16.689638273725,-2112.33026833685,2145.7095448843,"ssf","mf.ss","gamma","unif",500,"ssfOUT_7_1_1_KINGCOBRA","KINGCOBRA",1,1,7,"no effect"
"ssfOUT_7_1_1_KINGCOBRA.31",16.0441517705811,-2869.71119665434,2901.7995001955,"ssf","mf.ss","exp","vonmises",5,"ssfOUT_7_1_1_KINGCOBRA","KINGCOBRA",1,1,7,"no effect"
"ssfOUT_7_1_1_KINGCOBRA.32",15.8229365575206,-2055.76778638957,2087.41365950461,"ssf","mf.ss","exp","vonmises",15,"ssfOUT_7_1_1_KINGCOBRA","KINGCOBRA",1,1,7,"no effect"
"ssfOUT_7_1_1_KINGCOBRA.33",16.4864712843187,-2148.84308760081,2181.81603016944,"ssf","mf.ss","exp","vonmises",50,"ssfOUT_7_1_1_KINGCOBRA","KINGCOBRA",1,1,7,"no effect"
"ssfOUT_7_1_1_KINGCOBRA.34",16.8387159991865,-2258.96193739501,2292.63936939338,"ssf","mf.ss","exp","vonmises",158,"ssfOUT_7_1_1_KINGCOBRA","KINGCOBRA",1,1,7,"no effect"
"ssfOUT_7_1_1_KINGCOBRA.35",16.5453907417309,-2084.89750666544,2117.9882881489,"ssf","mf.ss","exp","vonmises",500,"ssfOUT_7_1_1_KINGCOBRA","KINGCOBRA",1,1,7,"no effect"
"ssfOUT_7_1_1_KINGCOBRA.36",17.2471598792745,-3768.80732631048,3803.30164606903,"ssf","mf.ss","exp","unif",5,"ssfOUT_7_1_1_KINGCOBRA","KINGCOBRA",1,1,7,"no effect"
"ssfOUT_7_1_1_KINGCOBRA.37",16.2212548983349,-2118.23232478295,2150.67483457962,"ssf","mf.ss","exp","unif",15,"ssfOUT_7_1_1_KINGCOBRA","KINGCOBRA",1,1,7,"no effect"
"ssfOUT_7_1_1_KINGCOBRA.38",16.3851517458924,-2169.39383881226,2202.16414230404,"ssf","mf.ss","exp","unif",50,"ssfOUT_7_1_1_KINGCOBRA","KINGCOBRA",1,1,7,"no effect"
"ssfOUT_7_1_1_KINGCOBRA.39",16.4986792737047,-2124.8807847804,2157.87814332781,"ssf","mf.ss","exp","unif",158,"ssfOUT_7_1_1_KINGCOBRA","KINGCOBRA",1,1,7,"no effect"
"ssfOUT_7_1_1_KINGCOBRA.40",15.4858793766835,-1282.47661661665,1313.44837537001,"ssf","mf.ss","exp","unif",500,"ssfOUT_7_1_1_KINGCOBRA","KINGCOBRA",1,1,7,"no effect"
"ssfOUT_7_1_2_BADGER.1",1.38536800604743,0.476696338912302,2.29403967318256,"ssf","mf.is","gamma","vonmises",5,"ssfOUT_7_1_2_BADGER","BADGER",2,1,7,"preference"
"ssfOUT_7_1_2_BADGER.2",1.29636731543937,0.477313056669691,2.11542157420905,"ssf","mf.is","gamma","vonmises",15,"ssfOUT_7_1_2_BADGER","BADGER",2,1,7,"preference"
"ssfOUT_7_1_2_BADGER.3",1.25266059913116,0.42223062082198,2.08309057744034,"ssf","mf.is","gamma","vonmises",50,"ssfOUT_7_1_2_BADGER","BADGER",2,1,7,"preference"
"ssfOUT_7_1_2_BADGER.4",1.16589990487726,0.322191935782274,2.00960787397225,"ssf","mf.is","gamma","vonmises",158,"ssfOUT_7_1_2_BADGER","BADGER",2,1,7,"preference"
"ssfOUT_7_1_2_BADGER.5",1.16849048040937,0.319300216865073,2.01768074395366,"ssf","mf.is","gamma","vonmises",500,"ssfOUT_7_1_2_BADGER","BADGER",2,1,7,"preference"
"ssfOUT_7_1_2_BADGER.6",1.34860895357499,0.516085712317517,2.18113219483246,"ssf","mf.is","gamma","unif",5,"ssfOUT_7_1_2_BADGER","BADGER",2,1,7,"preference"
"ssfOUT_7_1_2_BADGER.7",0.992564778125137,0.167468785254515,1.81766077099576,"ssf","mf.is","gamma","unif",15,"ssfOUT_7_1_2_BADGER","BADGER",2,1,7,"preference"
"ssfOUT_7_1_2_BADGER.8",1.26740671068878,0.415133643883185,2.11967977749437,"ssf","mf.is","gamma","unif",50,"ssfOUT_7_1_2_BADGER","BADGER",2,1,7,"preference"
"ssfOUT_7_1_2_BADGER.9",1.26404543482336,0.410649443379611,2.11744142626711,"ssf","mf.is","gamma","unif",158,"ssfOUT_7_1_2_BADGER","BADGER",2,1,7,"preference"
"ssfOUT_7_1_2_BADGER.10",1.14509688182205,0.302617978933098,1.987575784711,"ssf","mf.is","gamma","unif",500,"ssfOUT_7_1_2_BADGER","BADGER",2,1,7,"preference"
"ssfOUT_7_1_2_BADGER.11",1.06057377097147,0.193108671623842,1.9280388703191,"ssf","mf.is","exp","vonmises",5,"ssfOUT_7_1_2_BADGER","BADGER",2,1,7,"preference"
"ssfOUT_7_1_2_BADGER.12",1.44778006510084,0.567231959557894,2.32832817064379,"ssf","mf.is","exp","vonmises",15,"ssfOUT_7_1_2_BADGER","BADGER",2,1,7,"preference"
"ssfOUT_7_1_2_BADGER.13",1.03388550111544,0.213593113095097,1.85417788913578,"ssf","mf.is","exp","vonmises",50,"ssfOUT_7_1_2_BADGER","BADGER",2,1,7,"preference"
"ssfOUT_7_1_2_BADGER.14",1.06407003753679,0.21272218899536,1.91541788607823,"ssf","mf.is","exp","vonmises",158,"ssfOUT_7_1_2_BADGER","BADGER",2,1,7,"preference"
"ssfOUT_7_1_2_BADGER.15",1.22152838396948,0.393549205134247,2.04950756280471,"ssf","mf.is","exp","vonmises",500,"ssfOUT_7_1_2_BADGER","BADGER",2,1,7,"preference"
"ssfOUT_7_1_2_BADGER.16",1.01419712199691,0.140663586831253,1.88773065716256,"ssf","mf.is","exp","unif",5,"ssfOUT_7_1_2_BADGER","BADGER",2,1,7,"preference"
"ssfOUT_7_1_2_BADGER.17",1.10832041421932,0.261579872377295,1.95506095606134,"ssf","mf.is","exp","unif",15,"ssfOUT_7_1_2_BADGER","BADGER",2,1,7,"preference"
"ssfOUT_7_1_2_BADGER.18",1.19963918241708,0.34285692577274,2.05642143906142,"ssf","mf.is","exp","unif",50,"ssfOUT_7_1_2_BADGER","BADGER",2,1,7,"preference"
"ssfOUT_7_1_2_BADGER.19",1.28975107657443,0.408585232970311,2.17091692017855,"ssf","mf.is","exp","unif",158,"ssfOUT_7_1_2_BADGER","BADGER",2,1,7,"preference"
"ssfOUT_7_1_2_BADGER.20",1.26989260743772,0.43800436962769,2.10178084524774,"ssf","mf.is","exp","unif",500,"ssfOUT_7_1_2_BADGER","BADGER",2,1,7,"preference"
"ssfOUT_7_1_2_BADGER.21",1.41871535493897,0.516258423462401,2.32117228641555,"ssf","mf.ss","gamma","vonmises",5,"ssfOUT_7_1_2_BADGER","BADGER",2,1,7,"preference"
"ssfOUT_7_1_2_BADGER.22",1.3593818917811,0.536363225021511,2.18240055854069,"ssf","mf.ss","gamma","vonmises",15,"ssfOUT_7_1_2_BADGER","BADGER",2,1,7,"preference"
"ssfOUT_7_1_2_BADGER.23",1.33144435143355,0.495836524073847,2.16705217879325,"ssf","mf.ss","gamma","vonmises",50,"ssfOUT_7_1_2_BADGER","BADGER",2,1,7,"preference"
"ssfOUT_7_1_2_BADGER.24",1.23139112072143,0.385332747037955,2.07744949440491,"ssf","mf.ss","gamma","vonmises",158,"ssfOUT_7_1_2_BADGER","BADGER",2,1,7,"preference"
"ssfOUT_7_1_2_BADGER.25",1.21668749168565,0.361403904500137,2.07197107887117,"ssf","mf.ss","gamma","vonmises",500,"ssfOUT_7_1_2_BADGER","BADGER",2,1,7,"preference"
"ssfOUT_7_1_2_BADGER.26",1.19791056375551,0.360626602778389,2.03519452473263,"ssf","mf.ss","gamma","unif",5,"ssfOUT_7_1_2_BADGER","BADGER",2,1,7,"preference"
"ssfOUT_7_1_2_BADGER.27",1.0341415184976,0.203458369982534,1.86482466701266,"ssf","mf.ss","gamma","unif",15,"ssfOUT_7_1_2_BADGER","BADGER",2,1,7,"preference"
"ssfOUT_7_1_2_BADGER.28",1.2965012142763,0.435064199270995,2.1579382292816,"ssf","mf.ss","gamma","unif",50,"ssfOUT_7_1_2_BADGER","BADGER",2,1,7,"preference"
"ssfOUT_7_1_2_BADGER.29",1.29837739995653,0.435081980394695,2.16167281951837,"ssf","mf.ss","gamma","unif",158,"ssfOUT_7_1_2_BADGER","BADGER",2,1,7,"preference"
"ssfOUT_7_1_2_BADGER.30",1.19087091318165,0.342213638675294,2.039528187688,"ssf","mf.ss","gamma","unif",500,"ssfOUT_7_1_2_BADGER","BADGER",2,1,7,"preference"
"ssfOUT_7_1_2_BADGER.31",1.01374468727252,0.172687025366418,1.85480234917863,"ssf","mf.ss","exp","vonmises",5,"ssfOUT_7_1_2_BADGER","BADGER",2,1,7,"preference"
"ssfOUT_7_1_2_BADGER.32",1.45531721341298,0.615058176801576,2.29557625002439,"ssf","mf.ss","exp","vonmises",15,"ssfOUT_7_1_2_BADGER","BADGER",2,1,7,"preference"
"ssfOUT_7_1_2_BADGER.33",1.25285292318552,0.436826165616244,2.06887968075479,"ssf","mf.ss","exp","vonmises",50,"ssfOUT_7_1_2_BADGER","BADGER",2,1,7,"preference"
"ssfOUT_7_1_2_BADGER.34",1.31075051122465,0.478870110703807,2.14263091174549,"ssf","mf.ss","exp","vonmises",158,"ssfOUT_7_1_2_BADGER","BADGER",2,1,7,"preference"
"ssfOUT_7_1_2_BADGER.35",1.42722635598049,0.594709278715419,2.25974343324556,"ssf","mf.ss","exp","vonmises",500,"ssfOUT_7_1_2_BADGER","BADGER",2,1,7,"preference"
"ssfOUT_7_1_2_BADGER.36",1.08853699365679,0.261917463617535,1.91515652369604,"ssf","mf.ss","exp","unif",5,"ssfOUT_7_1_2_BADGER","BADGER",2,1,7,"preference"
"ssfOUT_7_1_2_BADGER.37",1.3211242805727,0.490680282388822,2.15156827875657,"ssf","mf.ss","exp","unif",15,"ssfOUT_7_1_2_BADGER","BADGER",2,1,7,"preference"
"ssfOUT_7_1_2_BADGER.38",1.39923571372863,0.562652679049677,2.23581874840758,"ssf","mf.ss","exp","unif",50,"ssfOUT_7_1_2_BADGER","BADGER",2,1,7,"preference"
"ssfOUT_7_1_2_BADGER.39",1.3149566727525,0.483162926140923,2.14675041936408,"ssf","mf.ss","exp","unif",158,"ssfOUT_7_1_2_BADGER","BADGER",2,1,7,"preference"
"ssfOUT_7_1_2_BADGER.40",1.45836330904055,0.627442738347759,2.28928387973334,"ssf","mf.ss","exp","unif",500,"ssfOUT_7_1_2_BADGER","BADGER",2,1,7,"preference"
"ssfOUT_7_1_2_VULTURE.1",-0.432340427831624,-1.13569848069574,0.271017625032494,"ssf","mf.is","gamma","vonmises",5,"ssfOUT_7_1_2_VULTURE","VULTURE",2,1,7,"no effect"
"ssfOUT_7_1_2_VULTURE.2",-0.101437180021814,-0.728571556327013,0.525697196283386,"ssf","mf.is","gamma","vonmises",15,"ssfOUT_7_1_2_VULTURE","VULTURE",2,1,7,"no effect"
"ssfOUT_7_1_2_VULTURE.3",-0.242690878636733,-0.8486794579563,0.363297700682834,"ssf","mf.is","gamma","vonmises",50,"ssfOUT_7_1_2_VULTURE","VULTURE",2,1,7,"no effect"
"ssfOUT_7_1_2_VULTURE.4",-0.0685164030389703,-0.666488364588106,0.529455558510165,"ssf","mf.is","gamma","vonmises",158,"ssfOUT_7_1_2_VULTURE","VULTURE",2,1,7,"no effect"
"ssfOUT_7_1_2_VULTURE.5",-0.162875505207338,-0.762198233965741,0.436447223551066,"ssf","mf.is","gamma","vonmises",500,"ssfOUT_7_1_2_VULTURE","VULTURE",2,1,7,"no effect"
"ssfOUT_7_1_2_VULTURE.6",0.0258269312623383,-0.644571696322973,0.696225558847649,"ssf","mf.is","gamma","unif",5,"ssfOUT_7_1_2_VULTURE","VULTURE",2,1,7,"no effect"
"ssfOUT_7_1_2_VULTURE.7",-0.408346177521877,-1.03724465347721,0.220552298433456,"ssf","mf.is","gamma","unif",15,"ssfOUT_7_1_2_VULTURE","VULTURE",2,1,7,"no effect"
"ssfOUT_7_1_2_VULTURE.8",-0.118565045582083,-0.723555639862091,0.486425548697926,"ssf","mf.is","gamma","unif",50,"ssfOUT_7_1_2_VULTURE","VULTURE",2,1,7,"no effect"
"ssfOUT_7_1_2_VULTURE.9",-0.224403742568603,-0.825557343017299,0.376749857880094,"ssf","mf.is","gamma","unif",158,"ssfOUT_7_1_2_VULTURE","VULTURE",2,1,7,"no effect"
"ssfOUT_7_1_2_VULTURE.10",-0.182653600861912,-0.781068735092872,0.415761533369049,"ssf","mf.is","gamma","unif",500,"ssfOUT_7_1_2_VULTURE","VULTURE",2,1,7,"no effect"
"ssfOUT_7_1_2_VULTURE.11",-1.1623210384262,-2.04822979999805,-0.276412276854348,"ssf","mf.is","exp","vonmises",5,"ssfOUT_7_1_2_VULTURE","VULTURE",2,1,7,"avoidance"
"ssfOUT_7_1_2_VULTURE.12",-0.268487974822123,-0.899112584083996,0.362136634439751,"ssf","mf.is","exp","vonmises",15,"ssfOUT_7_1_2_VULTURE","VULTURE",2,1,7,"no effect"
"ssfOUT_7_1_2_VULTURE.13",-0.186954962896866,-0.80101713080674,0.427107205013008,"ssf","mf.is","exp","vonmises",50,"ssfOUT_7_1_2_VULTURE","VULTURE",2,1,7,"no effect"
"ssfOUT_7_1_2_VULTURE.14",-0.197802479938672,-0.796324365990557,0.400719406113213,"ssf","mf.is","exp","vonmises",158,"ssfOUT_7_1_2_VULTURE","VULTURE",2,1,7,"no effect"
"ssfOUT_7_1_2_VULTURE.15",-0.212799949394358,-0.811931032609564,0.386331133820848,"ssf","mf.is","exp","vonmises",500,"ssfOUT_7_1_2_VULTURE","VULTURE",2,1,7,"no effect"
"ssfOUT_7_1_2_VULTURE.16",-0.973007695063792,-1.76257823440834,-0.183437155719248,"ssf","mf.is","exp","unif",5,"ssfOUT_7_1_2_VULTURE","VULTURE",2,1,7,"avoidance"
"ssfOUT_7_1_2_VULTURE.17",-0.384510609151081,-1.03307479861426,0.264053580312101,"ssf","mf.is","exp","unif",15,"ssfOUT_7_1_2_VULTURE","VULTURE",2,1,7,"no effect"
"ssfOUT_7_1_2_VULTURE.18",-0.362912928116309,-0.970085806503585,0.244259950270967,"ssf","mf.is","exp","unif",50,"ssfOUT_7_1_2_VULTURE","VULTURE",2,1,7,"no effect"
"ssfOUT_7_1_2_VULTURE.19",-0.135788218848802,-0.734637280094895,0.463060842397291,"ssf","mf.is","exp","unif",158,"ssfOUT_7_1_2_VULTURE","VULTURE",2,1,7,"no effect"
"ssfOUT_7_1_2_VULTURE.20",-0.2097209633666,-0.80870717217004,0.38926524543684,"ssf","mf.is","exp","unif",500,"ssfOUT_7_1_2_VULTURE","VULTURE",2,1,7,"no effect"
"ssfOUT_7_1_2_VULTURE.21",-0.440115168238802,-1.14330743229051,0.263077095812902,"ssf","mf.ss","gamma","vonmises",5,"ssfOUT_7_1_2_VULTURE","VULTURE",2,1,7,"no effect"
"ssfOUT_7_1_2_VULTURE.22",-0.102093701775421,-0.729708124457264,0.525520720906422,"ssf","mf.ss","gamma","vonmises",15,"ssfOUT_7_1_2_VULTURE","VULTURE",2,1,7,"no effect"
"ssfOUT_7_1_2_VULTURE.23",-0.254018328947212,-0.859783704250791,0.351747046356367,"ssf","mf.ss","gamma","vonmises",50,"ssfOUT_7_1_2_VULTURE","VULTURE",2,1,7,"no effect"
"ssfOUT_7_1_2_VULTURE.24",-0.0795987222563645,-0.677486575301103,0.518289130788374,"ssf","mf.ss","gamma","vonmises",158,"ssfOUT_7_1_2_VULTURE","VULTURE",2,1,7,"no effect"
"ssfOUT_7_1_2_VULTURE.25",-0.172170709816258,-0.771581483315027,0.427240063682511,"ssf","mf.ss","gamma","vonmises",500,"ssfOUT_7_1_2_VULTURE","VULTURE",2,1,7,"no effect"
"ssfOUT_7_1_2_VULTURE.26",0.020871098085301,-0.650710242334659,0.692452438505261,"ssf","mf.ss","gamma","unif",5,"ssfOUT_7_1_2_VULTURE","VULTURE",2,1,7,"no effect"
"ssfOUT_7_1_2_VULTURE.27",-0.411190830650014,-1.03910815504347,0.216726493743437,"ssf","mf.ss","gamma","unif",15,"ssfOUT_7_1_2_VULTURE","VULTURE",2,1,7,"no effect"
"ssfOUT_7_1_2_VULTURE.28",-0.123353167457134,-0.727892010137103,0.481185675222836,"ssf","mf.ss","gamma","unif",50,"ssfOUT_7_1_2_VULTURE","VULTURE",2,1,7,"no effect"
"ssfOUT_7_1_2_VULTURE.29",-0.230505589698275,-0.831361993310794,0.370350813914243,"ssf","mf.ss","gamma","unif",158,"ssfOUT_7_1_2_VULTURE","VULTURE",2,1,7,"no effect"
"ssfOUT_7_1_2_VULTURE.30",-0.188728975371733,-0.786965204061963,0.409507253318498,"ssf","mf.ss","gamma","unif",500,"ssfOUT_7_1_2_VULTURE","VULTURE",2,1,7,"no effect"
"ssfOUT_7_1_2_VULTURE.31",-1.08075147765249,-1.92920576393036,-0.232297191374623,"ssf","mf.ss","exp","vonmises",5,"ssfOUT_7_1_2_VULTURE","VULTURE",2,1,7,"avoidance"
"ssfOUT_7_1_2_VULTURE.32",-0.182918351366022,-0.813284675408785,0.447447972676741,"ssf","mf.ss","exp","vonmises",15,"ssfOUT_7_1_2_VULTURE","VULTURE",2,1,7,"no effect"
"ssfOUT_7_1_2_VULTURE.33",-0.23191508986534,-0.854462618906596,0.390632439175915,"ssf","mf.ss","exp","vonmises",50,"ssfOUT_7_1_2_VULTURE","VULTURE",2,1,7,"no effect"
"ssfOUT_7_1_2_VULTURE.34",-0.302689073483697,-0.908230329941718,0.302852182974324,"ssf","mf.ss","exp","vonmises",158,"ssfOUT_7_1_2_VULTURE","VULTURE",2,1,7,"no effect"
"ssfOUT_7_1_2_VULTURE.35",-0.249699202244818,-0.856592087327799,0.357193682838162,"ssf","mf.ss","exp","vonmises",500,"ssfOUT_7_1_2_VULTURE","VULTURE",2,1,7,"no effect"
"ssfOUT_7_1_2_VULTURE.36",-0.965827535659175,-1.75009626534807,-0.181558805970277,"ssf","mf.ss","exp","unif",5,"ssfOUT_7_1_2_VULTURE","VULTURE",2,1,7,"avoidance"
"ssfOUT_7_1_2_VULTURE.37",-0.369469236446784,-1.02806713472736,0.289128661833795,"ssf","mf.ss","exp","unif",15,"ssfOUT_7_1_2_VULTURE","VULTURE",2,1,7,"no effect"
"ssfOUT_7_1_2_VULTURE.38",-0.370755821576539,-0.982790139046266,0.241278495893189,"ssf","mf.ss","exp","unif",50,"ssfOUT_7_1_2_VULTURE","VULTURE",2,1,7,"no effect"
"ssfOUT_7_1_2_VULTURE.39",-0.177357375512331,-0.782443415581226,0.427728664556565,"ssf","mf.ss","exp","unif",158,"ssfOUT_7_1_2_VULTURE","VULTURE",2,1,7,"no effect"
"ssfOUT_7_1_2_VULTURE.40",-0.230249105488981,-0.840316758545416,0.379818547567455,"ssf","mf.ss","exp","unif",500,"ssfOUT_7_1_2_VULTURE","VULTURE",2,1,7,"no effect"
"ssfOUT_7_1_2_KINGCOBRA.1",0.731221743619925,-0.43816012546509,1.90060361270494,"ssf","mf.is","gamma","vonmises",5,"ssfOUT_7_1_2_KINGCOBRA","KINGCOBRA",2,1,7,"no effect"
"ssfOUT_7_1_2_KINGCOBRA.2",0.193936112235678,-1.03413911379876,1.42201133827011,"ssf","mf.is","gamma","vonmises",15,"ssfOUT_7_1_2_KINGCOBRA","KINGCOBRA",2,1,7,"no effect"
"ssfOUT_7_1_2_KINGCOBRA.3",0.47374940755483,-0.694204732296653,1.64170354740631,"ssf","mf.is","gamma","vonmises",50,"ssfOUT_7_1_2_KINGCOBRA","KINGCOBRA",2,1,7,"no effect"
"ssfOUT_7_1_2_KINGCOBRA.4",0.574090923806091,-0.595677822459397,1.74385967007158,"ssf","mf.is","gamma","vonmises",158,"ssfOUT_7_1_2_KINGCOBRA","KINGCOBRA",2,1,7,"no effect"
"ssfOUT_7_1_2_KINGCOBRA.5",0.623370145569052,-0.541509483653313,1.78824977479142,"ssf","mf.is","gamma","vonmises",500,"ssfOUT_7_1_2_KINGCOBRA","KINGCOBRA",2,1,7,"no effect"
"ssfOUT_7_1_2_KINGCOBRA.6",0.218893000420433,-0.887707557095126,1.32549355793599,"ssf","mf.is","gamma","unif",5,"ssfOUT_7_1_2_KINGCOBRA","KINGCOBRA",2,1,7,"no effect"
"ssfOUT_7_1_2_KINGCOBRA.7",0.330971310443112,-0.747519429096403,1.40946204998263,"ssf","mf.is","gamma","unif",15,"ssfOUT_7_1_2_KINGCOBRA","KINGCOBRA",2,1,7,"no effect"
"ssfOUT_7_1_2_KINGCOBRA.8",0.457986476701083,-0.771396627820179,1.68736958122235,"ssf","mf.is","gamma","unif",50,"ssfOUT_7_1_2_KINGCOBRA","KINGCOBRA",2,1,7,"no effect"
"ssfOUT_7_1_2_KINGCOBRA.9",0.578996749184263,-0.579847271394269,1.7378407697628,"ssf","mf.is","gamma","unif",158,"ssfOUT_7_1_2_KINGCOBRA","KINGCOBRA",2,1,7,"no effect"
"ssfOUT_7_1_2_KINGCOBRA.10",0.664139025302995,-0.508509423147754,1.83678747375374,"ssf","mf.is","gamma","unif",500,"ssfOUT_7_1_2_KINGCOBRA","KINGCOBRA",2,1,7,"no effect"
"ssfOUT_7_1_2_KINGCOBRA.11",-1.30783211671602,-2.65208619995698,0.0364219665249432,"ssf","mf.is","exp","vonmises",5,"ssfOUT_7_1_2_KINGCOBRA","KINGCOBRA",2,1,7,"no effect"
"ssfOUT_7_1_2_KINGCOBRA.12",0.0204929436630435,-1.17222779326807,1.21321368059416,"ssf","mf.is","exp","vonmises",15,"ssfOUT_7_1_2_KINGCOBRA","KINGCOBRA",2,1,7,"no effect"
"ssfOUT_7_1_2_KINGCOBRA.13",0.125168060439747,-1.03288564011229,1.28322176099178,"ssf","mf.is","exp","vonmises",50,"ssfOUT_7_1_2_KINGCOBRA","KINGCOBRA",2,1,7,"no effect"
"ssfOUT_7_1_2_KINGCOBRA.14",0.24340154011669,-0.880529531462308,1.36733261169569,"ssf","mf.is","exp","vonmises",158,"ssfOUT_7_1_2_KINGCOBRA","KINGCOBRA",2,1,7,"no effect"
"ssfOUT_7_1_2_KINGCOBRA.15",0.706043718432454,-0.456211939928516,1.86829937679342,"ssf","mf.is","exp","vonmises",500,"ssfOUT_7_1_2_KINGCOBRA","KINGCOBRA",2,1,7,"no effect"
"ssfOUT_7_1_2_KINGCOBRA.16",0.114192854749406,-1.13304230879925,1.36142801829807,"ssf","mf.is","exp","unif",5,"ssfOUT_7_1_2_KINGCOBRA","KINGCOBRA",2,1,7,"no effect"
"ssfOUT_7_1_2_KINGCOBRA.17",0.84359926943936,-0.252071496665794,1.93927003554451,"ssf","mf.is","exp","unif",15,"ssfOUT_7_1_2_KINGCOBRA","KINGCOBRA",2,1,7,"no effect"
"ssfOUT_7_1_2_KINGCOBRA.18",0.464988526244329,-0.715534033479793,1.64551108596845,"ssf","mf.is","exp","unif",50,"ssfOUT_7_1_2_KINGCOBRA","KINGCOBRA",2,1,7,"no effect"
"ssfOUT_7_1_2_KINGCOBRA.19",0.767517904698012,-0.397737693805666,1.93277350320169,"ssf","mf.is","exp","unif",158,"ssfOUT_7_1_2_KINGCOBRA","KINGCOBRA",2,1,7,"no effect"
"ssfOUT_7_1_2_KINGCOBRA.20",0.5310478922606,-0.572822951310333,1.63491873583153,"ssf","mf.is","exp","unif",500,"ssfOUT_7_1_2_KINGCOBRA","KINGCOBRA",2,1,7,"no effect"
"ssfOUT_7_1_2_KINGCOBRA.21",0.770254332765029,-0.370580324562791,1.91108899009285,"ssf","mf.ss","gamma","vonmises",5,"ssfOUT_7_1_2_KINGCOBRA","KINGCOBRA",2,1,7,"no effect"
"ssfOUT_7_1_2_KINGCOBRA.22",0.315038145801473,-0.902384586285996,1.53246087788894,"ssf","mf.ss","gamma","vonmises",15,"ssfOUT_7_1_2_KINGCOBRA","KINGCOBRA",2,1,7,"no effect"
"ssfOUT_7_1_2_KINGCOBRA.23",0.466638513418723,-0.696430371896534,1.62970739873398,"ssf","mf.ss","gamma","vonmises",50,"ssfOUT_7_1_2_KINGCOBRA","KINGCOBRA",2,1,7,"no effect"
"ssfOUT_7_1_2_KINGCOBRA.24",0.604211170038573,-0.544255889317029,1.75267822939417,"ssf","mf.ss","gamma","vonmises",158,"ssfOUT_7_1_2_KINGCOBRA","KINGCOBRA",2,1,7,"no effect"
"ssfOUT_7_1_2_KINGCOBRA.25",0.650639587557261,-0.502175494108608,1.80345466922313,"ssf","mf.ss","gamma","vonmises",500,"ssfOUT_7_1_2_KINGCOBRA","KINGCOBRA",2,1,7,"no effect"
"ssfOUT_7_1_2_KINGCOBRA.26",0.155405271123943,-0.942046779930408,1.25285732217829,"ssf","mf.ss","gamma","unif",5,"ssfOUT_7_1_2_KINGCOBRA","KINGCOBRA",2,1,7,"no effect"
"ssfOUT_7_1_2_KINGCOBRA.27",0.33356780395119,-0.748595964517076,1.41573157241946,"ssf","mf.ss","gamma","unif",15,"ssfOUT_7_1_2_KINGCOBRA","KINGCOBRA",2,1,7,"no effect"
"ssfOUT_7_1_2_KINGCOBRA.28",0.445326626023807,-0.79022883025413,1.68088208230174,"ssf","mf.ss","gamma","unif",50,"ssfOUT_7_1_2_KINGCOBRA","KINGCOBRA",2,1,7,"no effect"
"ssfOUT_7_1_2_KINGCOBRA.29",0.565975740470375,-0.58843415786744,1.72038563880819,"ssf","mf.ss","gamma","unif",158,"ssfOUT_7_1_2_KINGCOBRA","KINGCOBRA",2,1,7,"no effect"
"ssfOUT_7_1_2_KINGCOBRA.30",0.65710024327799,-0.515084924279158,1.82928541083514,"ssf","mf.ss","gamma","unif",500,"ssfOUT_7_1_2_KINGCOBRA","KINGCOBRA",2,1,7,"no effect"
"ssfOUT_7_1_2_KINGCOBRA.31",-0.298365883061699,-1.55249057400221,0.955758807878809,"ssf","mf.ss","exp","vonmises",5,"ssfOUT_7_1_2_KINGCOBRA","KINGCOBRA",2,1,7,"no effect"
"ssfOUT_7_1_2_KINGCOBRA.32",0.290591850948905,-0.843694905070351,1.42487860696816,"ssf","mf.ss","exp","vonmises",15,"ssfOUT_7_1_2_KINGCOBRA","KINGCOBRA",2,1,7,"no effect"
"ssfOUT_7_1_2_KINGCOBRA.33",0.52849474343338,-0.569132073507312,1.62612156037407,"ssf","mf.ss","exp","vonmises",50,"ssfOUT_7_1_2_KINGCOBRA","KINGCOBRA",2,1,7,"no effect"
"ssfOUT_7_1_2_KINGCOBRA.34",0.274500615889562,-0.83213238370146,1.38113361548058,"ssf","mf.ss","exp","vonmises",158,"ssfOUT_7_1_2_KINGCOBRA","KINGCOBRA",2,1,7,"no effect"
"ssfOUT_7_1_2_KINGCOBRA.35",0.581276855993279,-0.533351735784293,1.69590544777085,"ssf","mf.ss","exp","vonmises",500,"ssfOUT_7_1_2_KINGCOBRA","KINGCOBRA",2,1,7,"no effect"
"ssfOUT_7_1_2_KINGCOBRA.36",0.347825085864763,-0.806717621390433,1.50236779311996,"ssf","mf.ss","exp","unif",5,"ssfOUT_7_1_2_KINGCOBRA","KINGCOBRA",2,1,7,"no effect"
"ssfOUT_7_1_2_KINGCOBRA.37",0.616690025866749,-0.465551688627185,1.69893174036068,"ssf","mf.ss","exp","unif",15,"ssfOUT_7_1_2_KINGCOBRA","KINGCOBRA",2,1,7,"no effect"
"ssfOUT_7_1_2_KINGCOBRA.38",0.728895222571586,-0.391231145868421,1.84902159101159,"ssf","mf.ss","exp","unif",50,"ssfOUT_7_1_2_KINGCOBRA","KINGCOBRA",2,1,7,"no effect"
"ssfOUT_7_1_2_KINGCOBRA.39",0.431228558402411,-0.670170461058777,1.5326275778636,"ssf","mf.ss","exp","unif",158,"ssfOUT_7_1_2_KINGCOBRA","KINGCOBRA",2,1,7,"no effect"
"ssfOUT_7_1_2_KINGCOBRA.40",0.397869470523704,-0.693924500116326,1.48966344116373,"ssf","mf.ss","exp","unif",500,"ssfOUT_7_1_2_KINGCOBRA","KINGCOBRA",2,1,7,"no effect"
"ssfOUT_7_1_3_BADGER.1",-0.845741005598806,-1.78443815677489,0.0929561455772823,"ssf","mf.is","gamma","vonmises",5,"ssfOUT_7_1_3_BADGER","BADGER",3,1,7,"no effect"
"ssfOUT_7_1_3_BADGER.2",-0.0246419326262617,-0.809450624143446,0.760166758890923,"ssf","mf.is","gamma","vonmises",15,"ssfOUT_7_1_3_BADGER","BADGER",3,1,7,"no effect"
"ssfOUT_7_1_3_BADGER.3",-0.301730854695183,-1.06236313853988,0.458901429149513,"ssf","mf.is","gamma","vonmises",50,"ssfOUT_7_1_3_BADGER","BADGER",3,1,7,"no effect"
"ssfOUT_7_1_3_BADGER.4",-0.130346622876906,-0.886501032525644,0.625807786771832,"ssf","mf.is","gamma","vonmises",158,"ssfOUT_7_1_3_BADGER","BADGER",3,1,7,"no effect"
"ssfOUT_7_1_3_BADGER.5",-0.119764302240758,-0.879189591038166,0.63966098655665,"ssf","mf.is","gamma","vonmises",500,"ssfOUT_7_1_3_BADGER","BADGER",3,1,7,"no effect"
"ssfOUT_7_1_3_BADGER.6",0.0167740575175313,-0.781163639462164,0.814711754497227,"ssf","mf.is","gamma","unif",5,"ssfOUT_7_1_3_BADGER","BADGER",3,1,7,"no effect"
"ssfOUT_7_1_3_BADGER.7",-0.385661694083337,-1.15990758027884,0.388584192112169,"ssf","mf.is","gamma","unif",15,"ssfOUT_7_1_3_BADGER","BADGER",3,1,7,"no effect"
"ssfOUT_7_1_3_BADGER.8",-0.133244591121163,-0.890945709952417,0.624456527710092,"ssf","mf.is","gamma","unif",50,"ssfOUT_7_1_3_BADGER","BADGER",3,1,7,"no effect"
"ssfOUT_7_1_3_BADGER.9",-0.08910044618591,-0.849648120955446,0.671447228583626,"ssf","mf.is","gamma","unif",158,"ssfOUT_7_1_3_BADGER","BADGER",3,1,7,"no effect"
"ssfOUT_7_1_3_BADGER.10",-0.0770652054822208,-0.836284301457968,0.682153890493527,"ssf","mf.is","gamma","unif",500,"ssfOUT_7_1_3_BADGER","BADGER",3,1,7,"no effect"
"ssfOUT_7_1_3_BADGER.11",-0.671482973180886,-1.56706979131709,0.224103844955314,"ssf","mf.is","exp","vonmises",5,"ssfOUT_7_1_3_BADGER","BADGER",3,1,7,"no effect"
"ssfOUT_7_1_3_BADGER.12",-0.296342113728416,-1.08962168535307,0.496937457896234,"ssf","mf.is","exp","vonmises",15,"ssfOUT_7_1_3_BADGER","BADGER",3,1,7,"no effect"
"ssfOUT_7_1_3_BADGER.13",-0.0944234700011281,-0.850045260907785,0.661198320905529,"ssf","mf.is","exp","vonmises",50,"ssfOUT_7_1_3_BADGER","BADGER",3,1,7,"no effect"
"ssfOUT_7_1_3_BADGER.14",-0.0509761895098223,-0.809023770460737,0.707071391441092,"ssf","mf.is","exp","vonmises",158,"ssfOUT_7_1_3_BADGER","BADGER",3,1,7,"no effect"
"ssfOUT_7_1_3_BADGER.15",-0.146873029578711,-0.901053248755997,0.607307189598575,"ssf","mf.is","exp","vonmises",500,"ssfOUT_7_1_3_BADGER","BADGER",3,1,7,"no effect"
"ssfOUT_7_1_3_BADGER.16",-0.109103194699885,-0.948114682359671,0.729908292959901,"ssf","mf.is","exp","unif",5,"ssfOUT_7_1_3_BADGER","BADGER",3,1,7,"no effect"
"ssfOUT_7_1_3_BADGER.17",0.212904603945147,-0.568938384612498,0.994747592502792,"ssf","mf.is","exp","unif",15,"ssfOUT_7_1_3_BADGER","BADGER",3,1,7,"no effect"
"ssfOUT_7_1_3_BADGER.18",-0.180106751004818,-0.949999360945081,0.589785858935445,"ssf","mf.is","exp","unif",50,"ssfOUT_7_1_3_BADGER","BADGER",3,1,7,"no effect"
"ssfOUT_7_1_3_BADGER.19",-0.0390049330532854,-0.792336463750216,0.714326597643646,"ssf","mf.is","exp","unif",158,"ssfOUT_7_1_3_BADGER","BADGER",3,1,7,"no effect"
"ssfOUT_7_1_3_BADGER.20",-0.150622824098424,-0.904820693053619,0.60357504485677,"ssf","mf.is","exp","unif",500,"ssfOUT_7_1_3_BADGER","BADGER",3,1,7,"no effect"
"ssfOUT_7_1_3_BADGER.21",-0.853949159312671,-1.7912770939687,0.0833787753433521,"ssf","mf.ss","gamma","vonmises",5,"ssfOUT_7_1_3_BADGER","BADGER",3,1,7,"no effect"
"ssfOUT_7_1_3_BADGER.22",-0.0337918165136125,-0.81732030541589,0.749736672388665,"ssf","mf.ss","gamma","vonmises",15,"ssfOUT_7_1_3_BADGER","BADGER",3,1,7,"no effect"
"ssfOUT_7_1_3_BADGER.23",-0.312532556057729,-1.07188111463462,0.446816002519163,"ssf","mf.ss","gamma","vonmises",50,"ssfOUT_7_1_3_BADGER","BADGER",3,1,7,"no effect"
"ssfOUT_7_1_3_BADGER.24",-0.139391679057332,-0.894096258668526,0.615312900553862,"ssf","mf.ss","gamma","vonmises",158,"ssfOUT_7_1_3_BADGER","BADGER",3,1,7,"no effect"
"ssfOUT_7_1_3_BADGER.25",-0.128024013984262,-0.885300830231308,0.629252802262784,"ssf","mf.ss","gamma","vonmises",500,"ssfOUT_7_1_3_BADGER","BADGER",3,1,7,"no effect"
"ssfOUT_7_1_3_BADGER.26",0.0169957179541325,-0.774495150095783,0.808486586004048,"ssf","mf.ss","gamma","unif",5,"ssfOUT_7_1_3_BADGER","BADGER",3,1,7,"no effect"
"ssfOUT_7_1_3_BADGER.27",-0.365615977147546,-1.13328843859867,0.402056484303576,"ssf","mf.ss","gamma","unif",15,"ssfOUT_7_1_3_BADGER","BADGER",3,1,7,"no effect"
"ssfOUT_7_1_3_BADGER.28",-0.111739278638646,-0.865586255751855,0.642107698474564,"ssf","mf.ss","gamma","unif",50,"ssfOUT_7_1_3_BADGER","BADGER",3,1,7,"no effect"
"ssfOUT_7_1_3_BADGER.29",-0.0743861133129345,-0.832900267359522,0.684128040733653,"ssf","mf.ss","gamma","unif",158,"ssfOUT_7_1_3_BADGER","BADGER",3,1,7,"no effect"
"ssfOUT_7_1_3_BADGER.30",-0.0781792710899549,-0.833799512776106,0.677440970596196,"ssf","mf.ss","gamma","unif",500,"ssfOUT_7_1_3_BADGER","BADGER",3,1,7,"no effect"
"ssfOUT_7_1_3_BADGER.31",-0.605302008065466,-1.48841116977273,0.277807153641799,"ssf","mf.ss","exp","vonmises",5,"ssfOUT_7_1_3_BADGER","BADGER",3,1,7,"no effect"
"ssfOUT_7_1_3_BADGER.32",-0.306300769258204,-1.08387523029418,0.471273691777767,"ssf","mf.ss","exp","vonmises",15,"ssfOUT_7_1_3_BADGER","BADGER",3,1,7,"no effect"
"ssfOUT_7_1_3_BADGER.33",-0.134007986582734,-0.887639135600868,0.619623162435401,"ssf","mf.ss","exp","vonmises",50,"ssfOUT_7_1_3_BADGER","BADGER",3,1,7,"no effect"
"ssfOUT_7_1_3_BADGER.34",-0.0808146184912962,-0.831116192775435,0.669486955792843,"ssf","mf.ss","exp","vonmises",158,"ssfOUT_7_1_3_BADGER","BADGER",3,1,7,"no effect"
"ssfOUT_7_1_3_BADGER.35",-0.179448432126517,-0.930150653313241,0.571253789060207,"ssf","mf.ss","exp","vonmises",500,"ssfOUT_7_1_3_BADGER","BADGER",3,1,7,"no effect"
"ssfOUT_7_1_3_BADGER.36",-0.0323952374094616,-0.869521438605377,0.804730963786453,"ssf","mf.ss","exp","unif",5,"ssfOUT_7_1_3_BADGER","BADGER",3,1,7,"no effect"
"ssfOUT_7_1_3_BADGER.37",0.141105338887483,-0.634001688044581,0.916212365819547,"ssf","mf.ss","exp","unif",15,"ssfOUT_7_1_3_BADGER","BADGER",3,1,7,"no effect"
"ssfOUT_7_1_3_BADGER.38",-0.207619210149555,-0.965912066137117,0.550673645838008,"ssf","mf.ss","exp","unif",50,"ssfOUT_7_1_3_BADGER","BADGER",3,1,7,"no effect"
"ssfOUT_7_1_3_BADGER.39",-0.103625870198623,-0.850058057175235,0.642806316777989,"ssf","mf.ss","exp","unif",158,"ssfOUT_7_1_3_BADGER","BADGER",3,1,7,"no effect"
"ssfOUT_7_1_3_BADGER.40",-0.187769988465122,-0.936340068588405,0.56080009165816,"ssf","mf.ss","exp","unif",500,"ssfOUT_7_1_3_BADGER","BADGER",3,1,7,"no effect"
"ssfOUT_7_1_3_VULTURE.1",0.392720985951436,-0.791892344777483,1.57733431668036,"ssf","mf.is","gamma","vonmises",5,"ssfOUT_7_1_3_VULTURE","VULTURE",3,1,7,"no effect"
"ssfOUT_7_1_3_VULTURE.2",0.11683855194922,-0.93978442843331,1.17346153233175,"ssf","mf.is","gamma","vonmises",15,"ssfOUT_7_1_3_VULTURE","VULTURE",3,1,7,"no effect"
"ssfOUT_7_1_3_VULTURE.3",0.497168384420611,-0.546957156304635,1.54129392514586,"ssf","mf.is","gamma","vonmises",50,"ssfOUT_7_1_3_VULTURE","VULTURE",3,1,7,"no effect"
"ssfOUT_7_1_3_VULTURE.4",0.260424781300541,-0.770108710834308,1.29095827343539,"ssf","mf.is","gamma","vonmises",158,"ssfOUT_7_1_3_VULTURE","VULTURE",3,1,7,"no effect"
"ssfOUT_7_1_3_VULTURE.5",0.40618756967881,-0.625634180025745,1.43800931938336,"ssf","mf.is","gamma","vonmises",500,"ssfOUT_7_1_3_VULTURE","VULTURE",3,1,7,"no effect"
"ssfOUT_7_1_3_VULTURE.6",-0.0588818523811072,-1.18166538453996,1.06390167977775,"ssf","mf.is","gamma","unif",5,"ssfOUT_7_1_3_VULTURE","VULTURE",3,1,7,"no effect"
"ssfOUT_7_1_3_VULTURE.7",0.598093381350829,-0.437903725674922,1.63409048837658,"ssf","mf.is","gamma","unif",15,"ssfOUT_7_1_3_VULTURE","VULTURE",3,1,7,"no effect"
"ssfOUT_7_1_3_VULTURE.8",0.445483964136797,-0.586927684765117,1.47789561303871,"ssf","mf.is","gamma","unif",50,"ssfOUT_7_1_3_VULTURE","VULTURE",3,1,7,"no effect"
"ssfOUT_7_1_3_VULTURE.9",0.314041380827257,-0.721713991632683,1.3497967532872,"ssf","mf.is","gamma","unif",158,"ssfOUT_7_1_3_VULTURE","VULTURE",3,1,7,"no effect"
"ssfOUT_7_1_3_VULTURE.10",0.330405139499197,-0.696019351458709,1.3568296304571,"ssf","mf.is","gamma","unif",500,"ssfOUT_7_1_3_VULTURE","VULTURE",3,1,7,"no effect"
"ssfOUT_7_1_3_VULTURE.11",0.58144269733237,-0.50481413916883,1.66769953383357,"ssf","mf.is","exp","vonmises",5,"ssfOUT_7_1_3_VULTURE","VULTURE",3,1,7,"no effect"
"ssfOUT_7_1_3_VULTURE.12",0.553689514600513,-0.497686097335769,1.60506512653679,"ssf","mf.is","exp","vonmises",15,"ssfOUT_7_1_3_VULTURE","VULTURE",3,1,7,"no effect"
"ssfOUT_7_1_3_VULTURE.13",0.154361121667617,-0.876529705133348,1.18525194846858,"ssf","mf.is","exp","vonmises",50,"ssfOUT_7_1_3_VULTURE","VULTURE",3,1,7,"no effect"
"ssfOUT_7_1_3_VULTURE.14",0.389742009735289,-0.650737000628618,1.4302210200992,"ssf","mf.is","exp","vonmises",158,"ssfOUT_7_1_3_VULTURE","VULTURE",3,1,7,"no effect"
"ssfOUT_7_1_3_VULTURE.15",0.419149908817965,-0.610860867853076,1.44916068548901,"ssf","mf.is","exp","vonmises",500,"ssfOUT_7_1_3_VULTURE","VULTURE",3,1,7,"no effect"
"ssfOUT_7_1_3_VULTURE.16",0.630452384451893,-0.470297821420203,1.73120259032399,"ssf","mf.is","exp","unif",5,"ssfOUT_7_1_3_VULTURE","VULTURE",3,1,7,"no effect"
"ssfOUT_7_1_3_VULTURE.17",0.209967791090926,-0.843974470030795,1.26391005221265,"ssf","mf.is","exp","unif",15,"ssfOUT_7_1_3_VULTURE","VULTURE",3,1,7,"no effect"
"ssfOUT_7_1_3_VULTURE.18",0.215847455424696,-0.819248021640821,1.25094293249021,"ssf","mf.is","exp","unif",50,"ssfOUT_7_1_3_VULTURE","VULTURE",3,1,7,"no effect"
"ssfOUT_7_1_3_VULTURE.19",0.33929868897594,-0.699256538426667,1.37785391637855,"ssf","mf.is","exp","unif",158,"ssfOUT_7_1_3_VULTURE","VULTURE",3,1,7,"no effect"
"ssfOUT_7_1_3_VULTURE.20",0.453262140033455,-0.578069045934981,1.48459332600189,"ssf","mf.is","exp","unif",500,"ssfOUT_7_1_3_VULTURE","VULTURE",3,1,7,"no effect"
"ssfOUT_7_1_3_VULTURE.21",0.567174227828078,-0.578251919788885,1.71260037544504,"ssf","mf.ss","gamma","vonmises",5,"ssfOUT_7_1_3_VULTURE","VULTURE",3,1,7,"no effect"
"ssfOUT_7_1_3_VULTURE.22",0.181308845255527,-0.869399600491524,1.23201729100258,"ssf","mf.ss","gamma","vonmises",15,"ssfOUT_7_1_3_VULTURE","VULTURE",3,1,7,"no effect"
"ssfOUT_7_1_3_VULTURE.23",0.54208013045681,-0.499446912017058,1.58360717293068,"ssf","mf.ss","gamma","vonmises",50,"ssfOUT_7_1_3_VULTURE","VULTURE",3,1,7,"no effect"
"ssfOUT_7_1_3_VULTURE.24",0.323559756306028,-0.705723734756788,1.35284324736884,"ssf","mf.ss","gamma","vonmises",158,"ssfOUT_7_1_3_VULTURE","VULTURE",3,1,7,"no effect"
"ssfOUT_7_1_3_VULTURE.25",0.447746528561286,-0.582885720641414,1.47837877776399,"ssf","mf.ss","gamma","vonmises",500,"ssfOUT_7_1_3_VULTURE","VULTURE",3,1,7,"no effect"
"ssfOUT_7_1_3_VULTURE.26",0.181860299345971,-0.918027143270866,1.28174774196281,"ssf","mf.ss","gamma","unif",5,"ssfOUT_7_1_3_VULTURE","VULTURE",3,1,7,"no effect"
"ssfOUT_7_1_3_VULTURE.27",0.644260896290871,-0.388864352084003,1.67738614466575,"ssf","mf.ss","gamma","unif",15,"ssfOUT_7_1_3_VULTURE","VULTURE",3,1,7,"no effect"
"ssfOUT_7_1_3_VULTURE.28",0.496542804946933,-0.534016559973732,1.5271021698676,"ssf","mf.ss","gamma","unif",50,"ssfOUT_7_1_3_VULTURE","VULTURE",3,1,7,"no effect"
"ssfOUT_7_1_3_VULTURE.29",0.360692894249476,-0.673003033186935,1.39438882168589,"ssf","mf.ss","gamma","unif",158,"ssfOUT_7_1_3_VULTURE","VULTURE",3,1,7,"no effect"
"ssfOUT_7_1_3_VULTURE.30",0.403680017815205,-0.621994535506181,1.42935457113659,"ssf","mf.ss","gamma","unif",500,"ssfOUT_7_1_3_VULTURE","VULTURE",3,1,7,"no effect"
"ssfOUT_7_1_3_VULTURE.31",0.594139878506764,-0.482113374053465,1.67039313106699,"ssf","mf.ss","exp","vonmises",5,"ssfOUT_7_1_3_VULTURE","VULTURE",3,1,7,"no effect"
"ssfOUT_7_1_3_VULTURE.32",0.50694491444268,-0.530089753837088,1.54397958272245,"ssf","mf.ss","exp","vonmises",15,"ssfOUT_7_1_3_VULTURE","VULTURE",3,1,7,"no effect"
"ssfOUT_7_1_3_VULTURE.33",0.408020702354259,-0.624823341520317,1.44086474622884,"ssf","mf.ss","exp","vonmises",50,"ssfOUT_7_1_3_VULTURE","VULTURE",3,1,7,"no effect"
"ssfOUT_7_1_3_VULTURE.34",0.514769219995645,-0.524527581347672,1.55406602133896,"ssf","mf.ss","exp","vonmises",158,"ssfOUT_7_1_3_VULTURE","VULTURE",3,1,7,"no effect"
"ssfOUT_7_1_3_VULTURE.35",0.526286370645288,-0.498790542696522,1.5513632839871,"ssf","mf.ss","exp","vonmises",500,"ssfOUT_7_1_3_VULTURE","VULTURE",3,1,7,"no effect"
"ssfOUT_7_1_3_VULTURE.36",0.931805086969735,-0.147702433701413,2.01131260764088,"ssf","mf.ss","exp","unif",5,"ssfOUT_7_1_3_VULTURE","VULTURE",3,1,7,"no effect"
"ssfOUT_7_1_3_VULTURE.37",0.0836607034096135,-0.964854046331361,1.13217545315059,"ssf","mf.ss","exp","unif",15,"ssfOUT_7_1_3_VULTURE","VULTURE",3,1,7,"no effect"
"ssfOUT_7_1_3_VULTURE.38",0.350264628676226,-0.683416838237346,1.3839460955898,"ssf","mf.ss","exp","unif",50,"ssfOUT_7_1_3_VULTURE","VULTURE",3,1,7,"no effect"
"ssfOUT_7_1_3_VULTURE.39",0.495195952921189,-0.538558695182133,1.52895060102451,"ssf","mf.ss","exp","unif",158,"ssfOUT_7_1_3_VULTURE","VULTURE",3,1,7,"no effect"
"ssfOUT_7_1_3_VULTURE.40",0.568865217931536,-0.458341831084383,1.59607226694745,"ssf","mf.ss","exp","unif",500,"ssfOUT_7_1_3_VULTURE","VULTURE",3,1,7,"no effect"
"ssfOUT_7_1_3_KINGCOBRA.1",0.948319085772073,0.613360632117898,1.28327753942625,"ssf","mf.is","gamma","vonmises",5,"ssfOUT_7_1_3_KINGCOBRA","KINGCOBRA",3,1,7,"preference"
"ssfOUT_7_1_3_KINGCOBRA.2",0.834045088372257,0.503731506546272,1.16435867019824,"ssf","mf.is","gamma","vonmises",15,"ssfOUT_7_1_3_KINGCOBRA","KINGCOBRA",3,1,7,"preference"
"ssfOUT_7_1_3_KINGCOBRA.3",13.4046459667098,-1850.78927620127,1877.59856813469,"ssf","mf.is","gamma","vonmises",50,"ssfOUT_7_1_3_KINGCOBRA","KINGCOBRA",3,1,7,"no effect"
"ssfOUT_7_1_3_KINGCOBRA.4",12.22392338976,-1702.93498462244,1727.38283140196,"ssf","mf.is","gamma","vonmises",158,"ssfOUT_7_1_3_KINGCOBRA","KINGCOBRA",3,1,7,"no effect"
"ssfOUT_7_1_3_KINGCOBRA.5",12.5040740365696,-1605.4603788299,1630.46852690304,"ssf","mf.is","gamma","vonmises",500,"ssfOUT_7_1_3_KINGCOBRA","KINGCOBRA",3,1,7,"no effect"
"ssfOUT_7_1_3_KINGCOBRA.6",0.926606600882977,0.589690647732057,1.2635225540339,"ssf","mf.is","gamma","unif",5,"ssfOUT_7_1_3_KINGCOBRA","KINGCOBRA",3,1,7,"preference"
"ssfOUT_7_1_3_KINGCOBRA.7",14.7748344463758,-2564.50392938701,2594.05359827976,"ssf","mf.is","gamma","unif",15,"ssfOUT_7_1_3_KINGCOBRA","KINGCOBRA",3,1,7,"no effect"
"ssfOUT_7_1_3_KINGCOBRA.8",13.3143435491948,-2415.82080165988,2442.44948875827,"ssf","mf.is","gamma","unif",50,"ssfOUT_7_1_3_KINGCOBRA","KINGCOBRA",3,1,7,"no effect"
"ssfOUT_7_1_3_KINGCOBRA.9",12.4348103309858,-1478.99730157736,1503.86692223933,"ssf","mf.is","gamma","unif",158,"ssfOUT_7_1_3_KINGCOBRA","KINGCOBRA",3,1,7,"no effect"
"ssfOUT_7_1_3_KINGCOBRA.10",12.4344668193259,-1329.96501296843,1354.83394660708,"ssf","mf.is","gamma","unif",500,"ssfOUT_7_1_3_KINGCOBRA","KINGCOBRA",3,1,7,"no effect"
"ssfOUT_7_1_3_KINGCOBRA.11",0.797911785937078,0.440889392738833,1.15493417913532,"ssf","mf.is","exp","vonmises",5,"ssfOUT_7_1_3_KINGCOBRA","KINGCOBRA",3,1,7,"preference"
"ssfOUT_7_1_3_KINGCOBRA.12",0.911814877935967,0.547191758973782,1.27643799689815,"ssf","mf.is","exp","vonmises",15,"ssfOUT_7_1_3_KINGCOBRA","KINGCOBRA",3,1,7,"preference"
"ssfOUT_7_1_3_KINGCOBRA.13",13.2589520989036,-2880.37230833012,2906.89021252793,"ssf","mf.is","exp","vonmises",50,"ssfOUT_7_1_3_KINGCOBRA","KINGCOBRA",3,1,7,"no effect"
"ssfOUT_7_1_3_KINGCOBRA.14",13.7736844149883,-1779.20248127807,1806.74985010805,"ssf","mf.is","exp","vonmises",158,"ssfOUT_7_1_3_KINGCOBRA","KINGCOBRA",3,1,7,"no effect"
"ssfOUT_7_1_3_KINGCOBRA.15",13.1311968542134,-2041.44170318824,2067.70409689667,"ssf","mf.is","exp","vonmises",500,"ssfOUT_7_1_3_KINGCOBRA","KINGCOBRA",3,1,7,"no effect"
"ssfOUT_7_1_3_KINGCOBRA.16",1.22568585548794,0.856678171532343,1.59469353944354,"ssf","mf.is","exp","unif",5,"ssfOUT_7_1_3_KINGCOBRA","KINGCOBRA",3,1,7,"preference"
"ssfOUT_7_1_3_KINGCOBRA.17",13.3417502485006,-3112.42352555502,3139.10702605203,"ssf","mf.is","exp","unif",15,"ssfOUT_7_1_3_KINGCOBRA","KINGCOBRA",3,1,7,"no effect"
"ssfOUT_7_1_3_KINGCOBRA.18",13.3691720018532,-3009.57559670142,3036.31394070513,"ssf","mf.is","exp","unif",50,"ssfOUT_7_1_3_KINGCOBRA","KINGCOBRA",3,1,7,"no effect"
"ssfOUT_7_1_3_KINGCOBRA.19",12.5765931779416,-2202.81899727009,2227.97218362597,"ssf","mf.is","exp","unif",158,"ssfOUT_7_1_3_KINGCOBRA","KINGCOBRA",3,1,7,"no effect"
"ssfOUT_7_1_3_KINGCOBRA.20",12.1337417821418,-1964.70855645539,1988.97604001967,"ssf","mf.is","exp","unif",500,"ssfOUT_7_1_3_KINGCOBRA","KINGCOBRA",3,1,7,"no effect"
"ssfOUT_7_1_3_KINGCOBRA.21",0.844444461461923,0.510537393439368,1.17835152948448,"ssf","mf.ss","gamma","vonmises",5,"ssfOUT_7_1_3_KINGCOBRA","KINGCOBRA",3,1,7,"preference"
"ssfOUT_7_1_3_KINGCOBRA.22",0.781744835191346,0.45831086254929,1.1051788078334,"ssf","mf.ss","gamma","vonmises",15,"ssfOUT_7_1_3_KINGCOBRA","KINGCOBRA",3,1,7,"preference"
"ssfOUT_7_1_3_KINGCOBRA.23",13.1390737780526,-1812.82034294322,1839.09849049932,"ssf","mf.ss","gamma","vonmises",50,"ssfOUT_7_1_3_KINGCOBRA","KINGCOBRA",3,1,7,"no effect"
"ssfOUT_7_1_3_KINGCOBRA.24",12.1603258818044,-1612.50997353484,1636.83062529845,"ssf","mf.ss","gamma","vonmises",158,"ssfOUT_7_1_3_KINGCOBRA","KINGCOBRA",3,1,7,"no effect"
"ssfOUT_7_1_3_KINGCOBRA.25",12.2080708392533,-1549.8890326229,1574.30517430141,"ssf","mf.ss","gamma","vonmises",500,"ssfOUT_7_1_3_KINGCOBRA","KINGCOBRA",3,1,7,"no effect"
"ssfOUT_7_1_3_KINGCOBRA.26",0.943079100227353,0.610111913341975,1.27604628711273,"ssf","mf.ss","gamma","unif",5,"ssfOUT_7_1_3_KINGCOBRA","KINGCOBRA",3,1,7,"preference"
"ssfOUT_7_1_3_KINGCOBRA.27",14.256849122812,-2584.58281502051,2613.09651326613,"ssf","mf.ss","gamma","unif",15,"ssfOUT_7_1_3_KINGCOBRA","KINGCOBRA",3,1,7,"no effect"
"ssfOUT_7_1_3_KINGCOBRA.28",13.0881542608099,-2390.10000243983,2416.27631096145,"ssf","mf.ss","gamma","unif",50,"ssfOUT_7_1_3_KINGCOBRA","KINGCOBRA",3,1,7,"no effect"
"ssfOUT_7_1_3_KINGCOBRA.29",12.286789016348,-1415.70876776988,1440.28234580258,"ssf","mf.ss","gamma","unif",158,"ssfOUT_7_1_3_KINGCOBRA","KINGCOBRA",3,1,7,"no effect"
"ssfOUT_7_1_3_KINGCOBRA.30",12.238364045052,-1317.44687957153,1341.92360766164,"ssf","mf.ss","gamma","unif",500,"ssfOUT_7_1_3_KINGCOBRA","KINGCOBRA",3,1,7,"no effect"
"ssfOUT_7_1_3_KINGCOBRA.31",0.694238661661625,0.382777715086395,1.00569960823685,"ssf","mf.ss","exp","vonmises",5,"ssfOUT_7_1_3_KINGCOBRA","KINGCOBRA",3,1,7,"preference"
"ssfOUT_7_1_3_KINGCOBRA.32",0.654601393931038,0.344464412953398,0.964738374908678,"ssf","mf.ss","exp","vonmises",15,"ssfOUT_7_1_3_KINGCOBRA","KINGCOBRA",3,1,7,"preference"
"ssfOUT_7_1_3_KINGCOBRA.33",12.1580521090127,-1674.90628067232,1699.22238489035,"ssf","mf.ss","exp","vonmises",50,"ssfOUT_7_1_3_KINGCOBRA","KINGCOBRA",3,1,7,"no effect"
"ssfOUT_7_1_3_KINGCOBRA.34",12.1874485206806,-2095.2255413281,2119.60043836946,"ssf","mf.ss","exp","vonmises",158,"ssfOUT_7_1_3_KINGCOBRA","KINGCOBRA",3,1,7,"no effect"
"ssfOUT_7_1_3_KINGCOBRA.35",11.1982317035769,-1740.93942774383,1763.33589115098,"ssf","mf.ss","exp","vonmises",500,"ssfOUT_7_1_3_KINGCOBRA","KINGCOBRA",3,1,7,"no effect"
"ssfOUT_7_1_3_KINGCOBRA.36",0.915182979536191,0.591687298880583,1.2386786601918,"ssf","mf.ss","exp","unif",5,"ssfOUT_7_1_3_KINGCOBRA","KINGCOBRA",3,1,7,"preference"
"ssfOUT_7_1_3_KINGCOBRA.37",13.2932746444986,-2746.71637252666,2773.30292181566,"ssf","mf.ss","exp","unif",15,"ssfOUT_7_1_3_KINGCOBRA","KINGCOBRA",3,1,7,"no effect"
"ssfOUT_7_1_3_KINGCOBRA.38",11.1206764545352,-1763.84429611859,1786.08564902766,"ssf","mf.ss","exp","unif",50,"ssfOUT_7_1_3_KINGCOBRA","KINGCOBRA",3,1,7,"no effect"
"ssfOUT_7_1_3_KINGCOBRA.39",11.1574249650492,-1548.00770824984,1570.32255817994,"ssf","mf.ss","exp","unif",158,"ssfOUT_7_1_3_KINGCOBRA","KINGCOBRA",3,1,7,"no effect"
"ssfOUT_7_1_3_KINGCOBRA.40",11.211111610443,-1742.2640708104,1764.68629403128,"ssf","mf.ss","exp","unif",500,"ssfOUT_7_1_3_KINGCOBRA","KINGCOBRA",3,1,7,"no effect"
"ssfOUT_7_1_4_BADGER.1",0.0020523746367085,-0.873229490765492,0.877334240038909,"ssf","mf.is","gamma","vonmises",5,"ssfOUT_7_1_4_BADGER","BADGER",4,1,7,"no effect"
"ssfOUT_7_1_4_BADGER.2",0.593214307317651,-0.189872267197582,1.37630088183288,"ssf","mf.is","gamma","vonmises",15,"ssfOUT_7_1_4_BADGER","BADGER",4,1,7,"no effect"
"ssfOUT_7_1_4_BADGER.3",0.349710870622228,-0.415644755172649,1.11506649641711,"ssf","mf.is","gamma","vonmises",50,"ssfOUT_7_1_4_BADGER","BADGER",4,1,7,"no effect"
"ssfOUT_7_1_4_BADGER.4",0.549830125497743,-0.221316888770352,1.32097713976584,"ssf","mf.is","gamma","vonmises",158,"ssfOUT_7_1_4_BADGER","BADGER",4,1,7,"no effect"
"ssfOUT_7_1_4_BADGER.5",0.523579711729651,-0.236749194417778,1.28390861787708,"ssf","mf.is","gamma","vonmises",500,"ssfOUT_7_1_4_BADGER","BADGER",4,1,7,"no effect"
"ssfOUT_7_1_4_BADGER.6",0.160379624966888,-0.651233237410426,0.971992487344201,"ssf","mf.is","gamma","unif",5,"ssfOUT_7_1_4_BADGER","BADGER",4,1,7,"no effect"
"ssfOUT_7_1_4_BADGER.7",0.510534928165067,-0.27577274206472,1.29684259839485,"ssf","mf.is","gamma","unif",15,"ssfOUT_7_1_4_BADGER","BADGER",4,1,7,"no effect"
"ssfOUT_7_1_4_BADGER.8",0.46978756705567,-0.303237457922319,1.24281259203366,"ssf","mf.is","gamma","unif",50,"ssfOUT_7_1_4_BADGER","BADGER",4,1,7,"no effect"
"ssfOUT_7_1_4_BADGER.9",0.506181329583071,-0.255209487236933,1.26757214640308,"ssf","mf.is","gamma","unif",158,"ssfOUT_7_1_4_BADGER","BADGER",4,1,7,"no effect"
"ssfOUT_7_1_4_BADGER.10",0.422843765814776,-0.334570054491944,1.1802575861215,"ssf","mf.is","gamma","unif",500,"ssfOUT_7_1_4_BADGER","BADGER",4,1,7,"no effect"
"ssfOUT_7_1_4_BADGER.11",0.389722892632673,-0.422760869795562,1.20220665506091,"ssf","mf.is","exp","vonmises",5,"ssfOUT_7_1_4_BADGER","BADGER",4,1,7,"no effect"
"ssfOUT_7_1_4_BADGER.12",0.330164495580531,-0.441851259293359,1.10218025045442,"ssf","mf.is","exp","vonmises",15,"ssfOUT_7_1_4_BADGER","BADGER",4,1,7,"no effect"
"ssfOUT_7_1_4_BADGER.13",0.249782553247946,-0.522470304348908,1.0220354108448,"ssf","mf.is","exp","vonmises",50,"ssfOUT_7_1_4_BADGER","BADGER",4,1,7,"no effect"
"ssfOUT_7_1_4_BADGER.14",0.495420745443948,-0.270091637652187,1.26093312854008,"ssf","mf.is","exp","vonmises",158,"ssfOUT_7_1_4_BADGER","BADGER",4,1,7,"no effect"
"ssfOUT_7_1_4_BADGER.15",0.441377978725713,-0.318694318287086,1.20145027573851,"ssf","mf.is","exp","vonmises",500,"ssfOUT_7_1_4_BADGER","BADGER",4,1,7,"no effect"
"ssfOUT_7_1_4_BADGER.16",1.14704104146827,0.332880472279852,1.96120161065668,"ssf","mf.is","exp","unif",5,"ssfOUT_7_1_4_BADGER","BADGER",4,1,7,"preference"
"ssfOUT_7_1_4_BADGER.17",0.497611936341962,-0.290985945674079,1.286209818358,"ssf","mf.is","exp","unif",15,"ssfOUT_7_1_4_BADGER","BADGER",4,1,7,"no effect"
"ssfOUT_7_1_4_BADGER.18",0.476209303896794,-0.306063957979012,1.2584825657726,"ssf","mf.is","exp","unif",50,"ssfOUT_7_1_4_BADGER","BADGER",4,1,7,"no effect"
"ssfOUT_7_1_4_BADGER.19",0.494877013938799,-0.282141649125453,1.27189567700305,"ssf","mf.is","exp","unif",158,"ssfOUT_7_1_4_BADGER","BADGER",4,1,7,"no effect"
"ssfOUT_7_1_4_BADGER.20",0.442996891478202,-0.315538474230028,1.20153225718643,"ssf","mf.is","exp","unif",500,"ssfOUT_7_1_4_BADGER","BADGER",4,1,7,"no effect"
"ssfOUT_7_1_4_BADGER.21",-0.00775515343231348,-0.882531382099108,0.867021075234481,"ssf","mf.ss","gamma","vonmises",5,"ssfOUT_7_1_4_BADGER","BADGER",4,1,7,"no effect"
"ssfOUT_7_1_4_BADGER.22",0.588680326995487,-0.199529651743982,1.37689030573496,"ssf","mf.ss","gamma","vonmises",15,"ssfOUT_7_1_4_BADGER","BADGER",4,1,7,"no effect"
"ssfOUT_7_1_4_BADGER.23",0.333871107642518,-0.432253409497027,1.09999562478206,"ssf","mf.ss","gamma","vonmises",50,"ssfOUT_7_1_4_BADGER","BADGER",4,1,7,"no effect"
"ssfOUT_7_1_4_BADGER.24",0.538623683806483,-0.23415440858808,1.31140177620105,"ssf","mf.ss","gamma","vonmises",158,"ssfOUT_7_1_4_BADGER","BADGER",4,1,7,"no effect"
"ssfOUT_7_1_4_BADGER.25",0.513085565102516,-0.248497135768295,1.27466826597333,"ssf","mf.ss","gamma","vonmises",500,"ssfOUT_7_1_4_BADGER","BADGER",4,1,7,"no effect"
"ssfOUT_7_1_4_BADGER.26",0.250689362087542,-0.554697635199551,1.05607635937463,"ssf","mf.ss","gamma","unif",5,"ssfOUT_7_1_4_BADGER","BADGER",4,1,7,"no effect"
"ssfOUT_7_1_4_BADGER.27",0.476385264656246,-0.307566278361085,1.26033680767358,"ssf","mf.ss","gamma","unif",15,"ssfOUT_7_1_4_BADGER","BADGER",4,1,7,"no effect"
"ssfOUT_7_1_4_BADGER.28",0.461813492199162,-0.315185085000766,1.23881206939909,"ssf","mf.ss","gamma","unif",50,"ssfOUT_7_1_4_BADGER","BADGER",4,1,7,"no effect"
"ssfOUT_7_1_4_BADGER.29",0.500962537250494,-0.261595574550534,1.26352064905152,"ssf","mf.ss","gamma","unif",158,"ssfOUT_7_1_4_BADGER","BADGER",4,1,7,"no effect"
"ssfOUT_7_1_4_BADGER.30",0.419668778121761,-0.338062846798661,1.17740040304218,"ssf","mf.ss","gamma","unif",500,"ssfOUT_7_1_4_BADGER","BADGER",4,1,7,"no effect"
"ssfOUT_7_1_4_BADGER.31",0.260703964847999,-0.545044581015705,1.0664525107117,"ssf","mf.ss","exp","vonmises",5,"ssfOUT_7_1_4_BADGER","BADGER",4,1,7,"no effect"
"ssfOUT_7_1_4_BADGER.32",0.3343835498236,-0.43843584683327,1.10720294648047,"ssf","mf.ss","exp","vonmises",15,"ssfOUT_7_1_4_BADGER","BADGER",4,1,7,"no effect"
"ssfOUT_7_1_4_BADGER.33",0.2056342779066,-0.566560423648872,0.977828979462072,"ssf","mf.ss","exp","vonmises",50,"ssfOUT_7_1_4_BADGER","BADGER",4,1,7,"no effect"
"ssfOUT_7_1_4_BADGER.34",0.498438429335773,-0.265557860677487,1.26243471934903,"ssf","mf.ss","exp","vonmises",158,"ssfOUT_7_1_4_BADGER","BADGER",4,1,7,"no effect"
"ssfOUT_7_1_4_BADGER.35",0.432074305549469,-0.325994880658084,1.19014349175702,"ssf","mf.ss","exp","vonmises",500,"ssfOUT_7_1_4_BADGER","BADGER",4,1,7,"no effect"
"ssfOUT_7_1_4_BADGER.36",1.19682276035471,0.385209328042564,2.00843619266685,"ssf","mf.ss","exp","unif",5,"ssfOUT_7_1_4_BADGER","BADGER",4,1,7,"preference"
"ssfOUT_7_1_4_BADGER.37",0.558526809966655,-0.227543766935622,1.34459738686893,"ssf","mf.ss","exp","unif",15,"ssfOUT_7_1_4_BADGER","BADGER",4,1,7,"no effect"
"ssfOUT_7_1_4_BADGER.38",0.441623461199889,-0.328231585705779,1.21147850810556,"ssf","mf.ss","exp","unif",50,"ssfOUT_7_1_4_BADGER","BADGER",4,1,7,"no effect"
"ssfOUT_7_1_4_BADGER.39",0.492944774699917,-0.27785795391232,1.26374750331215,"ssf","mf.ss","exp","unif",158,"ssfOUT_7_1_4_BADGER","BADGER",4,1,7,"no effect"
"ssfOUT_7_1_4_BADGER.40",0.422879343980979,-0.333407749184012,1.17916643714597,"ssf","mf.ss","exp","unif",500,"ssfOUT_7_1_4_BADGER","BADGER",4,1,7,"no effect"
"ssfOUT_7_1_4_VULTURE.1",0.728309243756882,0.0619914989168755,1.39462698859689,"ssf","mf.is","gamma","vonmises",5,"ssfOUT_7_1_4_VULTURE","VULTURE",4,1,7,"preference"
"ssfOUT_7_1_4_VULTURE.2",0.64757418128418,0.0262608228564875,1.26888753971187,"ssf","mf.is","gamma","vonmises",15,"ssfOUT_7_1_4_VULTURE","VULTURE",4,1,7,"preference"
"ssfOUT_7_1_4_VULTURE.3",0.595153291889417,-0.0215459008829774,1.21185248466181,"ssf","mf.is","gamma","vonmises",50,"ssfOUT_7_1_4_VULTURE","VULTURE",4,1,7,"no effect"
"ssfOUT_7_1_4_VULTURE.4",0.483825050704274,-0.122716420875141,1.09036652228369,"ssf","mf.is","gamma","vonmises",158,"ssfOUT_7_1_4_VULTURE","VULTURE",4,1,7,"no effect"
"ssfOUT_7_1_4_VULTURE.5",0.537519904019034,-0.0668790051817497,1.14191881321982,"ssf","mf.is","gamma","vonmises",500,"ssfOUT_7_1_4_VULTURE","VULTURE",4,1,7,"no effect"
"ssfOUT_7_1_4_VULTURE.6",0.648054648574505,-0.00903231970365737,1.30514161685267,"ssf","mf.is","gamma","unif",5,"ssfOUT_7_1_4_VULTURE","VULTURE",4,1,7,"no effect"
"ssfOUT_7_1_4_VULTURE.7",0.587784667891025,-0.0362978633710339,1.21186719915308,"ssf","mf.is","gamma","unif",15,"ssfOUT_7_1_4_VULTURE","VULTURE",4,1,7,"no effect"
"ssfOUT_7_1_4_VULTURE.8",0.663323034794468,0.0525481981585488,1.27409787143039,"ssf","mf.is","gamma","unif",50,"ssfOUT_7_1_4_VULTURE","VULTURE",4,1,7,"preference"
"ssfOUT_7_1_4_VULTURE.9",0.558247755082002,-0.0486801823395374,1.16517569250354,"ssf","mf.is","gamma","unif",158,"ssfOUT_7_1_4_VULTURE","VULTURE",4,1,7,"no effect"
"ssfOUT_7_1_4_VULTURE.10",0.577560624333616,-0.030165891532475,1.18528714019971,"ssf","mf.is","gamma","unif",500,"ssfOUT_7_1_4_VULTURE","VULTURE",4,1,7,"no effect"
"ssfOUT_7_1_4_VULTURE.11",0.830017368558597,0.179688611780025,1.48034612533717,"ssf","mf.is","exp","vonmises",5,"ssfOUT_7_1_4_VULTURE","VULTURE",4,1,7,"preference"
"ssfOUT_7_1_4_VULTURE.12",0.711803733480143,0.0838411489422951,1.33976631801799,"ssf","mf.is","exp","vonmises",15,"ssfOUT_7_1_4_VULTURE","VULTURE",4,1,7,"preference"
"ssfOUT_7_1_4_VULTURE.13",0.481939676682713,-0.129029502357063,1.09290885572249,"ssf","mf.is","exp","vonmises",50,"ssfOUT_7_1_4_VULTURE","VULTURE",4,1,7,"no effect"
"ssfOUT_7_1_4_VULTURE.14",0.50631601149987,-0.0985120502711087,1.11114407327085,"ssf","mf.is","exp","vonmises",158,"ssfOUT_7_1_4_VULTURE","VULTURE",4,1,7,"no effect"
"ssfOUT_7_1_4_VULTURE.15",0.529434433296998,-0.0751223383445153,1.13399120493851,"ssf","mf.is","exp","vonmises",500,"ssfOUT_7_1_4_VULTURE","VULTURE",4,1,7,"no effect"
"ssfOUT_7_1_4_VULTURE.16",0.141278175115807,-0.517992189193189,0.800548539424804,"ssf","mf.is","exp","unif",5,"ssfOUT_7_1_4_VULTURE","VULTURE",4,1,7,"no effect"
"ssfOUT_7_1_4_VULTURE.17",0.58442565950449,-0.0318477235490736,1.20069904255805,"ssf","mf.is","exp","unif",15,"ssfOUT_7_1_4_VULTURE","VULTURE",4,1,7,"no effect"
"ssfOUT_7_1_4_VULTURE.18",0.676387441783611,0.0658671709338684,1.28690771263335,"ssf","mf.is","exp","unif",50,"ssfOUT_7_1_4_VULTURE","VULTURE",4,1,7,"preference"
"ssfOUT_7_1_4_VULTURE.19",0.560899703232143,-0.04516625336099,1.16696565982528,"ssf","mf.is","exp","unif",158,"ssfOUT_7_1_4_VULTURE","VULTURE",4,1,7,"no effect"
"ssfOUT_7_1_4_VULTURE.20",0.539639678664714,-0.0662844154948168,1.14556377282424,"ssf","mf.is","exp","unif",500,"ssfOUT_7_1_4_VULTURE","VULTURE",4,1,7,"no effect"
"ssfOUT_7_1_4_VULTURE.21",0.713596346320102,0.0494996210639045,1.3776930715763,"ssf","mf.ss","gamma","vonmises",5,"ssfOUT_7_1_4_VULTURE","VULTURE",4,1,7,"preference"
"ssfOUT_7_1_4_VULTURE.22",0.63967472149361,0.0196253531489278,1.25972408983829,"ssf","mf.ss","gamma","vonmises",15,"ssfOUT_7_1_4_VULTURE","VULTURE",4,1,7,"preference"
"ssfOUT_7_1_4_VULTURE.23",0.585544179159142,-0.0307460964771741,1.20183445479546,"ssf","mf.ss","gamma","vonmises",50,"ssfOUT_7_1_4_VULTURE","VULTURE",4,1,7,"no effect"
"ssfOUT_7_1_4_VULTURE.24",0.474740332479176,-0.131780497045788,1.08126116200414,"ssf","mf.ss","gamma","vonmises",158,"ssfOUT_7_1_4_VULTURE","VULTURE",4,1,7,"no effect"
"ssfOUT_7_1_4_VULTURE.25",0.532551989870894,-0.0715893946099969,1.13669337435178,"ssf","mf.ss","gamma","vonmises",500,"ssfOUT_7_1_4_VULTURE","VULTURE",4,1,7,"no effect"
"ssfOUT_7_1_4_VULTURE.26",0.645400629719783,-0.0128666835435067,1.30366794298307,"ssf","mf.ss","gamma","unif",5,"ssfOUT_7_1_4_VULTURE","VULTURE",4,1,7,"no effect"
"ssfOUT_7_1_4_VULTURE.27",0.586617413610758,-0.0362194921481807,1.2094543193697,"ssf","mf.ss","gamma","unif",15,"ssfOUT_7_1_4_VULTURE","VULTURE",4,1,7,"no effect"
"ssfOUT_7_1_4_VULTURE.28",0.692129539175035,0.0814566166598857,1.30280246169018,"ssf","mf.ss","gamma","unif",50,"ssfOUT_7_1_4_VULTURE","VULTURE",4,1,7,"preference"
"ssfOUT_7_1_4_VULTURE.29",0.568974175283548,-0.0372536456741492,1.17520199624125,"ssf","mf.ss","gamma","unif",158,"ssfOUT_7_1_4_VULTURE","VULTURE",4,1,7,"no effect"
"ssfOUT_7_1_4_VULTURE.30",0.58658942155022,-0.0209036641278575,1.1940825072283,"ssf","mf.ss","gamma","unif",500,"ssfOUT_7_1_4_VULTURE","VULTURE",4,1,7,"no effect"
"ssfOUT_7_1_4_VULTURE.31",0.673365905701163,0.00637854258987292,1.34035326881245,"ssf","mf.ss","exp","vonmises",5,"ssfOUT_7_1_4_VULTURE","VULTURE",4,1,7,"preference"
"ssfOUT_7_1_4_VULTURE.32",0.711355781149347,0.0885598480442562,1.33415171425444,"ssf","mf.ss","exp","vonmises",15,"ssfOUT_7_1_4_VULTURE","VULTURE",4,1,7,"preference"
"ssfOUT_7_1_4_VULTURE.33",0.493584452579663,-0.120173920305536,1.10734282546486,"ssf","mf.ss","exp","vonmises",50,"ssfOUT_7_1_4_VULTURE","VULTURE",4,1,7,"no effect"
"ssfOUT_7_1_4_VULTURE.34",0.504428038551319,-0.101840193174304,1.11069627027694,"ssf","mf.ss","exp","vonmises",158,"ssfOUT_7_1_4_VULTURE","VULTURE",4,1,7,"no effect"
"ssfOUT_7_1_4_VULTURE.35",0.546955145479794,-0.0605444099063923,1.15445470086598,"ssf","mf.ss","exp","vonmises",500,"ssfOUT_7_1_4_VULTURE","VULTURE",4,1,7,"no effect"
"ssfOUT_7_1_4_VULTURE.36",0.320913731315741,-0.324150483486395,0.965977946117877,"ssf","mf.ss","exp","unif",5,"ssfOUT_7_1_4_VULTURE","VULTURE",4,1,7,"no effect"
"ssfOUT_7_1_4_VULTURE.37",0.644857663991847,0.0226685153674161,1.26704681261628,"ssf","mf.ss","exp","unif",15,"ssfOUT_7_1_4_VULTURE","VULTURE",4,1,7,"preference"
"ssfOUT_7_1_4_VULTURE.38",0.678294433992123,0.0648819947972125,1.29170687318703,"ssf","mf.ss","exp","unif",50,"ssfOUT_7_1_4_VULTURE","VULTURE",4,1,7,"preference"
"ssfOUT_7_1_4_VULTURE.39",0.579824387682646,-0.0286822360245257,1.18833101138982,"ssf","mf.ss","exp","unif",158,"ssfOUT_7_1_4_VULTURE","VULTURE",4,1,7,"no effect"
"ssfOUT_7_1_4_VULTURE.40",0.58051936503652,-0.0311830057219388,1.19222173579498,"ssf","mf.ss","exp","unif",500,"ssfOUT_7_1_4_VULTURE","VULTURE",4,1,7,"no effect"
"ssfOUT_7_1_4_KINGCOBRA.1",0.107160191591877,-1.02001563100925,1.234336014193,"ssf","mf.is","gamma","vonmises",5,"ssfOUT_7_1_4_KINGCOBRA","KINGCOBRA",4,1,7,"no effect"
"ssfOUT_7_1_4_KINGCOBRA.2",0.821138098780599,-0.242936537526186,1.88521273508738,"ssf","mf.is","gamma","vonmises",15,"ssfOUT_7_1_4_KINGCOBRA","KINGCOBRA",4,1,7,"no effect"
"ssfOUT_7_1_4_KINGCOBRA.3",0.661336546051937,-0.403503847380126,1.726176939484,"ssf","mf.is","gamma","vonmises",50,"ssfOUT_7_1_4_KINGCOBRA","KINGCOBRA",4,1,7,"no effect"
"ssfOUT_7_1_4_KINGCOBRA.4",0.713741073305326,-0.339337866051306,1.76682001266196,"ssf","mf.is","gamma","vonmises",158,"ssfOUT_7_1_4_KINGCOBRA","KINGCOBRA",4,1,7,"no effect"
"ssfOUT_7_1_4_KINGCOBRA.5",0.752022330846698,-0.313190351180988,1.81723501287438,"ssf","mf.is","gamma","vonmises",500,"ssfOUT_7_1_4_KINGCOBRA","KINGCOBRA",4,1,7,"no effect"
"ssfOUT_7_1_4_KINGCOBRA.6",0.528912825927229,-0.550482534178413,1.60830818603287,"ssf","mf.is","gamma","unif",5,"ssfOUT_7_1_4_KINGCOBRA","KINGCOBRA",4,1,7,"no effect"
"ssfOUT_7_1_4_KINGCOBRA.7",0.666291227946491,-0.395787657460707,1.72837011335369,"ssf","mf.is","gamma","unif",15,"ssfOUT_7_1_4_KINGCOBRA","KINGCOBRA",4,1,7,"no effect"
"ssfOUT_7_1_4_KINGCOBRA.8",0.794969457387338,-0.243988019590191,1.83392693436487,"ssf","mf.is","gamma","unif",50,"ssfOUT_7_1_4_KINGCOBRA","KINGCOBRA",4,1,7,"no effect"
"ssfOUT_7_1_4_KINGCOBRA.9",0.741286559459577,-0.318398334600914,1.80097145352007,"ssf","mf.is","gamma","unif",158,"ssfOUT_7_1_4_KINGCOBRA","KINGCOBRA",4,1,7,"no effect"
"ssfOUT_7_1_4_KINGCOBRA.10",0.768392784098128,-0.286250590582739,1.82303615877899,"ssf","mf.is","gamma","unif",500,"ssfOUT_7_1_4_KINGCOBRA","KINGCOBRA",4,1,7,"no effect"
"ssfOUT_7_1_4_KINGCOBRA.11",0.923211511671738,-0.159131760992225,2.0055547843357,"ssf","mf.is","exp","vonmises",5,"ssfOUT_7_1_4_KINGCOBRA","KINGCOBRA",4,1,7,"no effect"
"ssfOUT_7_1_4_KINGCOBRA.12",1.72729958325429,0.461034723403776,2.9935644431048,"ssf","mf.is","exp","vonmises",15,"ssfOUT_7_1_4_KINGCOBRA","KINGCOBRA",4,1,7,"preference"
"ssfOUT_7_1_4_KINGCOBRA.13",0.780654075870037,-0.279309248180186,1.84061739992026,"ssf","mf.is","exp","vonmises",50,"ssfOUT_7_1_4_KINGCOBRA","KINGCOBRA",4,1,7,"no effect"
"ssfOUT_7_1_4_KINGCOBRA.14",0.85815506201962,-0.212930242860607,1.92924036689985,"ssf","mf.is","exp","vonmises",158,"ssfOUT_7_1_4_KINGCOBRA","KINGCOBRA",4,1,7,"no effect"
"ssfOUT_7_1_4_KINGCOBRA.15",0.708519357219322,-0.344380975750178,1.76141969018882,"ssf","mf.is","exp","vonmises",500,"ssfOUT_7_1_4_KINGCOBRA","KINGCOBRA",4,1,7,"no effect"
"ssfOUT_7_1_4_KINGCOBRA.16",1.25725516371097,0.170058664274351,2.34445166314759,"ssf","mf.is","exp","unif",5,"ssfOUT_7_1_4_KINGCOBRA","KINGCOBRA",4,1,7,"preference"
"ssfOUT_7_1_4_KINGCOBRA.17",0.779080885015757,-0.280340477203228,1.83850224723474,"ssf","mf.is","exp","unif",15,"ssfOUT_7_1_4_KINGCOBRA","KINGCOBRA",4,1,7,"no effect"
"ssfOUT_7_1_4_KINGCOBRA.18",1.16054485363007,0.0669735081261515,2.25411619913398,"ssf","mf.is","exp","unif",50,"ssfOUT_7_1_4_KINGCOBRA","KINGCOBRA",4,1,7,"preference"
"ssfOUT_7_1_4_KINGCOBRA.19",0.812707818711034,-0.247144348368408,1.87255998579048,"ssf","mf.is","exp","unif",158,"ssfOUT_7_1_4_KINGCOBRA","KINGCOBRA",4,1,7,"no effect"
"ssfOUT_7_1_4_KINGCOBRA.20",0.728102279681932,-0.33695926129433,1.79316382065819,"ssf","mf.is","exp","unif",500,"ssfOUT_7_1_4_KINGCOBRA","KINGCOBRA",4,1,7,"no effect"
"ssfOUT_7_1_4_KINGCOBRA.21",0.0377432298607308,-1.08110841269993,1.15659487242139,"ssf","mf.ss","gamma","vonmises",5,"ssfOUT_7_1_4_KINGCOBRA","KINGCOBRA",4,1,7,"no effect"
"ssfOUT_7_1_4_KINGCOBRA.22",0.803421284528297,-0.262813485077149,1.86965605413374,"ssf","mf.ss","gamma","vonmises",15,"ssfOUT_7_1_4_KINGCOBRA","KINGCOBRA",4,1,7,"no effect"
"ssfOUT_7_1_4_KINGCOBRA.23",0.6568535000864,-0.406858155985901,1.7205651561587,"ssf","mf.ss","gamma","vonmises",50,"ssfOUT_7_1_4_KINGCOBRA","KINGCOBRA",4,1,7,"no effect"
"ssfOUT_7_1_4_KINGCOBRA.24",0.722954668823951,-0.330683922619598,1.7765932602675,"ssf","mf.ss","gamma","vonmises",158,"ssfOUT_7_1_4_KINGCOBRA","KINGCOBRA",4,1,7,"no effect"
"ssfOUT_7_1_4_KINGCOBRA.25",0.752336037464769,-0.310642685499595,1.81531476042913,"ssf","mf.ss","gamma","vonmises",500,"ssfOUT_7_1_4_KINGCOBRA","KINGCOBRA",4,1,7,"no effect"
"ssfOUT_7_1_4_KINGCOBRA.26",0.529143156035989,-0.550764761100297,1.60905107317228,"ssf","mf.ss","gamma","unif",5,"ssfOUT_7_1_4_KINGCOBRA","KINGCOBRA",4,1,7,"no effect"
"ssfOUT_7_1_4_KINGCOBRA.27",0.652503032137416,-0.407742693255409,1.71274875753024,"ssf","mf.ss","gamma","unif",15,"ssfOUT_7_1_4_KINGCOBRA","KINGCOBRA",4,1,7,"no effect"
"ssfOUT_7_1_4_KINGCOBRA.28",0.815215516737172,-0.220335669294595,1.85076670276894,"ssf","mf.ss","gamma","unif",50,"ssfOUT_7_1_4_KINGCOBRA","KINGCOBRA",4,1,7,"no effect"
"ssfOUT_7_1_4_KINGCOBRA.29",0.751510189344535,-0.307809704932032,1.8108300836211,"ssf","mf.ss","gamma","unif",158,"ssfOUT_7_1_4_KINGCOBRA","KINGCOBRA",4,1,7,"no effect"
"ssfOUT_7_1_4_KINGCOBRA.30",0.773501632637387,-0.279899725651271,1.82690299092605,"ssf","mf.ss","gamma","unif",500,"ssfOUT_7_1_4_KINGCOBRA","KINGCOBRA",4,1,7,"no effect"
"ssfOUT_7_1_4_KINGCOBRA.31",0.756967982996943,-0.314407406304389,1.82834337229827,"ssf","mf.ss","exp","vonmises",5,"ssfOUT_7_1_4_KINGCOBRA","KINGCOBRA",4,1,7,"no effect"
"ssfOUT_7_1_4_KINGCOBRA.32",0.859770482155878,-0.182082163665729,1.90162312797748,"ssf","mf.ss","exp","vonmises",15,"ssfOUT_7_1_4_KINGCOBRA","KINGCOBRA",4,1,7,"no effect"
"ssfOUT_7_1_4_KINGCOBRA.33",0.663267925824606,-0.369896766838977,1.69643261848819,"ssf","mf.ss","exp","vonmises",50,"ssfOUT_7_1_4_KINGCOBRA","KINGCOBRA",4,1,7,"no effect"
"ssfOUT_7_1_4_KINGCOBRA.34",0.663604530920803,-0.372311283462815,1.69952034530442,"ssf","mf.ss","exp","vonmises",158,"ssfOUT_7_1_4_KINGCOBRA","KINGCOBRA",4,1,7,"no effect"
"ssfOUT_7_1_4_KINGCOBRA.35",0.620325142716211,-0.408122229032364,1.64877251446479,"ssf","mf.ss","exp","vonmises",500,"ssfOUT_7_1_4_KINGCOBRA","KINGCOBRA",4,1,7,"no effect"
"ssfOUT_7_1_4_KINGCOBRA.36",1.0616123623007,-0.00985446118855338,2.13307918578996,"ssf","mf.ss","exp","unif",5,"ssfOUT_7_1_4_KINGCOBRA","KINGCOBRA",4,1,7,"no effect"
"ssfOUT_7_1_4_KINGCOBRA.37",0.759063680036202,-0.280523335756777,1.79865069582918,"ssf","mf.ss","exp","unif",15,"ssfOUT_7_1_4_KINGCOBRA","KINGCOBRA",4,1,7,"no effect"
"ssfOUT_7_1_4_KINGCOBRA.38",0.727316825290567,-0.312544289404821,1.76717793998596,"ssf","mf.ss","exp","unif",50,"ssfOUT_7_1_4_KINGCOBRA","KINGCOBRA",4,1,7,"no effect"
"ssfOUT_7_1_4_KINGCOBRA.39",0.573526732991939,-0.460956826764386,1.60801029274826,"ssf","mf.ss","exp","unif",158,"ssfOUT_7_1_4_KINGCOBRA","KINGCOBRA",4,1,7,"no effect"
"ssfOUT_7_1_4_KINGCOBRA.40",0.653176171073632,-0.380055515838599,1.68640785798586,"ssf","mf.ss","exp","unif",500,"ssfOUT_7_1_4_KINGCOBRA","KINGCOBRA",4,1,7,"no effect"
"ssfOUT_7_2_1_BADGER.1",16.3851960615723,-5327.80679732008,5360.57718944322,"ssf","mf.is","gamma","vonmises",5,"ssfOUT_7_2_1_BADGER","BADGER",1,0.5,7,"no effect"
"ssfOUT_7_2_1_BADGER.2",16.702234717926,-3972.36955335822,4005.77402279407,"ssf","mf.is","gamma","vonmises",15,"ssfOUT_7_2_1_BADGER","BADGER",1,0.5,7,"no effect"
"ssfOUT_7_2_1_BADGER.3",16.6157882784302,-3746.70929880269,3779.94087535955,"ssf","mf.is","gamma","vonmises",50,"ssfOUT_7_2_1_BADGER","BADGER",1,0.5,7,"no effect"
"ssfOUT_7_2_1_BADGER.4",16.5200914559596,-3329.38674453339,3362.42692744531,"ssf","mf.is","gamma","vonmises",158,"ssfOUT_7_2_1_BADGER","BADGER",1,0.5,7,"no effect"
"ssfOUT_7_2_1_BADGER.5",15.5996598975354,-1995.28268930269,2026.48200909777,"ssf","mf.is","gamma","vonmises",500,"ssfOUT_7_2_1_BADGER","BADGER",1,0.5,7,"no effect"
"ssfOUT_7_2_1_BADGER.6",15.7392083949722,-4732.06086356526,4763.53928035521,"ssf","mf.is","gamma","unif",5,"ssfOUT_7_2_1_BADGER","BADGER",1,0.5,7,"no effect"
"ssfOUT_7_2_1_BADGER.7",16.2876766337951,-3158.41686974966,3190.99222301725,"ssf","mf.is","gamma","unif",15,"ssfOUT_7_2_1_BADGER","BADGER",1,0.5,7,"no effect"
"ssfOUT_7_2_1_BADGER.8",16.5510469691862,-3179.11540444196,3212.21749838033,"ssf","mf.is","gamma","unif",50,"ssfOUT_7_2_1_BADGER","BADGER",1,0.5,7,"no effect"
"ssfOUT_7_2_1_BADGER.9",15.6550486203115,-2055.79807551604,2087.10817275667,"ssf","mf.is","gamma","unif",158,"ssfOUT_7_2_1_BADGER","BADGER",1,0.5,7,"no effect"
"ssfOUT_7_2_1_BADGER.10",15.5593159585901,-2053.30528762438,2084.42391954156,"ssf","mf.is","gamma","unif",500,"ssfOUT_7_2_1_BADGER","BADGER",1,0.5,7,"no effect"
"ssfOUT_7_2_1_BADGER.11",16.9294832958009,-4177.30917975808,4211.16814634968,"ssf","mf.is","exp","vonmises",5,"ssfOUT_7_2_1_BADGER","BADGER",1,0.5,7,"no effect"
"ssfOUT_7_2_1_BADGER.12",16.6744814275639,-3136.13865669605,3169.48761955118,"ssf","mf.is","exp","vonmises",15,"ssfOUT_7_2_1_BADGER","BADGER",1,0.5,7,"no effect"
"ssfOUT_7_2_1_BADGER.13",16.7196665486757,-3486.92707790526,3520.36641100261,"ssf","mf.is","exp","vonmises",50,"ssfOUT_7_2_1_BADGER","BADGER",1,0.5,7,"no effect"
"ssfOUT_7_2_1_BADGER.14",15.6518122955178,-2193.45377955792,2224.75740414896,"ssf","mf.is","exp","vonmises",158,"ssfOUT_7_2_1_BADGER","BADGER",1,0.5,7,"no effect"
"ssfOUT_7_2_1_BADGER.15",15.6438890248988,-2221.89013182119,2253.17790987099,"ssf","mf.is","exp","vonmises",500,"ssfOUT_7_2_1_BADGER","BADGER",1,0.5,7,"no effect"
"ssfOUT_7_2_1_BADGER.16",17.2234578651555,-4463.29724877796,4497.74416450827,"ssf","mf.is","exp","unif",5,"ssfOUT_7_2_1_BADGER","BADGER",1,0.5,7,"no effect"
"ssfOUT_7_2_1_BADGER.17",16.8320892350208,-3825.94646136538,3859.61063983542,"ssf","mf.is","exp","unif",15,"ssfOUT_7_2_1_BADGER","BADGER",1,0.5,7,"no effect"
"ssfOUT_7_2_1_BADGER.18",16.6297571797777,-3504.81838838783,3538.07790274738,"ssf","mf.is","exp","unif",50,"ssfOUT_7_2_1_BADGER","BADGER",1,0.5,7,"no effect"
"ssfOUT_7_2_1_BADGER.19",15.6888472750713,-2127.90949730021,2159.28719185035,"ssf","mf.is","exp","unif",158,"ssfOUT_7_2_1_BADGER","BADGER",1,0.5,7,"no effect"
"ssfOUT_7_2_1_BADGER.20",15.6844001090587,-2085.77855972883,2117.14735994695,"ssf","mf.is","exp","unif",500,"ssfOUT_7_2_1_BADGER","BADGER",1,0.5,7,"no effect"
"ssfOUT_7_2_1_BADGER.21",16.4105926015843,-5448.35305327575,5481.17423847892,"ssf","mf.ss","gamma","vonmises",5,"ssfOUT_7_2_1_BADGER","BADGER",1,0.5,7,"no effect"
"ssfOUT_7_2_1_BADGER.22",16.4561790694554,-4127.46488627821,4160.37724441712,"ssf","mf.ss","gamma","vonmises",15,"ssfOUT_7_2_1_BADGER","BADGER",1,0.5,7,"no effect"
"ssfOUT_7_2_1_BADGER.23",15.4925935302183,-2323.49755356158,2354.48274062202,"ssf","mf.ss","gamma","vonmises",50,"ssfOUT_7_2_1_BADGER","BADGER",1,0.5,7,"no effect"
"ssfOUT_7_2_1_BADGER.24",15.5128674219786,-2019.94091005031,2050.96664489426,"ssf","mf.ss","gamma","vonmises",158,"ssfOUT_7_2_1_BADGER","BADGER",1,0.5,7,"no effect"
"ssfOUT_7_2_1_BADGER.25",15.4921925779807,-1999.84119143781,2030.82557659377,"ssf","mf.ss","gamma","vonmises",500,"ssfOUT_7_2_1_BADGER","BADGER",1,0.5,7,"no effect"
"ssfOUT_7_2_1_BADGER.26",15.6904469304853,-4664.98710059109,4696.36799445206,"ssf","mf.ss","gamma","unif",5,"ssfOUT_7_2_1_BADGER","BADGER",1,0.5,7,"no effect"
"ssfOUT_7_2_1_BADGER.27",16.3858457468767,-3160.88629184119,3193.65798333494,"ssf","mf.ss","gamma","unif",15,"ssfOUT_7_2_1_BADGER","BADGER",1,0.5,7,"no effect"
"ssfOUT_7_2_1_BADGER.28",16.5041328623161,-3193.63553507593,3226.64380080056,"ssf","mf.ss","gamma","unif",50,"ssfOUT_7_2_1_BADGER","BADGER",1,0.5,7,"no effect"
"ssfOUT_7_2_1_BADGER.29",15.5294345007618,-2057.35004229225,2088.40891129377,"ssf","mf.ss","gamma","unif",158,"ssfOUT_7_2_1_BADGER","BADGER",1,0.5,7,"no effect"
"ssfOUT_7_2_1_BADGER.30",15.4741954581287,-2058.14827077185,2089.0966616881,"ssf","mf.ss","gamma","unif",500,"ssfOUT_7_2_1_BADGER","BADGER",1,0.5,7,"no effect"
"ssfOUT_7_2_1_BADGER.31",16.449848155751,-3844.91993026838,3877.81962657988,"ssf","mf.ss","exp","vonmises",5,"ssfOUT_7_2_1_BADGER","BADGER",1,0.5,7,"no effect"
"ssfOUT_7_2_1_BADGER.32",16.5707476161502,-3464.10912003912,3497.25061527142,"ssf","mf.ss","exp","vonmises",15,"ssfOUT_7_2_1_BADGER","BADGER",1,0.5,7,"no effect"
"ssfOUT_7_2_1_BADGER.33",16.4681097010663,-3570.38036100878,3603.31658041091,"ssf","mf.ss","exp","vonmises",50,"ssfOUT_7_2_1_BADGER","BADGER",1,0.5,7,"no effect"
"ssfOUT_7_2_1_BADGER.34",15.3827015737628,-2134.0999591087,2164.86536225623,"ssf","mf.ss","exp","vonmises",158,"ssfOUT_7_2_1_BADGER","BADGER",1,0.5,7,"no effect"
"ssfOUT_7_2_1_BADGER.35",15.4131550998671,-2167.90569177131,2198.73200197105,"ssf","mf.ss","exp","vonmises",500,"ssfOUT_7_2_1_BADGER","BADGER",1,0.5,7,"no effect"
"ssfOUT_7_2_1_BADGER.36",17.0708498449427,-4380.48570934947,4414.62740903936,"ssf","mf.ss","exp","unif",5,"ssfOUT_7_2_1_BADGER","BADGER",1,0.5,7,"no effect"
"ssfOUT_7_2_1_BADGER.37",16.7022816202298,-3699.01606758115,3732.42063082161,"ssf","mf.ss","exp","unif",15,"ssfOUT_7_2_1_BADGER","BADGER",1,0.5,7,"no effect"
"ssfOUT_7_2_1_BADGER.38",16.4602332602421,-3492.90048053013,3525.82094705062,"ssf","mf.ss","exp","unif",50,"ssfOUT_7_2_1_BADGER","BADGER",1,0.5,7,"no effect"
"ssfOUT_7_2_1_BADGER.39",15.4778273353243,-2058.4669521917,2089.42260686235,"ssf","mf.ss","exp","unif",158,"ssfOUT_7_2_1_BADGER","BADGER",1,0.5,7,"no effect"
"ssfOUT_7_2_1_BADGER.40",15.4457770120512,-2012.08219985398,2042.97375387808,"ssf","mf.ss","exp","unif",500,"ssfOUT_7_2_1_BADGER","BADGER",1,0.5,7,"no effect"
"ssfOUT_7_2_1_VULTURE.1",16.7074140988451,-3539.18126577825,3572.59609397594,"ssf","mf.is","gamma","vonmises",5,"ssfOUT_7_2_1_VULTURE","VULTURE",1,0.5,7,"no effect"
"ssfOUT_7_2_1_VULTURE.2",16.4192252825933,-3075.55069993896,3108.38915050415,"ssf","mf.is","gamma","vonmises",15,"ssfOUT_7_2_1_VULTURE","VULTURE",1,0.5,7,"no effect"
"ssfOUT_7_2_1_VULTURE.3",16.3365852622405,-3475.02349179692,3507.6966623214,"ssf","mf.is","gamma","vonmises",50,"ssfOUT_7_2_1_VULTURE","VULTURE",1,0.5,7,"no effect"
"ssfOUT_7_2_1_VULTURE.4",15.3238106602347,-2243.74921821837,2274.39683953884,"ssf","mf.is","gamma","vonmises",158,"ssfOUT_7_2_1_VULTURE","VULTURE",1,0.5,7,"no effect"
"ssfOUT_7_2_1_VULTURE.5",15.3308955470295,-2058.99120349016,2089.65299458422,"ssf","mf.is","gamma","vonmises",500,"ssfOUT_7_2_1_VULTURE","VULTURE",1,0.5,7,"no effect"
"ssfOUT_7_2_1_VULTURE.6",16.6458921786724,-5487.34557183046,5520.6373561878,"ssf","mf.is","gamma","unif",5,"ssfOUT_7_2_1_VULTURE","VULTURE",1,0.5,7,"no effect"
"ssfOUT_7_2_1_VULTURE.7",16.4285612531785,-3425.6604389868,3458.51756149316,"ssf","mf.is","gamma","unif",15,"ssfOUT_7_2_1_VULTURE","VULTURE",1,0.5,7,"no effect"
"ssfOUT_7_2_1_VULTURE.8",16.3371708343072,-3478.49029460601,3511.16463627463,"ssf","mf.is","gamma","unif",50,"ssfOUT_7_2_1_VULTURE","VULTURE",1,0.5,7,"no effect"
"ssfOUT_7_2_1_VULTURE.9",15.3535816478045,-2049.27321084695,2079.98037414256,"ssf","mf.is","gamma","unif",158,"ssfOUT_7_2_1_VULTURE","VULTURE",1,0.5,7,"no effect"
"ssfOUT_7_2_1_VULTURE.10",15.3504301600438,-2088.21071240311,2118.9115727232,"ssf","mf.is","gamma","unif",500,"ssfOUT_7_2_1_VULTURE","VULTURE",1,0.5,7,"no effect"
"ssfOUT_7_2_1_VULTURE.11",17.338752507972,-4933.67166147549,4968.34916649144,"ssf","mf.is","exp","vonmises",5,"ssfOUT_7_2_1_VULTURE","VULTURE",1,0.5,7,"no effect"
"ssfOUT_7_2_1_VULTURE.12",15.560150660808,-2873.14081980091,2904.26112112253,"ssf","mf.is","exp","vonmises",15,"ssfOUT_7_2_1_VULTURE","VULTURE",1,0.5,7,"no effect"
"ssfOUT_7_2_1_VULTURE.13",16.4724263222028,-3499.67922509113,3532.62407773554,"ssf","mf.is","exp","vonmises",50,"ssfOUT_7_2_1_VULTURE","VULTURE",1,0.5,7,"no effect"
"ssfOUT_7_2_1_VULTURE.14",16.3429638183176,-3130.39702377078,3163.08295140742,"ssf","mf.is","exp","vonmises",158,"ssfOUT_7_2_1_VULTURE","VULTURE",1,0.5,7,"no effect"
"ssfOUT_7_2_1_VULTURE.15",15.4325650712723,-2109.00793463596,2139.8730647785,"ssf","mf.is","exp","vonmises",500,"ssfOUT_7_2_1_VULTURE","VULTURE",1,0.5,7,"no effect"
"ssfOUT_7_2_1_VULTURE.16",16.8658353211713,-4530.21536006847,4563.94703071082,"ssf","mf.is","exp","unif",5,"ssfOUT_7_2_1_VULTURE","VULTURE",1,0.5,7,"no effect"
"ssfOUT_7_2_1_VULTURE.17",16.4882397229442,-3782.78077599861,3815.75725544449,"ssf","mf.is","exp","unif",15,"ssfOUT_7_2_1_VULTURE","VULTURE",1,0.5,7,"no effect"
"ssfOUT_7_2_1_VULTURE.18",15.4300508215375,-2566.53461678355,2597.39471842662,"ssf","mf.is","exp","unif",50,"ssfOUT_7_2_1_VULTURE","VULTURE",1,0.5,7,"no effect"
"ssfOUT_7_2_1_VULTURE.19",16.4621221834557,-3278.09410564144,3311.01835000835,"ssf","mf.is","exp","unif",158,"ssfOUT_7_2_1_VULTURE","VULTURE",1,0.5,7,"no effect"
"ssfOUT_7_2_1_VULTURE.20",15.3833957599754,-2086.79600051556,2117.56279203551,"ssf","mf.is","exp","unif",500,"ssfOUT_7_2_1_VULTURE","VULTURE",1,0.5,7,"no effect"
"ssfOUT_7_2_1_VULTURE.21",17.5510348439012,-5295.37393035805,5330.47600004585,"ssf","mf.ss","gamma","vonmises",5,"ssfOUT_7_2_1_VULTURE","VULTURE",1,0.5,7,"no effect"
"ssfOUT_7_2_1_VULTURE.22",16.3435909269686,-2973.46101167372,3006.14819352766,"ssf","mf.ss","gamma","vonmises",15,"ssfOUT_7_2_1_VULTURE","VULTURE",1,0.5,7,"no effect"
"ssfOUT_7_2_1_VULTURE.23",16.3023664601804,-3423.41657454642,3456.02130746678,"ssf","mf.ss","gamma","vonmises",50,"ssfOUT_7_2_1_VULTURE","VULTURE",1,0.5,7,"no effect"
"ssfOUT_7_2_1_VULTURE.24",15.2951244990111,-2218.7066244166,2249.29687341462,"ssf","mf.ss","gamma","vonmises",158,"ssfOUT_7_2_1_VULTURE","VULTURE",1,0.5,7,"no effect"
"ssfOUT_7_2_1_VULTURE.25",15.301231726854,-2044.53860017468,2075.14106362839,"ssf","mf.ss","gamma","vonmises",500,"ssfOUT_7_2_1_VULTURE","VULTURE",1,0.5,7,"no effect"
"ssfOUT_7_2_1_VULTURE.26",16.5547955030155,-5473.52151770841,5506.63110871444,"ssf","mf.ss","gamma","unif",5,"ssfOUT_7_2_1_VULTURE","VULTURE",1,0.5,7,"no effect"
"ssfOUT_7_2_1_VULTURE.27",16.3845558183977,-3416.12968923742,3448.89880087422,"ssf","mf.ss","gamma","unif",15,"ssfOUT_7_2_1_VULTURE","VULTURE",1,0.5,7,"no effect"
"ssfOUT_7_2_1_VULTURE.28",16.3033060142651,-3383.18465524955,3415.79126727808,"ssf","mf.ss","gamma","unif",50,"ssfOUT_7_2_1_VULTURE","VULTURE",1,0.5,7,"no effect"
"ssfOUT_7_2_1_VULTURE.29",15.316744272389,-2028.55939246242,2059.1928810072,"ssf","mf.ss","gamma","unif",158,"ssfOUT_7_2_1_VULTURE","VULTURE",1,0.5,7,"no effect"
"ssfOUT_7_2_1_VULTURE.30",15.3110162667877,-2069.55648780777,2100.17852034135,"ssf","mf.ss","gamma","unif",500,"ssfOUT_7_2_1_VULTURE","VULTURE",1,0.5,7,"no effect"
"ssfOUT_7_2_1_VULTURE.31",17.486403482435,-5193.02775636644,5228.00056333131,"ssf","mf.ss","exp","vonmises",5,"ssfOUT_7_2_1_VULTURE","VULTURE",1,0.5,7,"no effect"
"ssfOUT_7_2_1_VULTURE.32",15.3299551668608,-2786.755091752,2817.41500208572,"ssf","mf.ss","exp","vonmises",15,"ssfOUT_7_2_1_VULTURE","VULTURE",1,0.5,7,"no effect"
"ssfOUT_7_2_1_VULTURE.33",16.3260452330074,-3431.22611077226,3463.87820123828,"ssf","mf.ss","exp","vonmises",50,"ssfOUT_7_2_1_VULTURE","VULTURE",1,0.5,7,"no effect"
"ssfOUT_7_2_1_VULTURE.34",16.2727754494143,-3123.85927618929,3156.40482708811,"ssf","mf.ss","exp","vonmises",158,"ssfOUT_7_2_1_VULTURE","VULTURE",1,0.5,7,"no effect"
"ssfOUT_7_2_1_VULTURE.35",15.2810967379864,-2075.76626157589,2106.32845505186,"ssf","mf.ss","exp","vonmises",500,"ssfOUT_7_2_1_VULTURE","VULTURE",1,0.5,7,"no effect"
"ssfOUT_7_2_1_VULTURE.36",16.5077593088533,-4454.65438104551,4487.66989966322,"ssf","mf.ss","exp","unif",5,"ssfOUT_7_2_1_VULTURE","VULTURE",1,0.5,7,"no effect"
"ssfOUT_7_2_1_VULTURE.37",16.3287341392599,-3692.56686666136,3725.22433493988,"ssf","mf.ss","exp","unif",15,"ssfOUT_7_2_1_VULTURE","VULTURE",1,0.5,7,"no effect"
"ssfOUT_7_2_1_VULTURE.38",15.2778986840003,-2564.33291432294,2594.88871169095,"ssf","mf.ss","exp","unif",50,"ssfOUT_7_2_1_VULTURE","VULTURE",1,0.5,7,"no effect"
"ssfOUT_7_2_1_VULTURE.39",16.3015813244656,-3232.38837644728,3264.99153909622,"ssf","mf.ss","exp","unif",158,"ssfOUT_7_2_1_VULTURE","VULTURE",1,0.5,7,"no effect"
"ssfOUT_7_2_1_VULTURE.40",15.2652305410742,-2057.0285864042,2087.55904748635,"ssf","mf.ss","exp","unif",500,"ssfOUT_7_2_1_VULTURE","VULTURE",1,0.5,7,"no effect"
"ssfOUT_7_2_1_KINGCOBRA.1",NA,NA,NA,"ssf","mf.is","gamma","vonmises",5,"ssfOUT_7_2_1_KINGCOBRA","KINGCOBRA",1,0.5,7,NA
"ssfOUT_7_2_1_KINGCOBRA.2",15.3980084655636,-3288.66237504262,3319.45839197375,"ssf","mf.is","gamma","vonmises",15,"ssfOUT_7_2_1_KINGCOBRA","KINGCOBRA",1,0.5,7,"no effect"
"ssfOUT_7_2_1_KINGCOBRA.3",14.5326945209463,-2366.21710170517,2395.28249074706,"ssf","mf.is","gamma","vonmises",50,"ssfOUT_7_2_1_KINGCOBRA","KINGCOBRA",1,0.5,7,"no effect"
"ssfOUT_7_2_1_KINGCOBRA.4",14.307845560175,-2343.81995039879,2372.43564151914,"ssf","mf.is","gamma","vonmises",158,"ssfOUT_7_2_1_KINGCOBRA","KINGCOBRA",1,0.5,7,"no effect"
"ssfOUT_7_2_1_KINGCOBRA.5",14.3978272117823,-2101.62129619001,2130.41695061358,"ssf","mf.is","gamma","vonmises",500,"ssfOUT_7_2_1_KINGCOBRA","KINGCOBRA",1,0.5,7,"no effect"
"ssfOUT_7_2_1_KINGCOBRA.6",15.2944496171775,-4856.73360552226,4887.32250475661,"ssf","mf.is","gamma","unif",5,"ssfOUT_7_2_1_KINGCOBRA","KINGCOBRA",1,0.5,7,"no effect"
"ssfOUT_7_2_1_KINGCOBRA.7",15.5284786543289,-3095.47994694637,3126.53690425503,"ssf","mf.is","gamma","unif",15,"ssfOUT_7_2_1_KINGCOBRA","KINGCOBRA",1,0.5,7,"no effect"
"ssfOUT_7_2_1_KINGCOBRA.8",14.3993075354454,-2509.81976813605,2538.61838320694,"ssf","mf.is","gamma","unif",50,"ssfOUT_7_2_1_KINGCOBRA","KINGCOBRA",1,0.5,7,"no effect"
"ssfOUT_7_2_1_KINGCOBRA.9",14.3004532853557,-2496.87227401666,2525.47318058737,"ssf","mf.is","gamma","unif",158,"ssfOUT_7_2_1_KINGCOBRA","KINGCOBRA",1,0.5,7,"no effect"
"ssfOUT_7_2_1_KINGCOBRA.10",14.4019153459788,-2219.00171702565,2247.8055477176,"ssf","mf.is","gamma","unif",500,"ssfOUT_7_2_1_KINGCOBRA","KINGCOBRA",1,0.5,7,"no effect"
"ssfOUT_7_2_1_KINGCOBRA.11",16.8644564624345,-4010.78173348509,4044.51064640996,"ssf","mf.is","exp","vonmises",5,"ssfOUT_7_2_1_KINGCOBRA","KINGCOBRA",1,0.5,7,"no effect"
"ssfOUT_7_2_1_KINGCOBRA.12",16.2989919270503,-4098.58843278576,4131.18641663986,"ssf","mf.is","exp","vonmises",15,"ssfOUT_7_2_1_KINGCOBRA","KINGCOBRA",1,0.5,7,"no effect"
"ssfOUT_7_2_1_KINGCOBRA.13",16.1544050209609,-4107.33839209388,4139.6472021358,"ssf","mf.is","exp","vonmises",50,"ssfOUT_7_2_1_KINGCOBRA","KINGCOBRA",1,0.5,7,"no effect"
"ssfOUT_7_2_1_KINGCOBRA.14",15.1868782006244,-3585.32116466802,3615.69492106927,"ssf","mf.is","exp","vonmises",158,"ssfOUT_7_2_1_KINGCOBRA","KINGCOBRA",1,0.5,7,"no effect"
"ssfOUT_7_2_1_KINGCOBRA.15",14.3998976622725,-2556.0837311445,2584.88352646904,"ssf","mf.is","exp","vonmises",500,"ssfOUT_7_2_1_KINGCOBRA","KINGCOBRA",1,0.5,7,"no effect"
"ssfOUT_7_2_1_KINGCOBRA.16",18.1756791718698,-6413.18781174494,6449.53917008868,"ssf","mf.is","exp","unif",5,"ssfOUT_7_2_1_KINGCOBRA","KINGCOBRA",1,0.5,7,"no effect"
"ssfOUT_7_2_1_KINGCOBRA.17",13.9306766183022,-4098.54102039187,4126.40237362847,"ssf","mf.is","exp","unif",15,"ssfOUT_7_2_1_KINGCOBRA","KINGCOBRA",1,0.5,7,"no effect"
"ssfOUT_7_2_1_KINGCOBRA.18",15.7003683032368,-2693.10905658962,2724.5097931961,"ssf","mf.is","exp","unif",50,"ssfOUT_7_2_1_KINGCOBRA","KINGCOBRA",1,0.5,7,"no effect"
"ssfOUT_7_2_1_KINGCOBRA.19",15.1806011509099,-3284.23116457836,3314.59236688018,"ssf","mf.is","exp","unif",158,"ssfOUT_7_2_1_KINGCOBRA","KINGCOBRA",1,0.5,7,"no effect"
"ssfOUT_7_2_1_KINGCOBRA.20",15.1843460988709,-2933.00547699372,2963.37416919146,"ssf","mf.is","exp","unif",500,"ssfOUT_7_2_1_KINGCOBRA","KINGCOBRA",1,0.5,7,"no effect"
"ssfOUT_7_2_1_KINGCOBRA.21",15.533374406226,-4749.55488551785,4780.6216343303,"ssf","mf.ss","gamma","vonmises",5,"ssfOUT_7_2_1_KINGCOBRA","KINGCOBRA",1,0.5,7,"no effect"
"ssfOUT_7_2_1_KINGCOBRA.22",17.1591547514067,-3703.73410671379,3738.0524162166,"ssf","mf.ss","gamma","vonmises",15,"ssfOUT_7_2_1_KINGCOBRA","KINGCOBRA",1,0.5,7,"no effect"
"ssfOUT_7_2_1_KINGCOBRA.23",16.2442757698144,-2410.45200307215,2442.94055461177,"ssf","mf.ss","gamma","vonmises",50,"ssfOUT_7_2_1_KINGCOBRA","KINGCOBRA",1,0.5,7,"no effect"
"ssfOUT_7_2_1_KINGCOBRA.24",16.4424673435286,-2361.77073639015,2394.65567107721,"ssf","mf.ss","gamma","vonmises",158,"ssfOUT_7_2_1_KINGCOBRA","KINGCOBRA",1,0.5,7,"no effect"
"ssfOUT_7_2_1_KINGCOBRA.25",16.6127810346479,-2213.82334493857,2247.04890700787,"ssf","mf.ss","gamma","vonmises",500,"ssfOUT_7_2_1_KINGCOBRA","KINGCOBRA",1,0.5,7,"no effect"
"ssfOUT_7_2_1_KINGCOBRA.26",16.8150142809975,-4719.59102111302,4753.22104967501,"ssf","mf.ss","gamma","unif",5,"ssfOUT_7_2_1_KINGCOBRA","KINGCOBRA",1,0.5,7,"no effect"
"ssfOUT_7_2_1_KINGCOBRA.27",16.9461409749835,-3682.7831900197,3716.67547196966,"ssf","mf.ss","gamma","unif",15,"ssfOUT_7_2_1_KINGCOBRA","KINGCOBRA",1,0.5,7,"no effect"
"ssfOUT_7_2_1_KINGCOBRA.28",16.5077306117185,-2459.1718328869,2492.18729411033,"ssf","mf.ss","gamma","unif",50,"ssfOUT_7_2_1_KINGCOBRA","KINGCOBRA",1,0.5,7,"no effect"
"ssfOUT_7_2_1_KINGCOBRA.29",16.6697900036318,-2412.74816535951,2446.08774536678,"ssf","mf.ss","gamma","unif",158,"ssfOUT_7_2_1_KINGCOBRA","KINGCOBRA",1,0.5,7,"no effect"
"ssfOUT_7_2_1_KINGCOBRA.30",16.6258316740689,-2270.85454225139,2304.10620559953,"ssf","mf.ss","gamma","unif",500,"ssfOUT_7_2_1_KINGCOBRA","KINGCOBRA",1,0.5,7,"no effect"
"ssfOUT_7_2_1_KINGCOBRA.31",16.9515811293081,-4506.31791060351,4540.22107286212,"ssf","mf.ss","exp","vonmises",5,"ssfOUT_7_2_1_KINGCOBRA","KINGCOBRA",1,0.5,7,"no effect"
"ssfOUT_7_2_1_KINGCOBRA.32",16.6102785968916,-4334.86373880298,4368.08429599676,"ssf","mf.ss","exp","vonmises",15,"ssfOUT_7_2_1_KINGCOBRA","KINGCOBRA",1,0.5,7,"no effect"
"ssfOUT_7_2_1_KINGCOBRA.33",16.0678098689512,-2465.9407040515,2498.07632378941,"ssf","mf.ss","exp","vonmises",50,"ssfOUT_7_2_1_KINGCOBRA","KINGCOBRA",1,0.5,7,"no effect"
"ssfOUT_7_2_1_KINGCOBRA.34",16.1337600224495,-2481.50150129285,2513.76902133775,"ssf","mf.ss","exp","vonmises",158,"ssfOUT_7_2_1_KINGCOBRA","KINGCOBRA",1,0.5,7,"no effect"
"ssfOUT_7_2_1_KINGCOBRA.35",16.2124884815777,-2488.72013132477,2521.14510828793,"ssf","mf.ss","exp","vonmises",500,"ssfOUT_7_2_1_KINGCOBRA","KINGCOBRA",1,0.5,7,"no effect"
"ssfOUT_7_2_1_KINGCOBRA.36",17.776451168288,-3821.85798622336,3857.41088855994,"ssf","mf.ss","exp","unif",5,"ssfOUT_7_2_1_KINGCOBRA","KINGCOBRA",1,0.5,7,"no effect"
"ssfOUT_7_2_1_KINGCOBRA.37",17.4611268271407,-4545.95546526972,4580.877718924,"ssf","mf.ss","exp","unif",15,"ssfOUT_7_2_1_KINGCOBRA","KINGCOBRA",1,0.5,7,"no effect"
"ssfOUT_7_2_1_KINGCOBRA.38",16.0406050464125,-2681.16725345293,2713.24846354575,"ssf","mf.ss","exp","unif",50,"ssfOUT_7_2_1_KINGCOBRA","KINGCOBRA",1,0.5,7,"no effect"
"ssfOUT_7_2_1_KINGCOBRA.39",16.2938279089448,-2391.07916644717,2423.66682226506,"ssf","mf.ss","exp","unif",158,"ssfOUT_7_2_1_KINGCOBRA","KINGCOBRA",1,0.5,7,"no effect"
"ssfOUT_7_2_1_KINGCOBRA.40",16.2722227117784,-2287.67822440479,2320.22266982835,"ssf","mf.ss","exp","unif",500,"ssfOUT_7_2_1_KINGCOBRA","KINGCOBRA",1,0.5,7,"no effect"
"ssfOUT_7_2_2_BADGER.1",1.41992137577351,0.270361029354832,2.5694817221922,"ssf","mf.is","gamma","vonmises",5,"ssfOUT_7_2_2_BADGER","BADGER",2,0.5,7,"preference"
"ssfOUT_7_2_2_BADGER.2",1.19372787197429,0.0881252199918001,2.29933052395679,"ssf","mf.is","gamma","vonmises",15,"ssfOUT_7_2_2_BADGER","BADGER",2,0.5,7,"preference"
"ssfOUT_7_2_2_BADGER.3",1.22986808889299,0.100978610985823,2.35875756680015,"ssf","mf.is","gamma","vonmises",50,"ssfOUT_7_2_2_BADGER","BADGER",2,0.5,7,"preference"
"ssfOUT_7_2_2_BADGER.4",1.30546829394373,0.171584802919247,2.43935178496822,"ssf","mf.is","gamma","vonmises",158,"ssfOUT_7_2_2_BADGER","BADGER",2,0.5,7,"preference"
"ssfOUT_7_2_2_BADGER.5",1.39230125884999,0.262336521485118,2.52226599621487,"ssf","mf.is","gamma","vonmises",500,"ssfOUT_7_2_2_BADGER","BADGER",2,0.5,7,"preference"
"ssfOUT_7_2_2_BADGER.6",1.10044153381462,-0.0752073294779831,2.27609039710722,"ssf","mf.is","gamma","unif",5,"ssfOUT_7_2_2_BADGER","BADGER",2,0.5,7,"no effect"
"ssfOUT_7_2_2_BADGER.7",1.24968524274586,0.119302809238206,2.38006767625351,"ssf","mf.is","gamma","unif",15,"ssfOUT_7_2_2_BADGER","BADGER",2,0.5,7,"preference"
"ssfOUT_7_2_2_BADGER.8",1.38677258925834,0.256663711542179,2.5168814669745,"ssf","mf.is","gamma","unif",50,"ssfOUT_7_2_2_BADGER","BADGER",2,0.5,7,"preference"
"ssfOUT_7_2_2_BADGER.9",1.45009232063873,0.28689937823853,2.61328526303893,"ssf","mf.is","gamma","unif",158,"ssfOUT_7_2_2_BADGER","BADGER",2,0.5,7,"preference"
"ssfOUT_7_2_2_BADGER.10",1.35550359551302,0.238893551291246,2.4721136397348,"ssf","mf.is","gamma","unif",500,"ssfOUT_7_2_2_BADGER","BADGER",2,0.5,7,"preference"
"ssfOUT_7_2_2_BADGER.11",1.58382197141127,0.461740274504778,2.70590366831776,"ssf","mf.is","exp","vonmises",5,"ssfOUT_7_2_2_BADGER","BADGER",2,0.5,7,"preference"
"ssfOUT_7_2_2_BADGER.12",1.24540170881249,0.110626017885618,2.38017739973936,"ssf","mf.is","exp","vonmises",15,"ssfOUT_7_2_2_BADGER","BADGER",2,0.5,7,"preference"
"ssfOUT_7_2_2_BADGER.13",1.4087484586051,0.28887792853949,2.52861898867072,"ssf","mf.is","exp","vonmises",50,"ssfOUT_7_2_2_BADGER","BADGER",2,0.5,7,"preference"
"ssfOUT_7_2_2_BADGER.14",1.19197923762137,0.0810177512543351,2.3029407239884,"ssf","mf.is","exp","vonmises",158,"ssfOUT_7_2_2_BADGER","BADGER",2,0.5,7,"preference"
"ssfOUT_7_2_2_BADGER.15",1.31992317952697,0.205929941745791,2.43391641730815,"ssf","mf.is","exp","vonmises",500,"ssfOUT_7_2_2_BADGER","BADGER",2,0.5,7,"preference"
"ssfOUT_7_2_2_BADGER.16",1.33135505460955,0.19851367399552,2.46419643522358,"ssf","mf.is","exp","unif",5,"ssfOUT_7_2_2_BADGER","BADGER",2,0.5,7,"preference"
"ssfOUT_7_2_2_BADGER.17",0.725335103420651,-0.428591760590026,1.87926196743133,"ssf","mf.is","exp","unif",15,"ssfOUT_7_2_2_BADGER","BADGER",2,0.5,7,"no effect"
"ssfOUT_7_2_2_BADGER.18",1.219386252326,0.112592732862124,2.32617977178989,"ssf","mf.is","exp","unif",50,"ssfOUT_7_2_2_BADGER","BADGER",2,0.5,7,"preference"
"ssfOUT_7_2_2_BADGER.19",1.51014880379803,0.369617948554512,2.65067965904154,"ssf","mf.is","exp","unif",158,"ssfOUT_7_2_2_BADGER","BADGER",2,0.5,7,"preference"
"ssfOUT_7_2_2_BADGER.20",1.35964295251139,0.224402367507296,2.49488353751549,"ssf","mf.is","exp","unif",500,"ssfOUT_7_2_2_BADGER","BADGER",2,0.5,7,"preference"
"ssfOUT_7_2_2_BADGER.21",1.47221810228295,0.342900168950465,2.60153603561543,"ssf","mf.ss","gamma","vonmises",5,"ssfOUT_7_2_2_BADGER","BADGER",2,0.5,7,"preference"
"ssfOUT_7_2_2_BADGER.22",1.3467044020206,0.244489732040237,2.44891907200096,"ssf","mf.ss","gamma","vonmises",15,"ssfOUT_7_2_2_BADGER","BADGER",2,0.5,7,"preference"
"ssfOUT_7_2_2_BADGER.23",1.27280461259161,0.135972538308516,2.4096366868747,"ssf","mf.ss","gamma","vonmises",50,"ssfOUT_7_2_2_BADGER","BADGER",2,0.5,7,"preference"
"ssfOUT_7_2_2_BADGER.24",1.37653374110161,0.241467180605271,2.51160030159794,"ssf","mf.ss","gamma","vonmises",158,"ssfOUT_7_2_2_BADGER","BADGER",2,0.5,7,"preference"
"ssfOUT_7_2_2_BADGER.25",1.44774913311826,0.314304378284728,2.58119388795179,"ssf","mf.ss","gamma","vonmises",500,"ssfOUT_7_2_2_BADGER","BADGER",2,0.5,7,"preference"
"ssfOUT_7_2_2_BADGER.26",1.06873298675369,-0.106423098246268,2.24388907175365,"ssf","mf.ss","gamma","unif",5,"ssfOUT_7_2_2_BADGER","BADGER",2,0.5,7,"no effect"
"ssfOUT_7_2_2_BADGER.27",1.30039971740156,0.172140862183183,2.42865857261993,"ssf","mf.ss","gamma","unif",15,"ssfOUT_7_2_2_BADGER","BADGER",2,0.5,7,"preference"
"ssfOUT_7_2_2_BADGER.28",1.45439711601596,0.323402381500534,2.58539185053138,"ssf","mf.ss","gamma","unif",50,"ssfOUT_7_2_2_BADGER","BADGER",2,0.5,7,"preference"
"ssfOUT_7_2_2_BADGER.29",1.51840469911595,0.356350103029599,2.6804592952023,"ssf","mf.ss","gamma","unif",158,"ssfOUT_7_2_2_BADGER","BADGER",2,0.5,7,"preference"
"ssfOUT_7_2_2_BADGER.30",1.41465097991502,0.292584854773987,2.53671710505605,"ssf","mf.ss","gamma","unif",500,"ssfOUT_7_2_2_BADGER","BADGER",2,0.5,7,"preference"
"ssfOUT_7_2_2_BADGER.31",1.81113905301371,0.692881612595592,2.92939649343183,"ssf","mf.ss","exp","vonmises",5,"ssfOUT_7_2_2_BADGER","BADGER",2,0.5,7,"preference"
"ssfOUT_7_2_2_BADGER.32",1.65844478063988,0.520975663487922,2.79591389779184,"ssf","mf.ss","exp","vonmises",15,"ssfOUT_7_2_2_BADGER","BADGER",2,0.5,7,"preference"
"ssfOUT_7_2_2_BADGER.33",1.5740856280399,0.449151387133995,2.69901986894581,"ssf","mf.ss","exp","vonmises",50,"ssfOUT_7_2_2_BADGER","BADGER",2,0.5,7,"preference"
"ssfOUT_7_2_2_BADGER.34",1.52547201264155,0.420326743930346,2.63061728135275,"ssf","mf.ss","exp","vonmises",158,"ssfOUT_7_2_2_BADGER","BADGER",2,0.5,7,"preference"
"ssfOUT_7_2_2_BADGER.35",1.53934738063334,0.432984422262196,2.64571033900448,"ssf","mf.ss","exp","vonmises",500,"ssfOUT_7_2_2_BADGER","BADGER",2,0.5,7,"preference"
"ssfOUT_7_2_2_BADGER.36",1.48593391434212,0.369473993238367,2.60239383544588,"ssf","mf.ss","exp","unif",5,"ssfOUT_7_2_2_BADGER","BADGER",2,0.5,7,"preference"
"ssfOUT_7_2_2_BADGER.37",1.19534606256612,0.0705940308737598,2.32009809425848,"ssf","mf.ss","exp","unif",15,"ssfOUT_7_2_2_BADGER","BADGER",2,0.5,7,"preference"
"ssfOUT_7_2_2_BADGER.38",1.43816812760806,0.329748707943257,2.54658754727286,"ssf","mf.ss","exp","unif",50,"ssfOUT_7_2_2_BADGER","BADGER",2,0.5,7,"preference"
"ssfOUT_7_2_2_BADGER.39",1.66495800509373,0.546567339064606,2.78334867112285,"ssf","mf.ss","exp","unif",158,"ssfOUT_7_2_2_BADGER","BADGER",2,0.5,7,"preference"
"ssfOUT_7_2_2_BADGER.40",1.54119731886552,0.426399196078241,2.6559954416528,"ssf","mf.ss","exp","unif",500,"ssfOUT_7_2_2_BADGER","BADGER",2,0.5,7,"preference"
"ssfOUT_7_2_2_VULTURE.1",-0.248061669282706,-1.06336055470713,0.567237216141716,"ssf","mf.is","gamma","vonmises",5,"ssfOUT_7_2_2_VULTURE","VULTURE",2,0.5,7,"no effect"
"ssfOUT_7_2_2_VULTURE.2",-0.275639572441164,-1.0499197632835,0.498640618401171,"ssf","mf.is","gamma","vonmises",15,"ssfOUT_7_2_2_VULTURE","VULTURE",2,0.5,7,"no effect"
"ssfOUT_7_2_2_VULTURE.3",-0.312881409141725,-1.05168392313016,0.425921104846714,"ssf","mf.is","gamma","vonmises",50,"ssfOUT_7_2_2_VULTURE","VULTURE",2,0.5,7,"no effect"
"ssfOUT_7_2_2_VULTURE.4",-0.480120785480597,-1.21412882854489,0.253887257583699,"ssf","mf.is","gamma","vonmises",158,"ssfOUT_7_2_2_VULTURE","VULTURE",2,0.5,7,"no effect"
"ssfOUT_7_2_2_VULTURE.5",-0.495247713913373,-1.22815003180368,0.237654603976933,"ssf","mf.is","gamma","vonmises",500,"ssfOUT_7_2_2_VULTURE","VULTURE",2,0.5,7,"no effect"
"ssfOUT_7_2_2_VULTURE.6",-0.14091122133204,-0.949374693270379,0.6675522506063,"ssf","mf.is","gamma","unif",5,"ssfOUT_7_2_2_VULTURE","VULTURE",2,0.5,7,"no effect"
"ssfOUT_7_2_2_VULTURE.7",-0.305256330548304,-1.08412828333988,0.473615622243275,"ssf","mf.is","gamma","unif",15,"ssfOUT_7_2_2_VULTURE","VULTURE",2,0.5,7,"no effect"
"ssfOUT_7_2_2_VULTURE.8",-0.110540490480195,-0.849353149448521,0.62827216848813,"ssf","mf.is","gamma","unif",50,"ssfOUT_7_2_2_VULTURE","VULTURE",2,0.5,7,"no effect"
"ssfOUT_7_2_2_VULTURE.9",-0.318104274847892,-1.05253218740089,0.416323637705103,"ssf","mf.is","gamma","unif",158,"ssfOUT_7_2_2_VULTURE","VULTURE",2,0.5,7,"no effect"
"ssfOUT_7_2_2_VULTURE.10",-0.423705813884151,-1.15581780042562,0.308406172657323,"ssf","mf.is","gamma","unif",500,"ssfOUT_7_2_2_VULTURE","VULTURE",2,0.5,7,"no effect"
"ssfOUT_7_2_2_VULTURE.11",-1.14104514565002,-2.23252981075321,-0.0495604805468264,"ssf","mf.is","exp","vonmises",5,"ssfOUT_7_2_2_VULTURE","VULTURE",2,0.5,7,"avoidance"
"ssfOUT_7_2_2_VULTURE.12",-0.875499665494555,-1.68799157499231,-0.0630077559968024,"ssf","mf.is","exp","vonmises",15,"ssfOUT_7_2_2_VULTURE","VULTURE",2,0.5,7,"avoidance"
"ssfOUT_7_2_2_VULTURE.13",-0.399720730552881,-1.14187073498424,0.342429273878475,"ssf","mf.is","exp","vonmises",50,"ssfOUT_7_2_2_VULTURE","VULTURE",2,0.5,7,"no effect"
"ssfOUT_7_2_2_VULTURE.14",-0.370329397614079,-1.10577704010492,0.365118244876762,"ssf","mf.is","exp","vonmises",158,"ssfOUT_7_2_2_VULTURE","VULTURE",2,0.5,7,"no effect"
"ssfOUT_7_2_2_VULTURE.15",-0.392636451881016,-1.12498595912243,0.339713055360395,"ssf","mf.is","exp","vonmises",500,"ssfOUT_7_2_2_VULTURE","VULTURE",2,0.5,7,"no effect"
"ssfOUT_7_2_2_VULTURE.16",-1.10563105024263,-2.0883596448332,-0.122902455652059,"ssf","mf.is","exp","unif",5,"ssfOUT_7_2_2_VULTURE","VULTURE",2,0.5,7,"avoidance"
"ssfOUT_7_2_2_VULTURE.17",-0.455970162370866,-1.23357020697403,0.321629882232297,"ssf","mf.is","exp","unif",15,"ssfOUT_7_2_2_VULTURE","VULTURE",2,0.5,7,"no effect"
"ssfOUT_7_2_2_VULTURE.18",-0.722169708698898,-1.47220948326155,0.0278700658637522,"ssf","mf.is","exp","unif",50,"ssfOUT_7_2_2_VULTURE","VULTURE",2,0.5,7,"no effect"
"ssfOUT_7_2_2_VULTURE.19",-0.480365781591742,-1.21295136369887,0.252219800515385,"ssf","mf.is","exp","unif",158,"ssfOUT_7_2_2_VULTURE","VULTURE",2,0.5,7,"no effect"
"ssfOUT_7_2_2_VULTURE.20",-0.443988762370153,-1.17665165993323,0.288674135192923,"ssf","mf.is","exp","unif",500,"ssfOUT_7_2_2_VULTURE","VULTURE",2,0.5,7,"no effect"
"ssfOUT_7_2_2_VULTURE.21",-0.252031992597989,-1.06486982842657,0.560805843230592,"ssf","mf.ss","gamma","vonmises",5,"ssfOUT_7_2_2_VULTURE","VULTURE",2,0.5,7,"no effect"
"ssfOUT_7_2_2_VULTURE.22",-0.299103530392423,-1.07104009638298,0.472833035598129,"ssf","mf.ss","gamma","vonmises",15,"ssfOUT_7_2_2_VULTURE","VULTURE",2,0.5,7,"no effect"
"ssfOUT_7_2_2_VULTURE.23",-0.321341092969194,-1.05943690219513,0.41675471625674,"ssf","mf.ss","gamma","vonmises",50,"ssfOUT_7_2_2_VULTURE","VULTURE",2,0.5,7,"no effect"
"ssfOUT_7_2_2_VULTURE.24",-0.48103216188279,-1.2137965948141,0.25173227104852,"ssf","mf.ss","gamma","vonmises",158,"ssfOUT_7_2_2_VULTURE","VULTURE",2,0.5,7,"no effect"
"ssfOUT_7_2_2_VULTURE.25",-0.501330578903839,-1.23333283826494,0.230671680457265,"ssf","mf.ss","gamma","vonmises",500,"ssfOUT_7_2_2_VULTURE","VULTURE",2,0.5,7,"no effect"
"ssfOUT_7_2_2_VULTURE.26",-0.102003369544581,-0.908054420736125,0.704047681646964,"ssf","mf.ss","gamma","unif",5,"ssfOUT_7_2_2_VULTURE","VULTURE",2,0.5,7,"no effect"
"ssfOUT_7_2_2_VULTURE.27",-0.314917977743712,-1.09449494234852,0.464658986861095,"ssf","mf.ss","gamma","unif",15,"ssfOUT_7_2_2_VULTURE","VULTURE",2,0.5,7,"no effect"
"ssfOUT_7_2_2_VULTURE.28",-0.126509596839898,-0.865038523138343,0.612019329458548,"ssf","mf.ss","gamma","unif",50,"ssfOUT_7_2_2_VULTURE","VULTURE",2,0.5,7,"no effect"
"ssfOUT_7_2_2_VULTURE.29",-0.335407185120308,-1.06912966934196,0.39831529910134,"ssf","mf.ss","gamma","unif",158,"ssfOUT_7_2_2_VULTURE","VULTURE",2,0.5,7,"no effect"
"ssfOUT_7_2_2_VULTURE.30",-0.435960741913964,-1.16720519608893,0.295283712261003,"ssf","mf.ss","gamma","unif",500,"ssfOUT_7_2_2_VULTURE","VULTURE",2,0.5,7,"no effect"
"ssfOUT_7_2_2_VULTURE.31",-1.1179894219067,-2.15174858362274,-0.0842302601906613,"ssf","mf.ss","exp","vonmises",5,"ssfOUT_7_2_2_VULTURE","VULTURE",2,0.5,7,"avoidance"
"ssfOUT_7_2_2_VULTURE.32",-0.663128539973918,-1.47836749448443,0.152110414536591,"ssf","mf.ss","exp","vonmises",15,"ssfOUT_7_2_2_VULTURE","VULTURE",2,0.5,7,"no effect"
"ssfOUT_7_2_2_VULTURE.33",-0.450191674347929,-1.18926319369325,0.288879844997396,"ssf","mf.ss","exp","vonmises",50,"ssfOUT_7_2_2_VULTURE","VULTURE",2,0.5,7,"no effect"
"ssfOUT_7_2_2_VULTURE.34",-0.367922606611999,-1.10698157230022,0.371136359076225,"ssf","mf.ss","exp","vonmises",158,"ssfOUT_7_2_2_VULTURE","VULTURE",2,0.5,7,"no effect"
"ssfOUT_7_2_2_VULTURE.35",-0.402370419362769,-1.14070725551054,0.335966416785,"ssf","mf.ss","exp","vonmises",500,"ssfOUT_7_2_2_VULTURE","VULTURE",2,0.5,7,"no effect"
"ssfOUT_7_2_2_VULTURE.36",-0.861420604480539,-1.74257905863384,0.0197378496727586,"ssf","mf.ss","exp","unif",5,"ssfOUT_7_2_2_VULTURE","VULTURE",2,0.5,7,"no effect"
"ssfOUT_7_2_2_VULTURE.37",-0.523549922195711,-1.29254265423387,0.245442809842443,"ssf","mf.ss","exp","unif",15,"ssfOUT_7_2_2_VULTURE","VULTURE",2,0.5,7,"no effect"
"ssfOUT_7_2_2_VULTURE.38",-0.768861212950993,-1.52343887802601,-0.0142835478759729,"ssf","mf.ss","exp","unif",50,"ssfOUT_7_2_2_VULTURE","VULTURE",2,0.5,7,"avoidance"
"ssfOUT_7_2_2_VULTURE.39",-0.488005742247757,-1.22207383783291,0.246062353337391,"ssf","mf.ss","exp","unif",158,"ssfOUT_7_2_2_VULTURE","VULTURE",2,0.5,7,"no effect"
"ssfOUT_7_2_2_VULTURE.40",-0.448801892846051,-1.18689851936693,0.289294733674828,"ssf","mf.ss","exp","unif",500,"ssfOUT_7_2_2_VULTURE","VULTURE",2,0.5,7,"no effect"
"ssfOUT_7_2_2_KINGCOBRA.1",0.743967970128214,-0.455630495048207,1.94356643530463,"ssf","mf.is","gamma","vonmises",5,"ssfOUT_7_2_2_KINGCOBRA","KINGCOBRA",2,0.5,7,"no effect"
"ssfOUT_7_2_2_KINGCOBRA.2",-0.101739327386715,-1.74864944045715,1.54517078568372,"ssf","mf.is","gamma","vonmises",15,"ssfOUT_7_2_2_KINGCOBRA","KINGCOBRA",2,0.5,7,"no effect"
"ssfOUT_7_2_2_KINGCOBRA.3",0.203565141714698,-0.937405484660085,1.34453576808948,"ssf","mf.is","gamma","vonmises",50,"ssfOUT_7_2_2_KINGCOBRA","KINGCOBRA",2,0.5,7,"no effect"
"ssfOUT_7_2_2_KINGCOBRA.4",0.0860778833154911,-1.10931667717614,1.28147244380713,"ssf","mf.is","gamma","vonmises",158,"ssfOUT_7_2_2_KINGCOBRA","KINGCOBRA",2,0.5,7,"no effect"
"ssfOUT_7_2_2_KINGCOBRA.5",0.0378505748763291,-1.2285567155884,1.30425786534106,"ssf","mf.is","gamma","vonmises",500,"ssfOUT_7_2_2_KINGCOBRA","KINGCOBRA",2,0.5,7,"no effect"
"ssfOUT_7_2_2_KINGCOBRA.6",-0.325746150328763,-1.60094620982388,0.949453909166359,"ssf","mf.is","gamma","unif",5,"ssfOUT_7_2_2_KINGCOBRA","KINGCOBRA",2,0.5,7,"no effect"
"ssfOUT_7_2_2_KINGCOBRA.7",0.289819140799478,-0.877908731222004,1.45754701282096,"ssf","mf.is","gamma","unif",15,"ssfOUT_7_2_2_KINGCOBRA","KINGCOBRA",2,0.5,7,"no effect"
"ssfOUT_7_2_2_KINGCOBRA.8",-0.303339654540355,-1.53888163771077,0.932202328630061,"ssf","mf.is","gamma","unif",50,"ssfOUT_7_2_2_KINGCOBRA","KINGCOBRA",2,0.5,7,"no effect"
"ssfOUT_7_2_2_KINGCOBRA.9",-0.0467252094661086,-1.298548639593,1.20509822066079,"ssf","mf.is","gamma","unif",158,"ssfOUT_7_2_2_KINGCOBRA","KINGCOBRA",2,0.5,7,"no effect"
"ssfOUT_7_2_2_KINGCOBRA.10",0.0458783271133966,-1.17709336771597,1.26885002194276,"ssf","mf.is","gamma","unif",500,"ssfOUT_7_2_2_KINGCOBRA","KINGCOBRA",2,0.5,7,"no effect"
"ssfOUT_7_2_2_KINGCOBRA.11",0.37700792785072,-0.84373126432836,1.5977471200298,"ssf","mf.is","exp","vonmises",5,"ssfOUT_7_2_2_KINGCOBRA","KINGCOBRA",2,0.5,7,"no effect"
"ssfOUT_7_2_2_KINGCOBRA.12",-0.50024233891949,-1.71175206806195,0.711267390222969,"ssf","mf.is","exp","vonmises",15,"ssfOUT_7_2_2_KINGCOBRA","KINGCOBRA",2,0.5,7,"no effect"
"ssfOUT_7_2_2_KINGCOBRA.13",-0.532834671226148,-1.71471231998015,0.649042977527854,"ssf","mf.is","exp","vonmises",50,"ssfOUT_7_2_2_KINGCOBRA","KINGCOBRA",2,0.5,7,"no effect"
"ssfOUT_7_2_2_KINGCOBRA.14",-0.180986648415824,-1.32375845361308,0.961785156781436,"ssf","mf.is","exp","vonmises",158,"ssfOUT_7_2_2_KINGCOBRA","KINGCOBRA",2,0.5,7,"no effect"
"ssfOUT_7_2_2_KINGCOBRA.15",-0.101979484612589,-1.30445842124428,1.10049945201911,"ssf","mf.is","exp","vonmises",500,"ssfOUT_7_2_2_KINGCOBRA","KINGCOBRA",2,0.5,7,"no effect"
"ssfOUT_7_2_2_KINGCOBRA.16",0.316782914457949,-0.840801443011085,1.47436727192698,"ssf","mf.is","exp","unif",5,"ssfOUT_7_2_2_KINGCOBRA","KINGCOBRA",2,0.5,7,"no effect"
"ssfOUT_7_2_2_KINGCOBRA.17",-0.174937416026121,-1.34432429757587,0.994449465523629,"ssf","mf.is","exp","unif",15,"ssfOUT_7_2_2_KINGCOBRA","KINGCOBRA",2,0.5,7,"no effect"
"ssfOUT_7_2_2_KINGCOBRA.18",-0.382147223523629,-1.56563781227402,0.801343365226765,"ssf","mf.is","exp","unif",50,"ssfOUT_7_2_2_KINGCOBRA","KINGCOBRA",2,0.5,7,"no effect"
"ssfOUT_7_2_2_KINGCOBRA.19",-0.141580260107785,-1.29710058530616,1.01394006509059,"ssf","mf.is","exp","unif",158,"ssfOUT_7_2_2_KINGCOBRA","KINGCOBRA",2,0.5,7,"no effect"
"ssfOUT_7_2_2_KINGCOBRA.20",-0.00239416448827909,-1.1754503082721,1.17066197929554,"ssf","mf.is","exp","unif",500,"ssfOUT_7_2_2_KINGCOBRA","KINGCOBRA",2,0.5,7,"no effect"
"ssfOUT_7_2_2_KINGCOBRA.21",0.418780197924686,-0.755577040826486,1.59313743667586,"ssf","mf.ss","gamma","vonmises",5,"ssfOUT_7_2_2_KINGCOBRA","KINGCOBRA",2,0.5,7,"no effect"
"ssfOUT_7_2_2_KINGCOBRA.22",-0.223388739160698,-1.72845459378846,1.28167711546706,"ssf","mf.ss","gamma","vonmises",15,"ssfOUT_7_2_2_KINGCOBRA","KINGCOBRA",2,0.5,7,"no effect"
"ssfOUT_7_2_2_KINGCOBRA.23",0.233143183947313,-0.891718899825201,1.35800526771983,"ssf","mf.ss","gamma","vonmises",50,"ssfOUT_7_2_2_KINGCOBRA","KINGCOBRA",2,0.5,7,"no effect"
"ssfOUT_7_2_2_KINGCOBRA.24",-0.000455021520216304,-1.16827433440929,1.16736429136886,"ssf","mf.ss","gamma","vonmises",158,"ssfOUT_7_2_2_KINGCOBRA","KINGCOBRA",2,0.5,7,"no effect"
"ssfOUT_7_2_2_KINGCOBRA.25",0.0315020114807577,-1.19625408719472,1.25925811015624,"ssf","mf.ss","gamma","vonmises",500,"ssfOUT_7_2_2_KINGCOBRA","KINGCOBRA",2,0.5,7,"no effect"
"ssfOUT_7_2_2_KINGCOBRA.26",-0.328946697346603,-1.59960529846696,0.941711903773755,"ssf","mf.ss","gamma","unif",5,"ssfOUT_7_2_2_KINGCOBRA","KINGCOBRA",2,0.5,7,"no effect"
"ssfOUT_7_2_2_KINGCOBRA.27",0.215014166733289,-0.948517542988702,1.37854587645528,"ssf","mf.ss","gamma","unif",15,"ssfOUT_7_2_2_KINGCOBRA","KINGCOBRA",2,0.5,7,"no effect"
"ssfOUT_7_2_2_KINGCOBRA.28",-0.321359358277265,-1.55303185567982,0.910313139125288,"ssf","mf.ss","gamma","unif",50,"ssfOUT_7_2_2_KINGCOBRA","KINGCOBRA",2,0.5,7,"no effect"
"ssfOUT_7_2_2_KINGCOBRA.29",-0.0542933152082009,-1.28027291032136,1.17168627990496,"ssf","mf.ss","gamma","unif",158,"ssfOUT_7_2_2_KINGCOBRA","KINGCOBRA",2,0.5,7,"no effect"
"ssfOUT_7_2_2_KINGCOBRA.30",0.0502205251027553,-1.15340409518827,1.25384514539378,"ssf","mf.ss","gamma","unif",500,"ssfOUT_7_2_2_KINGCOBRA","KINGCOBRA",2,0.5,7,"no effect"
"ssfOUT_7_2_2_KINGCOBRA.31",0.27988619348738,-0.85196706983172,1.41173945680648,"ssf","mf.ss","exp","vonmises",5,"ssfOUT_7_2_2_KINGCOBRA","KINGCOBRA",2,0.5,7,"no effect"
"ssfOUT_7_2_2_KINGCOBRA.32",-0.521573908680867,-1.63112184572893,0.587974028367199,"ssf","mf.ss","exp","vonmises",15,"ssfOUT_7_2_2_KINGCOBRA","KINGCOBRA",2,0.5,7,"no effect"
"ssfOUT_7_2_2_KINGCOBRA.33",-0.384803836061516,-1.48688809447375,0.717280422350715,"ssf","mf.ss","exp","vonmises",50,"ssfOUT_7_2_2_KINGCOBRA","KINGCOBRA",2,0.5,7,"no effect"
"ssfOUT_7_2_2_KINGCOBRA.34",-0.122804282845424,-1.17872647573502,0.93311791004417,"ssf","mf.ss","exp","vonmises",158,"ssfOUT_7_2_2_KINGCOBRA","KINGCOBRA",2,0.5,7,"no effect"
"ssfOUT_7_2_2_KINGCOBRA.35",-0.0896249978013577,-1.15680976434229,0.977559768739573,"ssf","mf.ss","exp","vonmises",500,"ssfOUT_7_2_2_KINGCOBRA","KINGCOBRA",2,0.5,7,"no effect"
"ssfOUT_7_2_2_KINGCOBRA.36",0.296686196908864,-0.810403878497452,1.40377627231518,"ssf","mf.ss","exp","unif",5,"ssfOUT_7_2_2_KINGCOBRA","KINGCOBRA",2,0.5,7,"no effect"
"ssfOUT_7_2_2_KINGCOBRA.37",0.10851187768517,-0.968081612454711,1.18510536782505,"ssf","mf.ss","exp","unif",15,"ssfOUT_7_2_2_KINGCOBRA","KINGCOBRA",2,0.5,7,"no effect"
"ssfOUT_7_2_2_KINGCOBRA.38",-0.276721736819398,-1.3536173752395,0.800173901600708,"ssf","mf.ss","exp","unif",50,"ssfOUT_7_2_2_KINGCOBRA","KINGCOBRA",2,0.5,7,"no effect"
"ssfOUT_7_2_2_KINGCOBRA.39",0.0119228273775827,-1.05581042966097,1.07965608441614,"ssf","mf.ss","exp","unif",158,"ssfOUT_7_2_2_KINGCOBRA","KINGCOBRA",2,0.5,7,"no effect"
"ssfOUT_7_2_2_KINGCOBRA.40",-0.111285215631194,-1.19021591239519,0.967645481132797,"ssf","mf.ss","exp","unif",500,"ssfOUT_7_2_2_KINGCOBRA","KINGCOBRA",2,0.5,7,"no effect"
"ssfOUT_7_2_3_BADGER.1",0.240225330532983,-0.871275417828686,1.35172607889465,"ssf","mf.is","gamma","vonmises",5,"ssfOUT_7_2_3_BADGER","BADGER",3,0.5,7,"no effect"
"ssfOUT_7_2_3_BADGER.2",-0.0811493013891374,-1.20102136121047,1.03872275843219,"ssf","mf.is","gamma","vonmises",15,"ssfOUT_7_2_3_BADGER","BADGER",3,0.5,7,"no effect"
"ssfOUT_7_2_3_BADGER.3",0.149004775057295,-0.921315062983185,1.21932461309778,"ssf","mf.is","gamma","vonmises",50,"ssfOUT_7_2_3_BADGER","BADGER",3,0.5,7,"no effect"
"ssfOUT_7_2_3_BADGER.4",0.249294889700071,-0.7985211220136,1.29711090141374,"ssf","mf.is","gamma","vonmises",158,"ssfOUT_7_2_3_BADGER","BADGER",3,0.5,7,"no effect"
"ssfOUT_7_2_3_BADGER.5",0.229876417577219,-0.818954279127515,1.27870711428195,"ssf","mf.is","gamma","vonmises",500,"ssfOUT_7_2_3_BADGER","BADGER",3,0.5,7,"no effect"
"ssfOUT_7_2_3_BADGER.6",-0.375085350313494,-1.54668137300468,0.79651067237769,"ssf","mf.is","gamma","unif",5,"ssfOUT_7_2_3_BADGER","BADGER",3,0.5,7,"no effect"
"ssfOUT_7_2_3_BADGER.7",-0.258955248838884,-1.35146347231542,0.833552974637654,"ssf","mf.is","gamma","unif",15,"ssfOUT_7_2_3_BADGER","BADGER",3,0.5,7,"no effect"
"ssfOUT_7_2_3_BADGER.8",-0.100917156366196,-1.15845743589907,0.956623123166682,"ssf","mf.is","gamma","unif",50,"ssfOUT_7_2_3_BADGER","BADGER",3,0.5,7,"no effect"
"ssfOUT_7_2_3_BADGER.9",0.286830180883795,-0.754355897159999,1.32801625892759,"ssf","mf.is","gamma","unif",158,"ssfOUT_7_2_3_BADGER","BADGER",3,0.5,7,"no effect"
"ssfOUT_7_2_3_BADGER.10",0.232868254695551,-0.811794951367886,1.27753146075899,"ssf","mf.is","gamma","unif",500,"ssfOUT_7_2_3_BADGER","BADGER",3,0.5,7,"no effect"
"ssfOUT_7_2_3_BADGER.11",-0.732237914632355,-1.98741663073509,0.522940801470375,"ssf","mf.is","exp","vonmises",5,"ssfOUT_7_2_3_BADGER","BADGER",3,0.5,7,"no effect"
"ssfOUT_7_2_3_BADGER.12",-0.0183322451484577,-1.10886771689858,1.07220322660166,"ssf","mf.is","exp","vonmises",15,"ssfOUT_7_2_3_BADGER","BADGER",3,0.5,7,"no effect"
"ssfOUT_7_2_3_BADGER.13",0.152110707511491,-0.908203376303411,1.21242479132639,"ssf","mf.is","exp","vonmises",50,"ssfOUT_7_2_3_BADGER","BADGER",3,0.5,7,"no effect"
"ssfOUT_7_2_3_BADGER.14",0.141939432121006,-0.909391231022379,1.19327009526439,"ssf","mf.is","exp","vonmises",158,"ssfOUT_7_2_3_BADGER","BADGER",3,0.5,7,"no effect"
"ssfOUT_7_2_3_BADGER.15",0.178640414978057,-0.868866093600972,1.22614692355709,"ssf","mf.is","exp","vonmises",500,"ssfOUT_7_2_3_BADGER","BADGER",3,0.5,7,"no effect"
"ssfOUT_7_2_3_BADGER.16",0.560282774170705,-0.586170825955987,1.7067363742974,"ssf","mf.is","exp","unif",5,"ssfOUT_7_2_3_BADGER","BADGER",3,0.5,7,"no effect"
"ssfOUT_7_2_3_BADGER.17",0.484601187711942,-0.604414433195805,1.57361680861969,"ssf","mf.is","exp","unif",15,"ssfOUT_7_2_3_BADGER","BADGER",3,0.5,7,"no effect"
"ssfOUT_7_2_3_BADGER.18",-0.0731917527668536,-1.13096654055801,0.984583035024306,"ssf","mf.is","exp","unif",50,"ssfOUT_7_2_3_BADGER","BADGER",3,0.5,7,"no effect"
"ssfOUT_7_2_3_BADGER.19",0.159163190142596,-0.882880793581346,1.20120717386654,"ssf","mf.is","exp","unif",158,"ssfOUT_7_2_3_BADGER","BADGER",3,0.5,7,"no effect"
"ssfOUT_7_2_3_BADGER.20",0.225822963541339,-0.818765220109475,1.27041114719215,"ssf","mf.is","exp","unif",500,"ssfOUT_7_2_3_BADGER","BADGER",3,0.5,7,"no effect"
"ssfOUT_7_2_3_BADGER.21",0.309887041230442,-0.797629568512977,1.41740365097386,"ssf","mf.ss","gamma","vonmises",5,"ssfOUT_7_2_3_BADGER","BADGER",3,0.5,7,"no effect"
"ssfOUT_7_2_3_BADGER.22",-0.0603590681797626,-1.1699177432881,1.04919960692857,"ssf","mf.ss","gamma","vonmises",15,"ssfOUT_7_2_3_BADGER","BADGER",3,0.5,7,"no effect"
"ssfOUT_7_2_3_BADGER.23",0.179953617844268,-0.887456224844759,1.24736346053329,"ssf","mf.ss","gamma","vonmises",50,"ssfOUT_7_2_3_BADGER","BADGER",3,0.5,7,"no effect"
"ssfOUT_7_2_3_BADGER.24",0.265199302339777,-0.781048777160388,1.31144738183994,"ssf","mf.ss","gamma","vonmises",158,"ssfOUT_7_2_3_BADGER","BADGER",3,0.5,7,"no effect"
"ssfOUT_7_2_3_BADGER.25",0.248242272762358,-0.798571026922157,1.29505557244687,"ssf","mf.ss","gamma","vonmises",500,"ssfOUT_7_2_3_BADGER","BADGER",3,0.5,7,"no effect"
"ssfOUT_7_2_3_BADGER.26",-0.339066381984562,-1.50863461588317,0.830501851914045,"ssf","mf.ss","gamma","unif",5,"ssfOUT_7_2_3_BADGER","BADGER",3,0.5,7,"no effect"
"ssfOUT_7_2_3_BADGER.27",-0.231072439665522,-1.31797516863654,0.855830289305491,"ssf","mf.ss","gamma","unif",15,"ssfOUT_7_2_3_BADGER","BADGER",3,0.5,7,"no effect"
"ssfOUT_7_2_3_BADGER.28",-0.0761660279570054,-1.13092041404437,0.978588358130363,"ssf","mf.ss","gamma","unif",50,"ssfOUT_7_2_3_BADGER","BADGER",3,0.5,7,"no effect"
"ssfOUT_7_2_3_BADGER.29",0.321954292855066,-0.714480886125498,1.35838947183563,"ssf","mf.ss","gamma","unif",158,"ssfOUT_7_2_3_BADGER","BADGER",3,0.5,7,"no effect"
"ssfOUT_7_2_3_BADGER.30",0.275082970444168,-0.766755250137932,1.31692119102627,"ssf","mf.ss","gamma","unif",500,"ssfOUT_7_2_3_BADGER","BADGER",3,0.5,7,"no effect"
"ssfOUT_7_2_3_BADGER.31",-0.62363605571442,-1.86084797287549,0.613575861446646,"ssf","mf.ss","exp","vonmises",5,"ssfOUT_7_2_3_BADGER","BADGER",3,0.5,7,"no effect"
"ssfOUT_7_2_3_BADGER.32",-0.0526091127674105,-1.13171437937015,1.02649615383533,"ssf","mf.ss","exp","vonmises",15,"ssfOUT_7_2_3_BADGER","BADGER",3,0.5,7,"no effect"
"ssfOUT_7_2_3_BADGER.33",0.178933971920426,-0.874522513593953,1.23239045743481,"ssf","mf.ss","exp","vonmises",50,"ssfOUT_7_2_3_BADGER","BADGER",3,0.5,7,"no effect"
"ssfOUT_7_2_3_BADGER.34",0.145413779183674,-0.896534235007239,1.18736179337459,"ssf","mf.ss","exp","vonmises",158,"ssfOUT_7_2_3_BADGER","BADGER",3,0.5,7,"no effect"
"ssfOUT_7_2_3_BADGER.35",0.170354810135496,-0.868984049428536,1.20969366969953,"ssf","mf.ss","exp","vonmises",500,"ssfOUT_7_2_3_BADGER","BADGER",3,0.5,7,"no effect"
"ssfOUT_7_2_3_BADGER.36",0.729413704349306,-0.407830290744687,1.8666576994433,"ssf","mf.ss","exp","unif",5,"ssfOUT_7_2_3_BADGER","BADGER",3,0.5,7,"no effect"
"ssfOUT_7_2_3_BADGER.37",0.471367494145282,-0.605632685797983,1.54836767408855,"ssf","mf.ss","exp","unif",15,"ssfOUT_7_2_3_BADGER","BADGER",3,0.5,7,"no effect"
"ssfOUT_7_2_3_BADGER.38",-0.0787094733690214,-1.12705449027886,0.969635543540816,"ssf","mf.ss","exp","unif",50,"ssfOUT_7_2_3_BADGER","BADGER",3,0.5,7,"no effect"
"ssfOUT_7_2_3_BADGER.39",0.211069945677522,-0.82554256254508,1.24768245390013,"ssf","mf.ss","exp","unif",158,"ssfOUT_7_2_3_BADGER","BADGER",3,0.5,7,"no effect"
"ssfOUT_7_2_3_BADGER.40",0.229176969995033,-0.807100837435518,1.26545477742558,"ssf","mf.ss","exp","unif",500,"ssfOUT_7_2_3_BADGER","BADGER",3,0.5,7,"no effect"
"ssfOUT_7_2_3_VULTURE.1",-0.253087992549066,-1.41565565125348,0.909479666155348,"ssf","mf.is","gamma","vonmises",5,"ssfOUT_7_2_3_VULTURE","VULTURE",3,0.5,7,"no effect"
"ssfOUT_7_2_3_VULTURE.2",-0.569248901320426,-1.66582129315191,0.527323490511058,"ssf","mf.is","gamma","vonmises",15,"ssfOUT_7_2_3_VULTURE","VULTURE",3,0.5,7,"no effect"
"ssfOUT_7_2_3_VULTURE.3",-0.0957667640781275,-1.13416993442497,0.942636406268713,"ssf","mf.is","gamma","vonmises",50,"ssfOUT_7_2_3_VULTURE","VULTURE",3,0.5,7,"no effect"
"ssfOUT_7_2_3_VULTURE.4",0.176781368227756,-0.851930714296263,1.20549345075177,"ssf","mf.is","gamma","vonmises",158,"ssfOUT_7_2_3_VULTURE","VULTURE",3,0.5,7,"no effect"
"ssfOUT_7_2_3_VULTURE.5",0.0138692640371365,-1.0179986942856,1.04573722235987,"ssf","mf.is","gamma","vonmises",500,"ssfOUT_7_2_3_VULTURE","VULTURE",3,0.5,7,"no effect"
"ssfOUT_7_2_3_VULTURE.6",-0.125618103052016,-1.37566972967582,1.12443352357179,"ssf","mf.is","gamma","unif",5,"ssfOUT_7_2_3_VULTURE","VULTURE",3,0.5,7,"no effect"
"ssfOUT_7_2_3_VULTURE.7",-0.496583467165486,-1.57355667087383,0.580389736542855,"ssf","mf.is","gamma","unif",15,"ssfOUT_7_2_3_VULTURE","VULTURE",3,0.5,7,"no effect"
"ssfOUT_7_2_3_VULTURE.8",-0.104208036880958,-1.14963688057784,0.941220806815923,"ssf","mf.is","gamma","unif",50,"ssfOUT_7_2_3_VULTURE","VULTURE",3,0.5,7,"no effect"
"ssfOUT_7_2_3_VULTURE.9",-0.032460456185958,-1.07117171359425,1.00625080122233,"ssf","mf.is","gamma","unif",158,"ssfOUT_7_2_3_VULTURE","VULTURE",3,0.5,7,"no effect"
"ssfOUT_7_2_3_VULTURE.10",0.000255773278673109,-1.0332121949376,1.03372374149495,"ssf","mf.is","gamma","unif",500,"ssfOUT_7_2_3_VULTURE","VULTURE",3,0.5,7,"no effect"
"ssfOUT_7_2_3_VULTURE.11",0.526821595512008,-0.563851020705941,1.61749421172996,"ssf","mf.is","exp","vonmises",5,"ssfOUT_7_2_3_VULTURE","VULTURE",3,0.5,7,"no effect"
"ssfOUT_7_2_3_VULTURE.12",-0.0538035948786316,-1.11346935542249,1.00586216566523,"ssf","mf.is","exp","vonmises",15,"ssfOUT_7_2_3_VULTURE","VULTURE",3,0.5,7,"no effect"
"ssfOUT_7_2_3_VULTURE.13",-0.123815814350651,-1.16895227965687,0.921320650955572,"ssf","mf.is","exp","vonmises",50,"ssfOUT_7_2_3_VULTURE","VULTURE",3,0.5,7,"no effect"
"ssfOUT_7_2_3_VULTURE.14",0.0116491508049916,-1.0179534130271,1.04125171463708,"ssf","mf.is","exp","vonmises",158,"ssfOUT_7_2_3_VULTURE","VULTURE",3,0.5,7,"no effect"
"ssfOUT_7_2_3_VULTURE.15",0.0422452461987057,-0.988236371257221,1.07272686365463,"ssf","mf.is","exp","vonmises",500,"ssfOUT_7_2_3_VULTURE","VULTURE",3,0.5,7,"no effect"
"ssfOUT_7_2_3_VULTURE.16",0.0971296188581608,-1.09527529799162,1.28953453570794,"ssf","mf.is","exp","unif",5,"ssfOUT_7_2_3_VULTURE","VULTURE",3,0.5,7,"no effect"
"ssfOUT_7_2_3_VULTURE.17",0.112882488752466,-0.990378537405068,1.21614351491,"ssf","mf.is","exp","unif",15,"ssfOUT_7_2_3_VULTURE","VULTURE",3,0.5,7,"no effect"
"ssfOUT_7_2_3_VULTURE.18",0.00963048787362429,-1.03744900981465,1.0567099855619,"ssf","mf.is","exp","unif",50,"ssfOUT_7_2_3_VULTURE","VULTURE",3,0.5,7,"no effect"
"ssfOUT_7_2_3_VULTURE.19",0.0450977472100704,-0.987637749415899,1.07783324383604,"ssf","mf.is","exp","unif",158,"ssfOUT_7_2_3_VULTURE","VULTURE",3,0.5,7,"no effect"
"ssfOUT_7_2_3_VULTURE.20",0.0384988035344944,-0.995123437587992,1.07212104465698,"ssf","mf.is","exp","unif",500,"ssfOUT_7_2_3_VULTURE","VULTURE",3,0.5,7,"no effect"
"ssfOUT_7_2_3_VULTURE.21",0.0857002697710058,-1.03810778184105,1.20950832138306,"ssf","mf.ss","gamma","vonmises",5,"ssfOUT_7_2_3_VULTURE","VULTURE",3,0.5,7,"no effect"
"ssfOUT_7_2_3_VULTURE.22",-0.397940183701524,-1.47380035795114,0.677919990548097,"ssf","mf.ss","gamma","vonmises",15,"ssfOUT_7_2_3_VULTURE","VULTURE",3,0.5,7,"no effect"
"ssfOUT_7_2_3_VULTURE.23",-0.0125539530403096,-1.04777107591845,1.02266316983783,"ssf","mf.ss","gamma","vonmises",50,"ssfOUT_7_2_3_VULTURE","VULTURE",3,0.5,7,"no effect"
"ssfOUT_7_2_3_VULTURE.24",0.238401524136865,-0.787693725668492,1.26449677394222,"ssf","mf.ss","gamma","vonmises",158,"ssfOUT_7_2_3_VULTURE","VULTURE",3,0.5,7,"no effect"
"ssfOUT_7_2_3_VULTURE.25",0.100190440876898,-0.930631256326985,1.13101213808078,"ssf","mf.ss","gamma","vonmises",500,"ssfOUT_7_2_3_VULTURE","VULTURE",3,0.5,7,"no effect"
"ssfOUT_7_2_3_VULTURE.26",-0.183543626051472,-1.43551654914192,1.06842929703898,"ssf","mf.ss","gamma","unif",5,"ssfOUT_7_2_3_VULTURE","VULTURE",3,0.5,7,"no effect"
"ssfOUT_7_2_3_VULTURE.27",-0.353208978835099,-1.41769955948432,0.711281601814119,"ssf","mf.ss","gamma","unif",15,"ssfOUT_7_2_3_VULTURE","VULTURE",3,0.5,7,"no effect"
"ssfOUT_7_2_3_VULTURE.28",-0.0560818284056993,-1.09751064521335,0.985346988401952,"ssf","mf.ss","gamma","unif",50,"ssfOUT_7_2_3_VULTURE","VULTURE",3,0.5,7,"no effect"
"ssfOUT_7_2_3_VULTURE.29",0.0444809416780621,-0.994588951469613,1.08355083482574,"ssf","mf.ss","gamma","unif",158,"ssfOUT_7_2_3_VULTURE","VULTURE",3,0.5,7,"no effect"
"ssfOUT_7_2_3_VULTURE.30",0.0844610375999073,-0.948331517378643,1.11725359257846,"ssf","mf.ss","gamma","unif",500,"ssfOUT_7_2_3_VULTURE","VULTURE",3,0.5,7,"no effect"
"ssfOUT_7_2_3_VULTURE.31",0.535817920434525,-0.538997473983275,1.61063331485233,"ssf","mf.ss","exp","vonmises",5,"ssfOUT_7_2_3_VULTURE","VULTURE",3,0.5,7,"no effect"
"ssfOUT_7_2_3_VULTURE.32",0.233030585857418,-0.807979879613734,1.27404105132857,"ssf","mf.ss","exp","vonmises",15,"ssfOUT_7_2_3_VULTURE","VULTURE",3,0.5,7,"no effect"
"ssfOUT_7_2_3_VULTURE.33",-0.0450496724145079,-1.09098727832444,1.00088793349542,"ssf","mf.ss","exp","vonmises",50,"ssfOUT_7_2_3_VULTURE","VULTURE",3,0.5,7,"no effect"
"ssfOUT_7_2_3_VULTURE.34",0.166215993018497,-0.863830025934301,1.1962620119713,"ssf","mf.ss","exp","vonmises",158,"ssfOUT_7_2_3_VULTURE","VULTURE",3,0.5,7,"no effect"
"ssfOUT_7_2_3_VULTURE.35",0.201223049303887,-0.829916351021066,1.23236244962884,"ssf","mf.ss","exp","vonmises",500,"ssfOUT_7_2_3_VULTURE","VULTURE",3,0.5,7,"no effect"
"ssfOUT_7_2_3_VULTURE.36",0.243826123672864,-0.889299278615765,1.37695152596149,"ssf","mf.ss","exp","unif",5,"ssfOUT_7_2_3_VULTURE","VULTURE",3,0.5,7,"no effect"
"ssfOUT_7_2_3_VULTURE.37",0.0735374587771615,-1.03473003060644,1.18180494816076,"ssf","mf.ss","exp","unif",15,"ssfOUT_7_2_3_VULTURE","VULTURE",3,0.5,7,"no effect"
"ssfOUT_7_2_3_VULTURE.38",0.278957513600171,-0.768026642540574,1.32594166974091,"ssf","mf.ss","exp","unif",50,"ssfOUT_7_2_3_VULTURE","VULTURE",3,0.5,7,"no effect"
"ssfOUT_7_2_3_VULTURE.39",0.254260805427903,-0.775267055341459,1.28378866619727,"ssf","mf.ss","exp","unif",158,"ssfOUT_7_2_3_VULTURE","VULTURE",3,0.5,7,"no effect"
"ssfOUT_7_2_3_VULTURE.40",0.222529873407906,-0.811515151015651,1.25657489783146,"ssf","mf.ss","exp","unif",500,"ssfOUT_7_2_3_VULTURE","VULTURE",3,0.5,7,"no effect"
"ssfOUT_7_2_3_KINGCOBRA.1",1.09821990932529,0.572188050625907,1.62425176802467,"ssf","mf.is","gamma","vonmises",5,"ssfOUT_7_2_3_KINGCOBRA","KINGCOBRA",3,0.5,7,"preference"
"ssfOUT_7_2_3_KINGCOBRA.2",14.367606948941,-4535.09892242972,4563.8341363276,"ssf","mf.is","gamma","vonmises",15,"ssfOUT_7_2_3_KINGCOBRA","KINGCOBRA",3,0.5,7,"no effect"
"ssfOUT_7_2_3_KINGCOBRA.3",13.7416699476249,-3496.41306898859,3523.89640888384,"ssf","mf.is","gamma","vonmises",50,"ssfOUT_7_2_3_KINGCOBRA","KINGCOBRA",3,0.5,7,"no effect"
"ssfOUT_7_2_3_KINGCOBRA.4",13.5992510389955,-2861.50885123695,2888.70735331494,"ssf","mf.is","gamma","vonmises",158,"ssfOUT_7_2_3_KINGCOBRA","KINGCOBRA",3,0.5,7,"no effect"
"ssfOUT_7_2_3_KINGCOBRA.5",13.6083506564952,-2605.83014529968,2633.04684661267,"ssf","mf.is","gamma","vonmises",500,"ssfOUT_7_2_3_KINGCOBRA","KINGCOBRA",3,0.5,7,"no effect"
"ssfOUT_7_2_3_KINGCOBRA.6",16.5740002234479,-4455.34670323439,4488.49470368129,"ssf","mf.is","gamma","unif",5,"ssfOUT_7_2_3_KINGCOBRA","KINGCOBRA",3,0.5,7,"no effect"
"ssfOUT_7_2_3_KINGCOBRA.7",0.964808388887507,0.484158364609298,1.44545841316572,"ssf","mf.is","gamma","unif",15,"ssfOUT_7_2_3_KINGCOBRA","KINGCOBRA",3,0.5,7,"preference"
"ssfOUT_7_2_3_KINGCOBRA.8",14.6938526935514,-3460.64223113454,3490.02993652164,"ssf","mf.is","gamma","unif",50,"ssfOUT_7_2_3_KINGCOBRA","KINGCOBRA",3,0.5,7,"no effect"
"ssfOUT_7_2_3_KINGCOBRA.9",13.3839512504659,-2538.56814764016,2565.33605014109,"ssf","mf.is","gamma","unif",158,"ssfOUT_7_2_3_KINGCOBRA","KINGCOBRA",3,0.5,7,"no effect"
"ssfOUT_7_2_3_KINGCOBRA.10",13.4103494881109,-2747.03507561885,2773.85577459507,"ssf","mf.is","gamma","unif",500,"ssfOUT_7_2_3_KINGCOBRA","KINGCOBRA",3,0.5,7,"no effect"
"ssfOUT_7_2_3_KINGCOBRA.11",0.781565691710235,0.26594889138998,1.29718249203049,"ssf","mf.is","exp","vonmises",5,"ssfOUT_7_2_3_KINGCOBRA","KINGCOBRA",3,0.5,7,"preference"
"ssfOUT_7_2_3_KINGCOBRA.12",0.936317494473614,0.446011296747972,1.42662369219926,"ssf","mf.is","exp","vonmises",15,"ssfOUT_7_2_3_KINGCOBRA","KINGCOBRA",3,0.5,7,"preference"
"ssfOUT_7_2_3_KINGCOBRA.13",13.9677730221569,-3646.58946934693,3674.52501539124,"ssf","mf.is","exp","vonmises",50,"ssfOUT_7_2_3_KINGCOBRA","KINGCOBRA",3,0.5,7,"no effect"
"ssfOUT_7_2_3_KINGCOBRA.14",17.0060236715514,-2729.4761644966,2763.4882118397,"ssf","mf.is","exp","vonmises",158,"ssfOUT_7_2_3_KINGCOBRA","KINGCOBRA",3,0.5,7,"no effect"
"ssfOUT_7_2_3_KINGCOBRA.15",13.5662656874855,-2983.70655384011,3010.83908521508,"ssf","mf.is","exp","vonmises",500,"ssfOUT_7_2_3_KINGCOBRA","KINGCOBRA",3,0.5,7,"no effect"
"ssfOUT_7_2_3_KINGCOBRA.16",1.004052759387,0.510251606276573,1.49785391249742,"ssf","mf.is","exp","unif",5,"ssfOUT_7_2_3_KINGCOBRA","KINGCOBRA",3,0.5,7,"preference"
"ssfOUT_7_2_3_KINGCOBRA.17",15.2218785449658,-3907.82803833804,3938.27179542797,"ssf","mf.is","exp","unif",15,"ssfOUT_7_2_3_KINGCOBRA","KINGCOBRA",3,0.5,7,"no effect"
"ssfOUT_7_2_3_KINGCOBRA.18",13.775445528552,-3513.84279069796,3541.39368175506,"ssf","mf.is","exp","unif",50,"ssfOUT_7_2_3_KINGCOBRA","KINGCOBRA",3,0.5,7,"no effect"
"ssfOUT_7_2_3_KINGCOBRA.19",10.9940380970696,-2614.89490639278,2636.88298258692,"ssf","mf.is","exp","unif",158,"ssfOUT_7_2_3_KINGCOBRA","KINGCOBRA",3,0.5,7,"no effect"
"ssfOUT_7_2_3_KINGCOBRA.20",12.4065318213864,-2069.75249792212,2094.56556156489,"ssf","mf.is","exp","unif",500,"ssfOUT_7_2_3_KINGCOBRA","KINGCOBRA",3,0.5,7,"no effect"
"ssfOUT_7_2_3_KINGCOBRA.21",0.943563220159348,0.457661080569975,1.42946535974872,"ssf","mf.ss","gamma","vonmises",5,"ssfOUT_7_2_3_KINGCOBRA","KINGCOBRA",3,0.5,7,"preference"
"ssfOUT_7_2_3_KINGCOBRA.22",14.1506397737249,-4480.74692530878,4509.04820485623,"ssf","mf.ss","gamma","vonmises",15,"ssfOUT_7_2_3_KINGCOBRA","KINGCOBRA",3,0.5,7,"no effect"
"ssfOUT_7_2_3_KINGCOBRA.23",13.3070559739559,-3463.79457972608,3490.40869167399,"ssf","mf.ss","gamma","vonmises",50,"ssfOUT_7_2_3_KINGCOBRA","KINGCOBRA",3,0.5,7,"no effect"
"ssfOUT_7_2_3_KINGCOBRA.24",13.2301630296023,-2843.11236059778,2869.57268665698,"ssf","mf.ss","gamma","vonmises",158,"ssfOUT_7_2_3_KINGCOBRA","KINGCOBRA",3,0.5,7,"no effect"
"ssfOUT_7_2_3_KINGCOBRA.25",13.2754963913091,-2629.05536238508,2655.60635516769,"ssf","mf.ss","gamma","vonmises",500,"ssfOUT_7_2_3_KINGCOBRA","KINGCOBRA",3,0.5,7,"no effect"
"ssfOUT_7_2_3_KINGCOBRA.26",16.396809470796,-4465.75103723681,4498.5446561784,"ssf","mf.ss","gamma","unif",5,"ssfOUT_7_2_3_KINGCOBRA","KINGCOBRA",3,0.5,7,"no effect"
"ssfOUT_7_2_3_KINGCOBRA.27",0.935905374812154,0.46745916041415,1.40435158921016,"ssf","mf.ss","gamma","unif",15,"ssfOUT_7_2_3_KINGCOBRA","KINGCOBRA",3,0.5,7,"preference"
"ssfOUT_7_2_3_KINGCOBRA.28",14.238939146789,-3546.81222672683,3575.29010502041,"ssf","mf.ss","gamma","unif",50,"ssfOUT_7_2_3_KINGCOBRA","KINGCOBRA",3,0.5,7,"no effect"
"ssfOUT_7_2_3_KINGCOBRA.29",13.2208362337518,-2550.37530548316,2576.81697795067,"ssf","mf.ss","gamma","unif",158,"ssfOUT_7_2_3_KINGCOBRA","KINGCOBRA",3,0.5,7,"no effect"
"ssfOUT_7_2_3_KINGCOBRA.30",13.2106098867448,-2743.33413768233,2769.75535745582,"ssf","mf.ss","gamma","unif",500,"ssfOUT_7_2_3_KINGCOBRA","KINGCOBRA",3,0.5,7,"no effect"
"ssfOUT_7_2_3_KINGCOBRA.31",0.846324385488664,0.395440564943863,1.29720820603347,"ssf","mf.ss","exp","vonmises",5,"ssfOUT_7_2_3_KINGCOBRA","KINGCOBRA",3,0.5,7,"preference"
"ssfOUT_7_2_3_KINGCOBRA.32",1.01476610396957,0.569125772268862,1.46040643567028,"ssf","mf.ss","exp","vonmises",15,"ssfOUT_7_2_3_KINGCOBRA","KINGCOBRA",3,0.5,7,"preference"
"ssfOUT_7_2_3_KINGCOBRA.33",13.6360846775793,-3538.07524267974,3565.3474120349,"ssf","mf.ss","exp","vonmises",50,"ssfOUT_7_2_3_KINGCOBRA","KINGCOBRA",3,0.5,7,"no effect"
"ssfOUT_7_2_3_KINGCOBRA.34",13.326205926151,-2856.67857871234,2883.33099056464,"ssf","mf.ss","exp","vonmises",158,"ssfOUT_7_2_3_KINGCOBRA","KINGCOBRA",3,0.5,7,"no effect"
"ssfOUT_7_2_3_KINGCOBRA.35",12.322925371101,-2462.42214069567,2487.06799143787,"ssf","mf.ss","exp","vonmises",500,"ssfOUT_7_2_3_KINGCOBRA","KINGCOBRA",3,0.5,7,"no effect"
"ssfOUT_7_2_3_KINGCOBRA.36",1.10723789618504,0.657962463408065,1.55651332896202,"ssf","mf.ss","exp","unif",5,"ssfOUT_7_2_3_KINGCOBRA","KINGCOBRA",3,0.5,7,"preference"
"ssfOUT_7_2_3_KINGCOBRA.37",14.2370544761301,-4539.35880762818,4567.83291658044,"ssf","mf.ss","exp","unif",15,"ssfOUT_7_2_3_KINGCOBRA","KINGCOBRA",3,0.5,7,"no effect"
"ssfOUT_7_2_3_KINGCOBRA.38",12.4952002237114,-3005.96979806389,3030.96019851132,"ssf","mf.ss","exp","unif",50,"ssfOUT_7_2_3_KINGCOBRA","KINGCOBRA",3,0.5,7,"no effect"
"ssfOUT_7_2_3_KINGCOBRA.39",12.2423982057341,-2987.70468531446,3012.18948172593,"ssf","mf.ss","exp","unif",158,"ssfOUT_7_2_3_KINGCOBRA","KINGCOBRA",3,0.5,7,"no effect"
"ssfOUT_7_2_3_KINGCOBRA.40",12.3177475356686,-2110.86395952596,2135.4994545973,"ssf","mf.ss","exp","unif",500,"ssfOUT_7_2_3_KINGCOBRA","KINGCOBRA",3,0.5,7,"no effect"
"ssfOUT_7_2_4_BADGER.1",-0.0699490635221533,-0.991678293074634,0.851780166030328,"ssf","mf.is","gamma","vonmises",5,"ssfOUT_7_2_4_BADGER","BADGER",4,0.5,7,"no effect"
"ssfOUT_7_2_4_BADGER.2",0.215485564351337,-0.549062175850264,0.980033304552938,"ssf","mf.is","gamma","vonmises",15,"ssfOUT_7_2_4_BADGER","BADGER",4,0.5,7,"no effect"
"ssfOUT_7_2_4_BADGER.3",-0.0231813749901161,-0.786519402838174,0.740156652857941,"ssf","mf.is","gamma","vonmises",50,"ssfOUT_7_2_4_BADGER","BADGER",4,0.5,7,"no effect"
"ssfOUT_7_2_4_BADGER.4",-0.0766886004071651,-0.833325951550304,0.679948750735973,"ssf","mf.is","gamma","vonmises",158,"ssfOUT_7_2_4_BADGER","BADGER",4,0.5,7,"no effect"
"ssfOUT_7_2_4_BADGER.5",-0.0799455518631806,-0.835845860744269,0.675954757017908,"ssf","mf.is","gamma","vonmises",500,"ssfOUT_7_2_4_BADGER","BADGER",4,0.5,7,"no effect"
"ssfOUT_7_2_4_BADGER.6",0.105414444316239,-0.783764551250408,0.994593439882886,"ssf","mf.is","gamma","unif",5,"ssfOUT_7_2_4_BADGER","BADGER",4,0.5,7,"no effect"
"ssfOUT_7_2_4_BADGER.7",-0.28712974026177,-1.08604731560195,0.511787835078409,"ssf","mf.is","gamma","unif",15,"ssfOUT_7_2_4_BADGER","BADGER",4,0.5,7,"no effect"
"ssfOUT_7_2_4_BADGER.8",-0.195106186725499,-0.971789288258222,0.581576914807224,"ssf","mf.is","gamma","unif",50,"ssfOUT_7_2_4_BADGER","BADGER",4,0.5,7,"no effect"
"ssfOUT_7_2_4_BADGER.9",0.0369399381661425,-0.722993493535234,0.796873369867519,"ssf","mf.is","gamma","unif",158,"ssfOUT_7_2_4_BADGER","BADGER",4,0.5,7,"no effect"
"ssfOUT_7_2_4_BADGER.10",-0.130298069419885,-0.88392771961027,0.623331580770501,"ssf","mf.is","gamma","unif",500,"ssfOUT_7_2_4_BADGER","BADGER",4,0.5,7,"no effect"
"ssfOUT_7_2_4_BADGER.11",0.201590325457314,-0.631073151014156,1.03425380192878,"ssf","mf.is","exp","vonmises",5,"ssfOUT_7_2_4_BADGER","BADGER",4,0.5,7,"no effect"
"ssfOUT_7_2_4_BADGER.12",-0.249627192535869,-1.07563535099194,0.576380965920202,"ssf","mf.is","exp","vonmises",15,"ssfOUT_7_2_4_BADGER","BADGER",4,0.5,7,"no effect"
"ssfOUT_7_2_4_BADGER.13",0.027944380632753,-0.741139917383416,0.797028678648922,"ssf","mf.is","exp","vonmises",50,"ssfOUT_7_2_4_BADGER","BADGER",4,0.5,7,"no effect"
"ssfOUT_7_2_4_BADGER.14",-0.102294546571141,-0.867268785225523,0.66267969208324,"ssf","mf.is","exp","vonmises",158,"ssfOUT_7_2_4_BADGER","BADGER",4,0.5,7,"no effect"
"ssfOUT_7_2_4_BADGER.15",-0.110918355383325,-0.862640136680169,0.640803425913518,"ssf","mf.is","exp","vonmises",500,"ssfOUT_7_2_4_BADGER","BADGER",4,0.5,7,"no effect"
"ssfOUT_7_2_4_BADGER.16",0.156761155964172,-0.690158599907432,1.00368091183578,"ssf","mf.is","exp","unif",5,"ssfOUT_7_2_4_BADGER","BADGER",4,0.5,7,"no effect"
"ssfOUT_7_2_4_BADGER.17",0.02843446783868,-0.780568548398259,0.837437484075619,"ssf","mf.is","exp","unif",15,"ssfOUT_7_2_4_BADGER","BADGER",4,0.5,7,"no effect"
"ssfOUT_7_2_4_BADGER.18",-0.117311987713906,-0.874598839469835,0.639974864042022,"ssf","mf.is","exp","unif",50,"ssfOUT_7_2_4_BADGER","BADGER",4,0.5,7,"no effect"
"ssfOUT_7_2_4_BADGER.19",-0.0391438831710156,-0.791167570761713,0.712879804419681,"ssf","mf.is","exp","unif",158,"ssfOUT_7_2_4_BADGER","BADGER",4,0.5,7,"no effect"
"ssfOUT_7_2_4_BADGER.20",-0.0685640274731852,-0.820059960795486,0.682931905849115,"ssf","mf.is","exp","unif",500,"ssfOUT_7_2_4_BADGER","BADGER",4,0.5,7,"no effect"
"ssfOUT_7_2_4_BADGER.21",-0.0835146027578693,-0.997073851297385,0.830044645781647,"ssf","mf.ss","gamma","vonmises",5,"ssfOUT_7_2_4_BADGER","BADGER",4,0.5,7,"no effect"
"ssfOUT_7_2_4_BADGER.22",0.20659326664953,-0.557606284386641,0.970792817685701,"ssf","mf.ss","gamma","vonmises",15,"ssfOUT_7_2_4_BADGER","BADGER",4,0.5,7,"no effect"
"ssfOUT_7_2_4_BADGER.23",-0.0395461975328594,-0.803429445136174,0.724337050070456,"ssf","mf.ss","gamma","vonmises",50,"ssfOUT_7_2_4_BADGER","BADGER",4,0.5,7,"no effect"
"ssfOUT_7_2_4_BADGER.24",-0.0748078855172408,-0.829568261375511,0.679952490341029,"ssf","mf.ss","gamma","vonmises",158,"ssfOUT_7_2_4_BADGER","BADGER",4,0.5,7,"no effect"
"ssfOUT_7_2_4_BADGER.25",-0.0806212401133539,-0.835517181674062,0.674274701447355,"ssf","mf.ss","gamma","vonmises",500,"ssfOUT_7_2_4_BADGER","BADGER",4,0.5,7,"no effect"
"ssfOUT_7_2_4_BADGER.26",0.0977955996657462,-0.787863708381097,0.983454907712589,"ssf","mf.ss","gamma","unif",5,"ssfOUT_7_2_4_BADGER","BADGER",4,0.5,7,"no effect"
"ssfOUT_7_2_4_BADGER.27",-0.246855954810048,-1.03707780514549,0.543365895525395,"ssf","mf.ss","gamma","unif",15,"ssfOUT_7_2_4_BADGER","BADGER",4,0.5,7,"no effect"
"ssfOUT_7_2_4_BADGER.28",-0.186488382039672,-0.961930187827728,0.588953423748383,"ssf","mf.ss","gamma","unif",50,"ssfOUT_7_2_4_BADGER","BADGER",4,0.5,7,"no effect"
"ssfOUT_7_2_4_BADGER.29",0.0428858202298152,-0.715980655567876,0.801752296027507,"ssf","mf.ss","gamma","unif",158,"ssfOUT_7_2_4_BADGER","BADGER",4,0.5,7,"no effect"
"ssfOUT_7_2_4_BADGER.30",-0.12676857619071,-0.878650864054537,0.625113711673117,"ssf","mf.ss","gamma","unif",500,"ssfOUT_7_2_4_BADGER","BADGER",4,0.5,7,"no effect"
"ssfOUT_7_2_4_BADGER.31",0.299596977845572,-0.513287200496006,1.11248115618715,"ssf","mf.ss","exp","vonmises",5,"ssfOUT_7_2_4_BADGER","BADGER",4,0.5,7,"no effect"
"ssfOUT_7_2_4_BADGER.32",-0.206409575015053,-1.04068511963858,0.627865969608479,"ssf","mf.ss","exp","vonmises",15,"ssfOUT_7_2_4_BADGER","BADGER",4,0.5,7,"no effect"
"ssfOUT_7_2_4_BADGER.33",0.0508340373433652,-0.715141062735168,0.816809137421898,"ssf","mf.ss","exp","vonmises",50,"ssfOUT_7_2_4_BADGER","BADGER",4,0.5,7,"no effect"
"ssfOUT_7_2_4_BADGER.34",-0.0959601592576572,-0.861400153607652,0.669479835092338,"ssf","mf.ss","exp","vonmises",158,"ssfOUT_7_2_4_BADGER","BADGER",4,0.5,7,"no effect"
"ssfOUT_7_2_4_BADGER.35",-0.113826365073816,-0.863670463813358,0.636017733665726,"ssf","mf.ss","exp","vonmises",500,"ssfOUT_7_2_4_BADGER","BADGER",4,0.5,7,"no effect"
"ssfOUT_7_2_4_BADGER.36",0.0453427345084561,-0.794705404211878,0.88539087322879,"ssf","mf.ss","exp","unif",5,"ssfOUT_7_2_4_BADGER","BADGER",4,0.5,7,"no effect"
"ssfOUT_7_2_4_BADGER.37",0.0129108481503915,-0.795166810917309,0.820988507218092,"ssf","mf.ss","exp","unif",15,"ssfOUT_7_2_4_BADGER","BADGER",4,0.5,7,"no effect"
"ssfOUT_7_2_4_BADGER.38",-0.126422680172213,-0.88177330914084,0.628927948796414,"ssf","mf.ss","exp","unif",50,"ssfOUT_7_2_4_BADGER","BADGER",4,0.5,7,"no effect"
"ssfOUT_7_2_4_BADGER.39",-0.0371626375425366,-0.786768370770942,0.712443095685868,"ssf","mf.ss","exp","unif",158,"ssfOUT_7_2_4_BADGER","BADGER",4,0.5,7,"no effect"
"ssfOUT_7_2_4_BADGER.40",-0.0761973677090264,-0.827013501486949,0.674618766068897,"ssf","mf.ss","exp","unif",500,"ssfOUT_7_2_4_BADGER","BADGER",4,0.5,7,"no effect"
"ssfOUT_7_2_4_VULTURE.1",0.601295844888418,-0.181444278906457,1.38403596868329,"ssf","mf.is","gamma","vonmises",5,"ssfOUT_7_2_4_VULTURE","VULTURE",4,0.5,7,"no effect"
"ssfOUT_7_2_4_VULTURE.2",-0.061834288810159,-0.817824736400485,0.694156158780167,"ssf","mf.is","gamma","vonmises",15,"ssfOUT_7_2_4_VULTURE","VULTURE",4,0.5,7,"no effect"
"ssfOUT_7_2_4_VULTURE.3",0.461641849429967,-0.278754146773836,1.20203784563377,"ssf","mf.is","gamma","vonmises",50,"ssfOUT_7_2_4_VULTURE","VULTURE",4,0.5,7,"no effect"
"ssfOUT_7_2_4_VULTURE.4",0.402893720785586,-0.336529391725717,1.14231683329689,"ssf","mf.is","gamma","vonmises",158,"ssfOUT_7_2_4_VULTURE","VULTURE",4,0.5,7,"no effect"
"ssfOUT_7_2_4_VULTURE.5",0.409085754169198,-0.329148579215068,1.14732008755347,"ssf","mf.is","gamma","vonmises",500,"ssfOUT_7_2_4_VULTURE","VULTURE",4,0.5,7,"no effect"
"ssfOUT_7_2_4_VULTURE.6",-0.0558333049364531,-0.875348234713575,0.763681624840669,"ssf","mf.is","gamma","unif",5,"ssfOUT_7_2_4_VULTURE","VULTURE",4,0.5,7,"no effect"
"ssfOUT_7_2_4_VULTURE.7",0.343399640366381,-0.426255779148113,1.11305505988087,"ssf","mf.is","gamma","unif",15,"ssfOUT_7_2_4_VULTURE","VULTURE",4,0.5,7,"no effect"
"ssfOUT_7_2_4_VULTURE.8",0.331647323165519,-0.411992663257785,1.07528730958882,"ssf","mf.is","gamma","unif",50,"ssfOUT_7_2_4_VULTURE","VULTURE",4,0.5,7,"no effect"
"ssfOUT_7_2_4_VULTURE.9",0.375552218380998,-0.368165875144887,1.11927031190688,"ssf","mf.is","gamma","unif",158,"ssfOUT_7_2_4_VULTURE","VULTURE",4,0.5,7,"no effect"
"ssfOUT_7_2_4_VULTURE.10",0.360827955710143,-0.376325466103346,1.09798137752363,"ssf","mf.is","gamma","unif",500,"ssfOUT_7_2_4_VULTURE","VULTURE",4,0.5,7,"no effect"
"ssfOUT_7_2_4_VULTURE.11",0.846946186714062,0.0642228844223568,1.62966948900577,"ssf","mf.is","exp","vonmises",5,"ssfOUT_7_2_4_VULTURE","VULTURE",4,0.5,7,"preference"
"ssfOUT_7_2_4_VULTURE.12",0.474645353947573,-0.283980301118616,1.23327100901376,"ssf","mf.is","exp","vonmises",15,"ssfOUT_7_2_4_VULTURE","VULTURE",4,0.5,7,"no effect"
"ssfOUT_7_2_4_VULTURE.13",0.373396062307429,-0.367395135629509,1.11418726024437,"ssf","mf.is","exp","vonmises",50,"ssfOUT_7_2_4_VULTURE","VULTURE",4,0.5,7,"no effect"
"ssfOUT_7_2_4_VULTURE.14",0.411038087657631,-0.32701165512961,1.14908783044487,"ssf","mf.is","exp","vonmises",158,"ssfOUT_7_2_4_VULTURE","VULTURE",4,0.5,7,"no effect"
"ssfOUT_7_2_4_VULTURE.15",0.394784870875464,-0.343794200123639,1.13336394187457,"ssf","mf.is","exp","vonmises",500,"ssfOUT_7_2_4_VULTURE","VULTURE",4,0.5,7,"no effect"
"ssfOUT_7_2_4_VULTURE.16",-0.143562758555321,-1.02675633973759,0.739630822626948,"ssf","mf.is","exp","unif",5,"ssfOUT_7_2_4_VULTURE","VULTURE",4,0.5,7,"no effect"
"ssfOUT_7_2_4_VULTURE.17",0.180232133036731,-0.611698773966281,0.972163040039743,"ssf","mf.is","exp","unif",15,"ssfOUT_7_2_4_VULTURE","VULTURE",4,0.5,7,"no effect"
"ssfOUT_7_2_4_VULTURE.18",0.277350113055263,-0.469076383626848,1.02377660973737,"ssf","mf.is","exp","unif",50,"ssfOUT_7_2_4_VULTURE","VULTURE",4,0.5,7,"no effect"
"ssfOUT_7_2_4_VULTURE.19",0.47879725172118,-0.25830574119015,1.21590024463251,"ssf","mf.is","exp","unif",158,"ssfOUT_7_2_4_VULTURE","VULTURE",4,0.5,7,"no effect"
"ssfOUT_7_2_4_VULTURE.20",0.402769201764803,-0.335474587966797,1.1410129914964,"ssf","mf.is","exp","unif",500,"ssfOUT_7_2_4_VULTURE","VULTURE",4,0.5,7,"no effect"
"ssfOUT_7_2_4_VULTURE.21",0.595534853066978,-0.186297041156745,1.3773667472907,"ssf","mf.ss","gamma","vonmises",5,"ssfOUT_7_2_4_VULTURE","VULTURE",4,0.5,7,"no effect"
"ssfOUT_7_2_4_VULTURE.22",-0.0267039485913368,-0.777746585854887,0.724338688672213,"ssf","mf.ss","gamma","vonmises",15,"ssfOUT_7_2_4_VULTURE","VULTURE",4,0.5,7,"no effect"
"ssfOUT_7_2_4_VULTURE.23",0.447778114252005,-0.292360255481704,1.18791648398571,"ssf","mf.ss","gamma","vonmises",50,"ssfOUT_7_2_4_VULTURE","VULTURE",4,0.5,7,"no effect"
"ssfOUT_7_2_4_VULTURE.24",0.391713873530779,-0.346839457589756,1.13026720465131,"ssf","mf.ss","gamma","vonmises",158,"ssfOUT_7_2_4_VULTURE","VULTURE",4,0.5,7,"no effect"
"ssfOUT_7_2_4_VULTURE.25",0.403318042917458,-0.334450878407699,1.14108696424262,"ssf","mf.ss","gamma","vonmises",500,"ssfOUT_7_2_4_VULTURE","VULTURE",4,0.5,7,"no effect"
"ssfOUT_7_2_4_VULTURE.26",-0.106307308872968,-0.921047840086496,0.708433222340561,"ssf","mf.ss","gamma","unif",5,"ssfOUT_7_2_4_VULTURE","VULTURE",4,0.5,7,"no effect"
"ssfOUT_7_2_4_VULTURE.27",0.269741958807508,-0.490568464355402,1.03005238197042,"ssf","mf.ss","gamma","unif",15,"ssfOUT_7_2_4_VULTURE","VULTURE",4,0.5,7,"no effect"
"ssfOUT_7_2_4_VULTURE.28",0.344430562259245,-0.398649939005326,1.08751106352381,"ssf","mf.ss","gamma","unif",50,"ssfOUT_7_2_4_VULTURE","VULTURE",4,0.5,7,"no effect"
"ssfOUT_7_2_4_VULTURE.29",0.383372424434254,-0.357894536754823,1.12463938562333,"ssf","mf.ss","gamma","unif",158,"ssfOUT_7_2_4_VULTURE","VULTURE",4,0.5,7,"no effect"
"ssfOUT_7_2_4_VULTURE.30",0.367569681874208,-0.368893930758475,1.10403329450689,"ssf","mf.ss","gamma","unif",500,"ssfOUT_7_2_4_VULTURE","VULTURE",4,0.5,7,"no effect"
"ssfOUT_7_2_4_VULTURE.31",0.732417799618187,-0.0511072807114417,1.51594287994782,"ssf","mf.ss","exp","vonmises",5,"ssfOUT_7_2_4_VULTURE","VULTURE",4,0.5,7,"no effect"
"ssfOUT_7_2_4_VULTURE.32",0.549117097150551,-0.221414011577157,1.31964820587826,"ssf","mf.ss","exp","vonmises",15,"ssfOUT_7_2_4_VULTURE","VULTURE",4,0.5,7,"no effect"
"ssfOUT_7_2_4_VULTURE.33",0.348940267684703,-0.39198806574524,1.08986860111465,"ssf","mf.ss","exp","vonmises",50,"ssfOUT_7_2_4_VULTURE","VULTURE",4,0.5,7,"no effect"
"ssfOUT_7_2_4_VULTURE.34",0.451584861515787,-0.289808465621156,1.19297818865273,"ssf","mf.ss","exp","vonmises",158,"ssfOUT_7_2_4_VULTURE","VULTURE",4,0.5,7,"no effect"
"ssfOUT_7_2_4_VULTURE.35",0.405681231021371,-0.337468994017641,1.14883145606038,"ssf","mf.ss","exp","vonmises",500,"ssfOUT_7_2_4_VULTURE","VULTURE",4,0.5,7,"no effect"
"ssfOUT_7_2_4_VULTURE.36",-0.378459053269488,-1.2300018399345,0.473083733395524,"ssf","mf.ss","exp","unif",5,"ssfOUT_7_2_4_VULTURE","VULTURE",4,0.5,7,"no effect"
"ssfOUT_7_2_4_VULTURE.37",0.205984701423077,-0.558097118067003,0.970066520913158,"ssf","mf.ss","exp","unif",15,"ssfOUT_7_2_4_VULTURE","VULTURE",4,0.5,7,"no effect"
"ssfOUT_7_2_4_VULTURE.38",0.340181470362396,-0.407409369856999,1.08777231058179,"ssf","mf.ss","exp","unif",50,"ssfOUT_7_2_4_VULTURE","VULTURE",4,0.5,7,"no effect"
"ssfOUT_7_2_4_VULTURE.39",0.521592003059275,-0.218836035491523,1.26202004161007,"ssf","mf.ss","exp","unif",158,"ssfOUT_7_2_4_VULTURE","VULTURE",4,0.5,7,"no effect"
"ssfOUT_7_2_4_VULTURE.40",0.418390437151324,-0.323636950747945,1.16041782505059,"ssf","mf.ss","exp","unif",500,"ssfOUT_7_2_4_VULTURE","VULTURE",4,0.5,7,"no effect"
"ssfOUT_7_2_4_KINGCOBRA.1",16.0086260373087,-3478.33192875554,3510.34918083016,"ssf","mf.is","gamma","vonmises",5,"ssfOUT_7_2_4_KINGCOBRA","KINGCOBRA",4,0.5,7,"no effect"
"ssfOUT_7_2_4_KINGCOBRA.2",17.0383800360652,-4554.52824036593,4588.60500043806,"ssf","mf.is","gamma","vonmises",15,"ssfOUT_7_2_4_KINGCOBRA","KINGCOBRA",4,0.5,7,"no effect"
"ssfOUT_7_2_4_KINGCOBRA.3",15.8288190325273,-2641.70676649903,2673.36440456408,"ssf","mf.is","gamma","vonmises",50,"ssfOUT_7_2_4_KINGCOBRA","KINGCOBRA",4,0.5,7,"no effect"
"ssfOUT_7_2_4_KINGCOBRA.4",15.7547503557998,-3062.28693952177,3093.79644023337,"ssf","mf.is","gamma","vonmises",158,"ssfOUT_7_2_4_KINGCOBRA","KINGCOBRA",4,0.5,7,"no effect"
"ssfOUT_7_2_4_KINGCOBRA.5",14.7951947693808,-1856.99606561954,1886.58645515831,"ssf","mf.is","gamma","vonmises",500,"ssfOUT_7_2_4_KINGCOBRA","KINGCOBRA",4,0.5,7,"no effect"
"ssfOUT_7_2_4_KINGCOBRA.6",16.8679763576425,-4949.97840401746,4983.71435673275,"ssf","mf.is","gamma","unif",5,"ssfOUT_7_2_4_KINGCOBRA","KINGCOBRA",4,0.5,7,"no effect"
"ssfOUT_7_2_4_KINGCOBRA.7",15.7332195982106,-3290.38518115455,3321.85162035097,"ssf","mf.is","gamma","unif",15,"ssfOUT_7_2_4_KINGCOBRA","KINGCOBRA",4,0.5,7,"no effect"
"ssfOUT_7_2_4_KINGCOBRA.8",15.963646936026,-2894.37569268443,2926.30298655649,"ssf","mf.is","gamma","unif",50,"ssfOUT_7_2_4_KINGCOBRA","KINGCOBRA",4,0.5,7,"no effect"
"ssfOUT_7_2_4_KINGCOBRA.9",15.8767440808563,-3103.53645164622,3135.28993980793,"ssf","mf.is","gamma","unif",158,"ssfOUT_7_2_4_KINGCOBRA","KINGCOBRA",4,0.5,7,"no effect"
"ssfOUT_7_2_4_KINGCOBRA.10",14.7731109594079,-1843.52586382302,1873.07208574184,"ssf","mf.is","gamma","unif",500,"ssfOUT_7_2_4_KINGCOBRA","KINGCOBRA",4,0.5,7,"no effect"
"ssfOUT_7_2_4_KINGCOBRA.11",15.6245539435708,-3961.30590168706,3992.5550095742,"ssf","mf.is","exp","vonmises",5,"ssfOUT_7_2_4_KINGCOBRA","KINGCOBRA",4,0.5,7,"no effect"
"ssfOUT_7_2_4_KINGCOBRA.12",16.1885171239326,-3995.10704685434,4027.4840811022,"ssf","mf.is","exp","vonmises",15,"ssfOUT_7_2_4_KINGCOBRA","KINGCOBRA",4,0.5,7,"no effect"
"ssfOUT_7_2_4_KINGCOBRA.13",16.6081939795668,-3861.3220179802,3894.53840593933,"ssf","mf.is","exp","vonmises",50,"ssfOUT_7_2_4_KINGCOBRA","KINGCOBRA",4,0.5,7,"no effect"
"ssfOUT_7_2_4_KINGCOBRA.14",15.3686076775612,-2357.10768458309,2387.84489993821,"ssf","mf.is","exp","vonmises",158,"ssfOUT_7_2_4_KINGCOBRA","KINGCOBRA",4,0.5,7,"no effect"
"ssfOUT_7_2_4_KINGCOBRA.15",15.6594033297848,-3076.50088538694,3107.81969204651,"ssf","mf.is","exp","vonmises",500,"ssfOUT_7_2_4_KINGCOBRA","KINGCOBRA",4,0.5,7,"no effect"
"ssfOUT_7_2_4_KINGCOBRA.16",17.3456086948017,-4970.4675639956,5005.15878138521,"ssf","mf.is","exp","unif",5,"ssfOUT_7_2_4_KINGCOBRA","KINGCOBRA",4,0.5,7,"no effect"
"ssfOUT_7_2_4_KINGCOBRA.17",16.326184547911,-4070.79038549074,4103.44275458656,"ssf","mf.is","exp","unif",15,"ssfOUT_7_2_4_KINGCOBRA","KINGCOBRA",4,0.5,7,"no effect"
"ssfOUT_7_2_4_KINGCOBRA.18",16.5008632186052,-3324.12935653174,3357.13108296895,"ssf","mf.is","exp","unif",50,"ssfOUT_7_2_4_KINGCOBRA","KINGCOBRA",4,0.5,7,"no effect"
"ssfOUT_7_2_4_KINGCOBRA.19",15.6767316389316,-2960.84188031014,2992.195343588,"ssf","mf.is","exp","unif",158,"ssfOUT_7_2_4_KINGCOBRA","KINGCOBRA",4,0.5,7,"no effect"
"ssfOUT_7_2_4_KINGCOBRA.20",15.6278053654942,-2963.75806261761,2995.0136733486,"ssf","mf.is","exp","unif",500,"ssfOUT_7_2_4_KINGCOBRA","KINGCOBRA",4,0.5,7,"no effect"
"ssfOUT_7_2_4_KINGCOBRA.21",16.0385470563425,-3463.57966259398,3495.65675670666,"ssf","mf.ss","gamma","vonmises",5,"ssfOUT_7_2_4_KINGCOBRA","KINGCOBRA",4,0.5,7,"no effect"
"ssfOUT_7_2_4_KINGCOBRA.22",16.0968271463215,-2743.13378149982,2775.32743579246,"ssf","mf.ss","gamma","vonmises",15,"ssfOUT_7_2_4_KINGCOBRA","KINGCOBRA",4,0.5,7,"no effect"
"ssfOUT_7_2_4_KINGCOBRA.23",15.9066420393754,-2625.23491913386,2657.04820321261,"ssf","mf.ss","gamma","vonmises",50,"ssfOUT_7_2_4_KINGCOBRA","KINGCOBRA",4,0.5,7,"no effect"
"ssfOUT_7_2_4_KINGCOBRA.24",15.8312917825066,-3049.85703853631,3081.51962210132,"ssf","mf.ss","gamma","vonmises",158,"ssfOUT_7_2_4_KINGCOBRA","KINGCOBRA",4,0.5,7,"no effect"
"ssfOUT_7_2_4_KINGCOBRA.25",14.8509994320112,-1853.24281861058,1882.94481747461,"ssf","mf.ss","gamma","vonmises",500,"ssfOUT_7_2_4_KINGCOBRA","KINGCOBRA",4,0.5,7,"no effect"
"ssfOUT_7_2_4_KINGCOBRA.26",16.9337316616,-4897.39384051567,4931.26130383887,"ssf","mf.ss","gamma","unif",5,"ssfOUT_7_2_4_KINGCOBRA","KINGCOBRA",4,0.5,7,"no effect"
"ssfOUT_7_2_4_KINGCOBRA.27",15.7738158948735,-3308.60779559963,3340.15542738938,"ssf","mf.ss","gamma","unif",15,"ssfOUT_7_2_4_KINGCOBRA","KINGCOBRA",4,0.5,7,"no effect"
"ssfOUT_7_2_4_KINGCOBRA.28",15.9943392170474,-2893.42377487492,2925.41245330901,"ssf","mf.ss","gamma","unif",50,"ssfOUT_7_2_4_KINGCOBRA","KINGCOBRA",4,0.5,7,"no effect"
"ssfOUT_7_2_4_KINGCOBRA.29",15.8967401190284,-3082.62732575137,3114.42080598943,"ssf","mf.ss","gamma","unif",158,"ssfOUT_7_2_4_KINGCOBRA","KINGCOBRA",4,0.5,7,"no effect"
"ssfOUT_7_2_4_KINGCOBRA.30",14.8224570082606,-1838.98003273809,1868.62494675461,"ssf","mf.ss","gamma","unif",500,"ssfOUT_7_2_4_KINGCOBRA","KINGCOBRA",4,0.5,7,"no effect"
"ssfOUT_7_2_4_KINGCOBRA.31",15.9989790599436,-3864.14701503061,3896.14497315049,"ssf","mf.ss","exp","vonmises",5,"ssfOUT_7_2_4_KINGCOBRA","KINGCOBRA",4,0.5,7,"no effect"
"ssfOUT_7_2_4_KINGCOBRA.32",15.8187558554521,-2899.25220221173,2930.88971392263,"ssf","mf.ss","exp","vonmises",15,"ssfOUT_7_2_4_KINGCOBRA","KINGCOBRA",4,0.5,7,"no effect"
"ssfOUT_7_2_4_KINGCOBRA.33",15.8282627258651,-2906.4772842817,2938.13380973343,"ssf","mf.ss","exp","vonmises",50,"ssfOUT_7_2_4_KINGCOBRA","KINGCOBRA",4,0.5,7,"no effect"
"ssfOUT_7_2_4_KINGCOBRA.34",15.7869921400118,-2858.08824998111,2889.66223426114,"ssf","mf.ss","exp","vonmises",158,"ssfOUT_7_2_4_KINGCOBRA","KINGCOBRA",4,0.5,7,"no effect"
"ssfOUT_7_2_4_KINGCOBRA.35",15.7709005893716,-2917.96969053686,2949.5114917156,"ssf","mf.ss","exp","vonmises",500,"ssfOUT_7_2_4_KINGCOBRA","KINGCOBRA",4,0.5,7,"no effect"
"ssfOUT_7_2_4_KINGCOBRA.36",17.0069024052616,-5330.32468521247,5364.33849002299,"ssf","mf.ss","exp","unif",5,"ssfOUT_7_2_4_KINGCOBRA","KINGCOBRA",4,0.5,7,"no effect"
"ssfOUT_7_2_4_KINGCOBRA.37",15.9244485196467,-3497.7415234293,3529.5904204686,"ssf","mf.ss","exp","unif",15,"ssfOUT_7_2_4_KINGCOBRA","KINGCOBRA",4,0.5,7,"no effect"
"ssfOUT_7_2_4_KINGCOBRA.38",15.8052359124227,-2976.36853658486,3007.9790084097,"ssf","mf.ss","exp","unif",50,"ssfOUT_7_2_4_KINGCOBRA","KINGCOBRA",4,0.5,7,"no effect"
"ssfOUT_7_2_4_KINGCOBRA.39",15.7796834961907,-2892.58566116778,2924.14502816016,"ssf","mf.ss","exp","unif",158,"ssfOUT_7_2_4_KINGCOBRA","KINGCOBRA",4,0.5,7,"no effect"
"ssfOUT_7_2_4_KINGCOBRA.40",15.7839303352385,-2941.95516772292,2973.5230283934,"ssf","mf.ss","exp","unif",500,"ssfOUT_7_2_4_KINGCOBRA","KINGCOBRA",4,0.5,7,"no effect"
"ssfOUT_15_0.5_1_BADGER.1",-0.454618262176228,-0.954071353707026,0.0448348293545696,"ssf","mf.is","gamma","vonmises",5,"ssfOUT_15_0.5_1_BADGER","BADGER",1,2,15,"no effect"
"ssfOUT_15_0.5_1_BADGER.2",-0.253142828998054,-0.712692319169356,0.206406661173248,"ssf","mf.is","gamma","vonmises",15,"ssfOUT_15_0.5_1_BADGER","BADGER",1,2,15,"no effect"
"ssfOUT_15_0.5_1_BADGER.3",-0.0922709507703159,-0.533867381877136,0.349325480336505,"ssf","mf.is","gamma","vonmises",50,"ssfOUT_15_0.5_1_BADGER","BADGER",1,2,15,"no effect"
"ssfOUT_15_0.5_1_BADGER.4",-0.00935081402234582,-0.455656948169552,0.43695532012486,"ssf","mf.is","gamma","vonmises",158,"ssfOUT_15_0.5_1_BADGER","BADGER",1,2,15,"no effect"
"ssfOUT_15_0.5_1_BADGER.5",-0.0360522603145983,-0.479367612183199,0.407263091554003,"ssf","mf.is","gamma","vonmises",500,"ssfOUT_15_0.5_1_BADGER","BADGER",1,2,15,"no effect"
"ssfOUT_15_0.5_1_BADGER.6",0.0632952281600777,-0.40349807076055,0.530088527080706,"ssf","mf.is","gamma","unif",5,"ssfOUT_15_0.5_1_BADGER","BADGER",1,2,15,"no effect"
"ssfOUT_15_0.5_1_BADGER.7",0.0855591519997934,-0.362317709098317,0.533436013097904,"ssf","mf.is","gamma","unif",15,"ssfOUT_15_0.5_1_BADGER","BADGER",1,2,15,"no effect"
"ssfOUT_15_0.5_1_BADGER.8",-0.0289770478229852,-0.472686013417209,0.414731917771239,"ssf","mf.is","gamma","unif",50,"ssfOUT_15_0.5_1_BADGER","BADGER",1,2,15,"no effect"
"ssfOUT_15_0.5_1_BADGER.9",-0.0346987718596372,-0.474490198411268,0.405092654691994,"ssf","mf.is","gamma","unif",158,"ssfOUT_15_0.5_1_BADGER","BADGER",1,2,15,"no effect"
"ssfOUT_15_0.5_1_BADGER.10",-0.0438524215384706,-0.485727424662425,0.398022581585484,"ssf","mf.is","gamma","unif",500,"ssfOUT_15_0.5_1_BADGER","BADGER",1,2,15,"no effect"
"ssfOUT_15_0.5_1_BADGER.11",-0.0297671819696401,-0.545847133893721,0.486312769954441,"ssf","mf.is","exp","vonmises",5,"ssfOUT_15_0.5_1_BADGER","BADGER",1,2,15,"no effect"
"ssfOUT_15_0.5_1_BADGER.12",0.0478303120920069,-0.429114518322506,0.52477514250652,"ssf","mf.is","exp","vonmises",15,"ssfOUT_15_0.5_1_BADGER","BADGER",1,2,15,"no effect"
"ssfOUT_15_0.5_1_BADGER.13",-0.23121033233722,-0.676067874550303,0.213647209875862,"ssf","mf.is","exp","vonmises",50,"ssfOUT_15_0.5_1_BADGER","BADGER",1,2,15,"no effect"
"ssfOUT_15_0.5_1_BADGER.14",-0.0737828705139515,-0.526777612356386,0.379211871328483,"ssf","mf.is","exp","vonmises",158,"ssfOUT_15_0.5_1_BADGER","BADGER",1,2,15,"no effect"
"ssfOUT_15_0.5_1_BADGER.15",-0.031357451908775,-0.472850035333058,0.410135131515508,"ssf","mf.is","exp","vonmises",500,"ssfOUT_15_0.5_1_BADGER","BADGER",1,2,15,"no effect"
"ssfOUT_15_0.5_1_BADGER.16",-0.503002398236328,-1.01442579917544,0.00842100270278001,"ssf","mf.is","exp","unif",5,"ssfOUT_15_0.5_1_BADGER","BADGER",1,2,15,"no effect"
"ssfOUT_15_0.5_1_BADGER.17",-0.188613265508935,-0.656569120761644,0.279342589743774,"ssf","mf.is","exp","unif",15,"ssfOUT_15_0.5_1_BADGER","BADGER",1,2,15,"no effect"
"ssfOUT_15_0.5_1_BADGER.18",0.162616132892393,-0.295407823531065,0.620640089315851,"ssf","mf.is","exp","unif",50,"ssfOUT_15_0.5_1_BADGER","BADGER",1,2,15,"no effect"
"ssfOUT_15_0.5_1_BADGER.19",-0.128064673225691,-0.572988698040646,0.316859351589263,"ssf","mf.is","exp","unif",158,"ssfOUT_15_0.5_1_BADGER","BADGER",1,2,15,"no effect"
"ssfOUT_15_0.5_1_BADGER.20",-0.0571756809844251,-0.505332635582399,0.390981273613549,"ssf","mf.is","exp","unif",500,"ssfOUT_15_0.5_1_BADGER","BADGER",1,2,15,"no effect"
"ssfOUT_15_0.5_1_BADGER.21",-0.450042377348214,-0.949108829315624,0.049024074619196,"ssf","mf.ss","gamma","vonmises",5,"ssfOUT_15_0.5_1_BADGER","BADGER",1,2,15,"no effect"
"ssfOUT_15_0.5_1_BADGER.22",-0.253255073507349,-0.712944207996203,0.206434060981505,"ssf","mf.ss","gamma","vonmises",15,"ssfOUT_15_0.5_1_BADGER","BADGER",1,2,15,"no effect"
"ssfOUT_15_0.5_1_BADGER.23",-0.0933401386199656,-0.535087300437692,0.348407023197761,"ssf","mf.ss","gamma","vonmises",50,"ssfOUT_15_0.5_1_BADGER","BADGER",1,2,15,"no effect"
"ssfOUT_15_0.5_1_BADGER.24",-0.00868978887721252,-0.455259161324902,0.437879583570477,"ssf","mf.ss","gamma","vonmises",158,"ssfOUT_15_0.5_1_BADGER","BADGER",1,2,15,"no effect"
"ssfOUT_15_0.5_1_BADGER.25",-0.0360868941643856,-0.479520510623062,0.407346722294291,"ssf","mf.ss","gamma","vonmises",500,"ssfOUT_15_0.5_1_BADGER","BADGER",1,2,15,"no effect"
"ssfOUT_15_0.5_1_BADGER.26",0.0848579154858008,-0.380915668963775,0.550631499935376,"ssf","mf.ss","gamma","unif",5,"ssfOUT_15_0.5_1_BADGER","BADGER",1,2,15,"no effect"
"ssfOUT_15_0.5_1_BADGER.27",0.0921464684183861,-0.354233327024524,0.538526263861296,"ssf","mf.ss","gamma","unif",15,"ssfOUT_15_0.5_1_BADGER","BADGER",1,2,15,"no effect"
"ssfOUT_15_0.5_1_BADGER.28",-0.0255569567205739,-0.468853524415981,0.417739610974833,"ssf","mf.ss","gamma","unif",50,"ssfOUT_15_0.5_1_BADGER","BADGER",1,2,15,"no effect"
"ssfOUT_15_0.5_1_BADGER.29",-0.0295003506311933,-0.46871607501413,0.409715373751743,"ssf","mf.ss","gamma","unif",158,"ssfOUT_15_0.5_1_BADGER","BADGER",1,2,15,"no effect"
"ssfOUT_15_0.5_1_BADGER.30",-0.039440199455059,-0.481376025027864,0.402495626117746,"ssf","mf.ss","gamma","unif",500,"ssfOUT_15_0.5_1_BADGER","BADGER",1,2,15,"no effect"
"ssfOUT_15_0.5_1_BADGER.31",-0.0931253606012853,-0.570927820365551,0.38467709916298,"ssf","mf.ss","exp","vonmises",5,"ssfOUT_15_0.5_1_BADGER","BADGER",1,2,15,"no effect"
"ssfOUT_15_0.5_1_BADGER.32",-0.0311712658720295,-0.490121764133825,0.427779232389766,"ssf","mf.ss","exp","vonmises",15,"ssfOUT_15_0.5_1_BADGER","BADGER",1,2,15,"no effect"
"ssfOUT_15_0.5_1_BADGER.33",-0.237916244315979,-0.682583841509889,0.206751352877931,"ssf","mf.ss","exp","vonmises",50,"ssfOUT_15_0.5_1_BADGER","BADGER",1,2,15,"no effect"
"ssfOUT_15_0.5_1_BADGER.34",-0.0967435099936222,-0.540459131228023,0.346972111240779,"ssf","mf.ss","exp","vonmises",158,"ssfOUT_15_0.5_1_BADGER","BADGER",1,2,15,"no effect"
"ssfOUT_15_0.5_1_BADGER.35",-0.113280846566237,-0.552064678684019,0.325502985551544,"ssf","mf.ss","exp","vonmises",500,"ssfOUT_15_0.5_1_BADGER","BADGER",1,2,15,"no effect"
"ssfOUT_15_0.5_1_BADGER.36",-0.35092387060005,-0.852266657239434,0.150418916039334,"ssf","mf.ss","exp","unif",5,"ssfOUT_15_0.5_1_BADGER","BADGER",1,2,15,"no effect"
"ssfOUT_15_0.5_1_BADGER.37",-0.233999150192964,-0.688676996365838,0.22067869597991,"ssf","mf.ss","exp","unif",15,"ssfOUT_15_0.5_1_BADGER","BADGER",1,2,15,"no effect"
"ssfOUT_15_0.5_1_BADGER.38",0.00542368424041291,-0.44400548865698,0.454852857137806,"ssf","mf.ss","exp","unif",50,"ssfOUT_15_0.5_1_BADGER","BADGER",1,2,15,"no effect"
"ssfOUT_15_0.5_1_BADGER.39",-0.106493083037156,-0.549085273156491,0.336099107082178,"ssf","mf.ss","exp","unif",158,"ssfOUT_15_0.5_1_BADGER","BADGER",1,2,15,"no effect"
"ssfOUT_15_0.5_1_BADGER.40",-0.12600403991331,-0.567829064124558,0.315820984297938,"ssf","mf.ss","exp","unif",500,"ssfOUT_15_0.5_1_BADGER","BADGER",1,2,15,"no effect"
"ssfOUT_15_0.5_1_VULTURE.1",0.289084593699261,-0.15293498321642,0.731104170614942,"ssf","mf.is","gamma","vonmises",5,"ssfOUT_15_0.5_1_VULTURE","VULTURE",1,2,15,"no effect"
"ssfOUT_15_0.5_1_VULTURE.2",0.0637439270866103,-0.359170729798343,0.486658583971563,"ssf","mf.is","gamma","vonmises",15,"ssfOUT_15_0.5_1_VULTURE","VULTURE",1,2,15,"no effect"
"ssfOUT_15_0.5_1_VULTURE.3",0.147319737514571,-0.276685289065377,0.571324764094518,"ssf","mf.is","gamma","vonmises",50,"ssfOUT_15_0.5_1_VULTURE","VULTURE",1,2,15,"no effect"
"ssfOUT_15_0.5_1_VULTURE.4",0.146020820720409,-0.268075855313799,0.560117496754617,"ssf","mf.is","gamma","vonmises",158,"ssfOUT_15_0.5_1_VULTURE","VULTURE",1,2,15,"no effect"
"ssfOUT_15_0.5_1_VULTURE.5",0.158770817461178,-0.25543800576919,0.572979640691545,"ssf","mf.is","gamma","vonmises",500,"ssfOUT_15_0.5_1_VULTURE","VULTURE",1,2,15,"no effect"
"ssfOUT_15_0.5_1_VULTURE.6",0.505544930199785,0.0633776518502863,0.947712208549284,"ssf","mf.is","gamma","unif",5,"ssfOUT_15_0.5_1_VULTURE","VULTURE",1,2,15,"preference"
"ssfOUT_15_0.5_1_VULTURE.7",0.00577933674154181,-0.420186800708609,0.431745474191693,"ssf","mf.is","gamma","unif",15,"ssfOUT_15_0.5_1_VULTURE","VULTURE",1,2,15,"no effect"
"ssfOUT_15_0.5_1_VULTURE.8",0.153660587025103,-0.258803442096383,0.566124616146589,"ssf","mf.is","gamma","unif",50,"ssfOUT_15_0.5_1_VULTURE","VULTURE",1,2,15,"no effect"
"ssfOUT_15_0.5_1_VULTURE.9",0.172043377243038,-0.243881643037972,0.587968397524049,"ssf","mf.is","gamma","unif",158,"ssfOUT_15_0.5_1_VULTURE","VULTURE",1,2,15,"no effect"
"ssfOUT_15_0.5_1_VULTURE.10",0.170109144892752,-0.24446486171844,0.584683151503943,"ssf","mf.is","gamma","unif",500,"ssfOUT_15_0.5_1_VULTURE","VULTURE",1,2,15,"no effect"
"ssfOUT_15_0.5_1_VULTURE.11",0.451342012695272,0.00520129590203872,0.897482729488505,"ssf","mf.is","exp","vonmises",5,"ssfOUT_15_0.5_1_VULTURE","VULTURE",1,2,15,"preference"
"ssfOUT_15_0.5_1_VULTURE.12",0.122948582731148,-0.300240457567151,0.546137623029446,"ssf","mf.is","exp","vonmises",15,"ssfOUT_15_0.5_1_VULTURE","VULTURE",1,2,15,"no effect"
"ssfOUT_15_0.5_1_VULTURE.13",0.207813590323119,-0.212158701740984,0.627785882387222,"ssf","mf.is","exp","vonmises",50,"ssfOUT_15_0.5_1_VULTURE","VULTURE",1,2,15,"no effect"
"ssfOUT_15_0.5_1_VULTURE.14",0.0868634801673434,-0.332375211932069,0.506102172266756,"ssf","mf.is","exp","vonmises",158,"ssfOUT_15_0.5_1_VULTURE","VULTURE",1,2,15,"no effect"
"ssfOUT_15_0.5_1_VULTURE.15",0.121341126720316,-0.292284621068371,0.534966874509003,"ssf","mf.is","exp","vonmises",500,"ssfOUT_15_0.5_1_VULTURE","VULTURE",1,2,15,"no effect"
"ssfOUT_15_0.5_1_VULTURE.16",-0.0582347004912953,-0.510551132864932,0.394081731882342,"ssf","mf.is","exp","unif",5,"ssfOUT_15_0.5_1_VULTURE","VULTURE",1,2,15,"no effect"
"ssfOUT_15_0.5_1_VULTURE.17",0.166666251965489,-0.257187290780704,0.590519794711681,"ssf","mf.is","exp","unif",15,"ssfOUT_15_0.5_1_VULTURE","VULTURE",1,2,15,"no effect"
"ssfOUT_15_0.5_1_VULTURE.18",0.127257188650872,-0.291662100868838,0.546176478170581,"ssf","mf.is","exp","unif",50,"ssfOUT_15_0.5_1_VULTURE","VULTURE",1,2,15,"no effect"
"ssfOUT_15_0.5_1_VULTURE.19",0.119801277733627,-0.295363289834455,0.534965845301709,"ssf","mf.is","exp","unif",158,"ssfOUT_15_0.5_1_VULTURE","VULTURE",1,2,15,"no effect"
"ssfOUT_15_0.5_1_VULTURE.20",0.136368069198162,-0.27787045066304,0.550606589059364,"ssf","mf.is","exp","unif",500,"ssfOUT_15_0.5_1_VULTURE","VULTURE",1,2,15,"no effect"
"ssfOUT_15_0.5_1_VULTURE.21",0.291081795921136,-0.150535001293639,0.732698593135911,"ssf","mf.ss","gamma","vonmises",5,"ssfOUT_15_0.5_1_VULTURE","VULTURE",1,2,15,"no effect"
"ssfOUT_15_0.5_1_VULTURE.22",0.0566322795999623,-0.366120451177962,0.479385010377887,"ssf","mf.ss","gamma","vonmises",15,"ssfOUT_15_0.5_1_VULTURE","VULTURE",1,2,15,"no effect"
"ssfOUT_15_0.5_1_VULTURE.23",0.118751885818367,-0.305343253718223,0.542847025354957,"ssf","mf.ss","gamma","vonmises",50,"ssfOUT_15_0.5_1_VULTURE","VULTURE",1,2,15,"no effect"
"ssfOUT_15_0.5_1_VULTURE.24",0.133478197469455,-0.280230872454729,0.547187267393638,"ssf","mf.ss","gamma","vonmises",158,"ssfOUT_15_0.5_1_VULTURE","VULTURE",1,2,15,"no effect"
"ssfOUT_15_0.5_1_VULTURE.25",0.134508711728501,-0.279338901211401,0.548356324668404,"ssf","mf.ss","gamma","vonmises",500,"ssfOUT_15_0.5_1_VULTURE","VULTURE",1,2,15,"no effect"
"ssfOUT_15_0.5_1_VULTURE.26",0.499468795250781,0.0563866689053587,0.942550921596203,"ssf","mf.ss","gamma","unif",5,"ssfOUT_15_0.5_1_VULTURE","VULTURE",1,2,15,"preference"
"ssfOUT_15_0.5_1_VULTURE.27",0.0048890265911207,-0.420380408458256,0.430158461640497,"ssf","mf.ss","gamma","unif",15,"ssfOUT_15_0.5_1_VULTURE","VULTURE",1,2,15,"no effect"
"ssfOUT_15_0.5_1_VULTURE.28",0.143022306812761,-0.269606455069142,0.555651068694664,"ssf","mf.ss","gamma","unif",50,"ssfOUT_15_0.5_1_VULTURE","VULTURE",1,2,15,"no effect"
"ssfOUT_15_0.5_1_VULTURE.29",0.164442947865376,-0.251333511210375,0.580219406941127,"ssf","mf.ss","gamma","unif",158,"ssfOUT_15_0.5_1_VULTURE","VULTURE",1,2,15,"no effect"
"ssfOUT_15_0.5_1_VULTURE.30",0.16066266272754,-0.253751594754443,0.575076920209524,"ssf","mf.ss","gamma","unif",500,"ssfOUT_15_0.5_1_VULTURE","VULTURE",1,2,15,"no effect"
"ssfOUT_15_0.5_1_VULTURE.31",0.378074287858363,-0.0695085039491631,0.825657079665889,"ssf","mf.ss","exp","vonmises",5,"ssfOUT_15_0.5_1_VULTURE","VULTURE",1,2,15,"no effect"
"ssfOUT_15_0.5_1_VULTURE.32",0.101058181759577,-0.323538574425483,0.525654937944637,"ssf","mf.ss","exp","vonmises",15,"ssfOUT_15_0.5_1_VULTURE","VULTURE",1,2,15,"no effect"
"ssfOUT_15_0.5_1_VULTURE.33",0.217325668678922,-0.208362563708248,0.643013901066092,"ssf","mf.ss","exp","vonmises",50,"ssfOUT_15_0.5_1_VULTURE","VULTURE",1,2,15,"no effect"
"ssfOUT_15_0.5_1_VULTURE.34",0.0921558987296467,-0.329433202485409,0.513744999944702,"ssf","mf.ss","exp","vonmises",158,"ssfOUT_15_0.5_1_VULTURE","VULTURE",1,2,15,"no effect"
"ssfOUT_15_0.5_1_VULTURE.35",0.141699085733033,-0.275333799561782,0.558731971027848,"ssf","mf.ss","exp","vonmises",500,"ssfOUT_15_0.5_1_VULTURE","VULTURE",1,2,15,"no effect"
"ssfOUT_15_0.5_1_VULTURE.36",0.0509805798115917,-0.387905232711528,0.489866392334711,"ssf","mf.ss","exp","unif",5,"ssfOUT_15_0.5_1_VULTURE","VULTURE",1,2,15,"no effect"
"ssfOUT_15_0.5_1_VULTURE.37",0.162114929388372,-0.263066675602831,0.587296534379576,"ssf","mf.ss","exp","unif",15,"ssfOUT_15_0.5_1_VULTURE","VULTURE",1,2,15,"no effect"
"ssfOUT_15_0.5_1_VULTURE.38",0.159314720574157,-0.263361844864686,0.581991286013,"ssf","mf.ss","exp","unif",50,"ssfOUT_15_0.5_1_VULTURE","VULTURE",1,2,15,"no effect"
"ssfOUT_15_0.5_1_VULTURE.39",0.136055959984668,-0.281850685066153,0.553962605035489,"ssf","mf.ss","exp","unif",158,"ssfOUT_15_0.5_1_VULTURE","VULTURE",1,2,15,"no effect"
"ssfOUT_15_0.5_1_VULTURE.40",0.140418865704218,-0.277418401622273,0.558256133030709,"ssf","mf.ss","exp","unif",500,"ssfOUT_15_0.5_1_VULTURE","VULTURE",1,2,15,"no effect"
"ssfOUT_15_0.5_1_KINGCOBRA.1",14.6724821809576,-1165.70260312341,1195.04756748532,"ssf","mf.is","gamma","vonmises",5,"ssfOUT_15_0.5_1_KINGCOBRA","KINGCOBRA",1,2,15,"no effect"
"ssfOUT_15_0.5_1_KINGCOBRA.2",14.5167384803466,-1272.1142219441,1301.14769890479,"ssf","mf.is","gamma","vonmises",15,"ssfOUT_15_0.5_1_KINGCOBRA","KINGCOBRA",1,2,15,"no effect"
"ssfOUT_15_0.5_1_KINGCOBRA.3",14.5126817564124,-1210.72086859128,1239.7462321041,"ssf","mf.is","gamma","vonmises",50,"ssfOUT_15_0.5_1_KINGCOBRA","KINGCOBRA",1,2,15,"no effect"
"ssfOUT_15_0.5_1_KINGCOBRA.4",13.4379343446736,-688.00506104789,714.880929737237,"ssf","mf.is","gamma","vonmises",158,"ssfOUT_15_0.5_1_KINGCOBRA","KINGCOBRA",1,2,15,"no effect"
"ssfOUT_15_0.5_1_KINGCOBRA.5",13.4696274819314,-678.98841768506,705.927672648923,"ssf","mf.is","gamma","vonmises",500,"ssfOUT_15_0.5_1_KINGCOBRA","KINGCOBRA",1,2,15,"no effect"
"ssfOUT_15_0.5_1_KINGCOBRA.6",14.7954611891135,-1264.27634261519,1293.86726499342,"ssf","mf.is","gamma","unif",5,"ssfOUT_15_0.5_1_KINGCOBRA","KINGCOBRA",1,2,15,"no effect"
"ssfOUT_15_0.5_1_KINGCOBRA.7",14.4798213494019,-1239.27893734923,1268.23858004803,"ssf","mf.is","gamma","unif",15,"ssfOUT_15_0.5_1_KINGCOBRA","KINGCOBRA",1,2,15,"no effect"
"ssfOUT_15_0.5_1_KINGCOBRA.8",13.4670234888071,-782.050702278248,808.984749255862,"ssf","mf.is","gamma","unif",50,"ssfOUT_15_0.5_1_KINGCOBRA","KINGCOBRA",1,2,15,"no effect"
"ssfOUT_15_0.5_1_KINGCOBRA.9",14.43892473985,-1078.70880763864,1107.58665711834,"ssf","mf.is","gamma","unif",158,"ssfOUT_15_0.5_1_KINGCOBRA","KINGCOBRA",1,2,15,"no effect"
"ssfOUT_15_0.5_1_KINGCOBRA.10",13.4560159055191,-684.409500220848,711.321532031886,"ssf","mf.is","gamma","unif",500,"ssfOUT_15_0.5_1_KINGCOBRA","KINGCOBRA",1,2,15,"no effect"
"ssfOUT_15_0.5_1_KINGCOBRA.11",14.8285068350132,-1847.46113973074,1877.11815340077,"ssf","mf.is","exp","vonmises",5,"ssfOUT_15_0.5_1_KINGCOBRA","KINGCOBRA",1,2,15,"no effect"
"ssfOUT_15_0.5_1_KINGCOBRA.12",13.730857400518,-1214.68151526653,1242.14323006757,"ssf","mf.is","exp","vonmises",15,"ssfOUT_15_0.5_1_KINGCOBRA","KINGCOBRA",1,2,15,"no effect"
"ssfOUT_15_0.5_1_KINGCOBRA.13",13.9362124015687,-1041.09440394324,1068.96682874638,"ssf","mf.is","exp","vonmises",50,"ssfOUT_15_0.5_1_KINGCOBRA","KINGCOBRA",1,2,15,"no effect"
"ssfOUT_15_0.5_1_KINGCOBRA.14",14.4257971201438,-1112.43977427012,1141.29136851041,"ssf","mf.is","exp","vonmises",158,"ssfOUT_15_0.5_1_KINGCOBRA","KINGCOBRA",1,2,15,"no effect"
"ssfOUT_15_0.5_1_KINGCOBRA.15",13.0695803740757,-674.458040833984,700.597201582135,"ssf","mf.is","exp","vonmises",500,"ssfOUT_15_0.5_1_KINGCOBRA","KINGCOBRA",1,2,15,"no effect"
"ssfOUT_15_0.5_1_KINGCOBRA.16",14.467168818502,-1693.3186951513,1722.2530327883,"ssf","mf.is","exp","unif",5,"ssfOUT_15_0.5_1_KINGCOBRA","KINGCOBRA",1,2,15,"no effect"
"ssfOUT_15_0.5_1_KINGCOBRA.17",14.7248793512975,-1695.2739473961,1724.7237060987,"ssf","mf.is","exp","unif",15,"ssfOUT_15_0.5_1_KINGCOBRA","KINGCOBRA",1,2,15,"no effect"
"ssfOUT_15_0.5_1_KINGCOBRA.18",13.9858226391222,-1427.47634552105,1455.44799079929,"ssf","mf.is","exp","unif",50,"ssfOUT_15_0.5_1_KINGCOBRA","KINGCOBRA",1,2,15,"no effect"
"ssfOUT_15_0.5_1_KINGCOBRA.19",13.5540836734759,-900.783925949359,927.892093296311,"ssf","mf.is","exp","unif",158,"ssfOUT_15_0.5_1_KINGCOBRA","KINGCOBRA",1,2,15,"no effect"
"ssfOUT_15_0.5_1_KINGCOBRA.20",14.7041984637034,-695.599572543452,725.007969470859,"ssf","mf.is","exp","unif",500,"ssfOUT_15_0.5_1_KINGCOBRA","KINGCOBRA",1,2,15,"no effect"
"ssfOUT_15_0.5_1_KINGCOBRA.21",17.1245958098281,-1545.17764572846,1579.42683734812,"ssf","mf.ss","gamma","vonmises",5,"ssfOUT_15_0.5_1_KINGCOBRA","KINGCOBRA",1,2,15,"no effect"
"ssfOUT_15_0.5_1_KINGCOBRA.22",16.5175164913152,-996.152013398261,1029.18704638089,"ssf","mf.ss","gamma","vonmises",15,"ssfOUT_15_0.5_1_KINGCOBRA","KINGCOBRA",1,2,15,"no effect"
"ssfOUT_15_0.5_1_KINGCOBRA.23",15.8615975902573,-955.443034702286,987.1662298828,"ssf","mf.ss","gamma","vonmises",50,"ssfOUT_15_0.5_1_KINGCOBRA","KINGCOBRA",1,2,15,"no effect"
"ssfOUT_15_0.5_1_KINGCOBRA.24",15.7058447935984,-918.681501898496,950.093191485693,"ssf","mf.ss","gamma","vonmises",158,"ssfOUT_15_0.5_1_KINGCOBRA","KINGCOBRA",1,2,15,"no effect"
"ssfOUT_15_0.5_1_KINGCOBRA.25",15.6358005427435,-911.633145226146,942.904746311633,"ssf","mf.ss","gamma","vonmises",500,"ssfOUT_15_0.5_1_KINGCOBRA","KINGCOBRA",1,2,15,"no effect"
"ssfOUT_15_0.5_1_KINGCOBRA.26",16.5197605067025,-1680.33862503539,1713.3781460488,"ssf","mf.ss","gamma","unif",5,"ssfOUT_15_0.5_1_KINGCOBRA","KINGCOBRA",1,2,15,"no effect"
"ssfOUT_15_0.5_1_KINGCOBRA.27",16.0471552342633,-966.042298236031,998.136608704558,"ssf","mf.ss","gamma","unif",15,"ssfOUT_15_0.5_1_KINGCOBRA","KINGCOBRA",1,2,15,"no effect"
"ssfOUT_15_0.5_1_KINGCOBRA.28",15.5969868270951,-1000.33119316324,1031.52516681743,"ssf","mf.ss","gamma","unif",50,"ssfOUT_15_0.5_1_KINGCOBRA","KINGCOBRA",1,2,15,"no effect"
"ssfOUT_15_0.5_1_KINGCOBRA.29",15.7244687864297,-881.577337199863,913.026274772723,"ssf","mf.ss","gamma","unif",158,"ssfOUT_15_0.5_1_KINGCOBRA","KINGCOBRA",1,2,15,"no effect"
"ssfOUT_15_0.5_1_KINGCOBRA.30",15.6975337780819,-914.317664622952,945.712732179116,"ssf","mf.ss","gamma","unif",500,"ssfOUT_15_0.5_1_KINGCOBRA","KINGCOBRA",1,2,15,"no effect"
"ssfOUT_15_0.5_1_KINGCOBRA.31",17.2501283872888,-1393.75867225133,1428.25892902591,"ssf","mf.ss","exp","vonmises",5,"ssfOUT_15_0.5_1_KINGCOBRA","KINGCOBRA",1,2,15,"no effect"
"ssfOUT_15_0.5_1_KINGCOBRA.32",16.0079232504455,-955.824266866614,987.840113367505,"ssf","mf.ss","exp","vonmises",15,"ssfOUT_15_0.5_1_KINGCOBRA","KINGCOBRA",1,2,15,"no effect"
"ssfOUT_15_0.5_1_KINGCOBRA.33",15.7373627223282,-802.064692524636,833.539417969293,"ssf","mf.ss","exp","vonmises",50,"ssfOUT_15_0.5_1_KINGCOBRA","KINGCOBRA",1,2,15,"no effect"
"ssfOUT_15_0.5_1_KINGCOBRA.34",15.6317067088765,-853.081185282889,884.344598700642,"ssf","mf.ss","exp","vonmises",158,"ssfOUT_15_0.5_1_KINGCOBRA","KINGCOBRA",1,2,15,"no effect"
"ssfOUT_15_0.5_1_KINGCOBRA.35",15.6732539432854,-857.578965807838,888.925473694409,"ssf","mf.ss","exp","vonmises",500,"ssfOUT_15_0.5_1_KINGCOBRA","KINGCOBRA",1,2,15,"no effect"
"ssfOUT_15_0.5_1_KINGCOBRA.36",17.6814684687962,-1768.47493325658,1803.83787019417,"ssf","mf.ss","exp","unif",5,"ssfOUT_15_0.5_1_KINGCOBRA","KINGCOBRA",1,2,15,"no effect"
"ssfOUT_15_0.5_1_KINGCOBRA.37",17.0792028862735,-1356.67662638327,1390.83503215582,"ssf","mf.ss","exp","unif",15,"ssfOUT_15_0.5_1_KINGCOBRA","KINGCOBRA",1,2,15,"no effect"
"ssfOUT_15_0.5_1_KINGCOBRA.38",16.0624207830094,-936.129566794919,968.254408360938,"ssf","mf.ss","exp","unif",50,"ssfOUT_15_0.5_1_KINGCOBRA","KINGCOBRA",1,2,15,"no effect"
"ssfOUT_15_0.5_1_KINGCOBRA.39",15.6993309457947,-844.180553255072,875.579215146661,"ssf","mf.ss","exp","unif",158,"ssfOUT_15_0.5_1_KINGCOBRA","KINGCOBRA",1,2,15,"no effect"
"ssfOUT_15_0.5_1_KINGCOBRA.40",15.5659618578973,-819.51421972431,850.646143440105,"ssf","mf.ss","exp","unif",500,"ssfOUT_15_0.5_1_KINGCOBRA","KINGCOBRA",1,2,15,"no effect"
"ssfOUT_15_0.5_2_BADGER.1",0.416337726197424,-0.116952847248472,0.94962829964332,"ssf","mf.is","gamma","vonmises",5,"ssfOUT_15_0.5_2_BADGER","BADGER",2,2,15,"no effect"
"ssfOUT_15_0.5_2_BADGER.2",0.729356913922703,0.197754814665627,1.26095901317978,"ssf","mf.is","gamma","vonmises",15,"ssfOUT_15_0.5_2_BADGER","BADGER",2,2,15,"preference"
"ssfOUT_15_0.5_2_BADGER.3",0.946929278868358,0.416690252144943,1.47716830559177,"ssf","mf.is","gamma","vonmises",50,"ssfOUT_15_0.5_2_BADGER","BADGER",2,2,15,"preference"
"ssfOUT_15_0.5_2_BADGER.4",0.940085317939413,0.416739541424885,1.46343109445394,"ssf","mf.is","gamma","vonmises",158,"ssfOUT_15_0.5_2_BADGER","BADGER",2,2,15,"preference"
"ssfOUT_15_0.5_2_BADGER.5",0.965385521175541,0.444453226839053,1.48631781551203,"ssf","mf.is","gamma","vonmises",500,"ssfOUT_15_0.5_2_BADGER","BADGER",2,2,15,"preference"
"ssfOUT_15_0.5_2_BADGER.6",0.634883036329556,0.10221029106761,1.1675557815915,"ssf","mf.is","gamma","unif",5,"ssfOUT_15_0.5_2_BADGER","BADGER",2,2,15,"preference"
"ssfOUT_15_0.5_2_BADGER.7",0.966144441279045,0.436688307099263,1.49560057545883,"ssf","mf.is","gamma","unif",15,"ssfOUT_15_0.5_2_BADGER","BADGER",2,2,15,"preference"
"ssfOUT_15_0.5_2_BADGER.8",0.95786361962066,0.416119699621095,1.49960753962022,"ssf","mf.is","gamma","unif",50,"ssfOUT_15_0.5_2_BADGER","BADGER",2,2,15,"preference"
"ssfOUT_15_0.5_2_BADGER.9",0.963646124353579,0.435083611436067,1.49220863727109,"ssf","mf.is","gamma","unif",158,"ssfOUT_15_0.5_2_BADGER","BADGER",2,2,15,"preference"
"ssfOUT_15_0.5_2_BADGER.10",0.957742164027572,0.434012246610857,1.48147208144429,"ssf","mf.is","gamma","unif",500,"ssfOUT_15_0.5_2_BADGER","BADGER",2,2,15,"preference"
"ssfOUT_15_0.5_2_BADGER.11",1.02108229803327,0.477384288641608,1.56478030742493,"ssf","mf.is","exp","vonmises",5,"ssfOUT_15_0.5_2_BADGER","BADGER",2,2,15,"preference"
"ssfOUT_15_0.5_2_BADGER.12",0.712527683814245,0.164618838741063,1.26043652888743,"ssf","mf.is","exp","vonmises",15,"ssfOUT_15_0.5_2_BADGER","BADGER",2,2,15,"preference"
"ssfOUT_15_0.5_2_BADGER.13",0.934729133418106,0.40794504896216,1.46151321787405,"ssf","mf.is","exp","vonmises",50,"ssfOUT_15_0.5_2_BADGER","BADGER",2,2,15,"preference"
"ssfOUT_15_0.5_2_BADGER.14",0.95416280970496,0.429419164593191,1.47890645481673,"ssf","mf.is","exp","vonmises",158,"ssfOUT_15_0.5_2_BADGER","BADGER",2,2,15,"preference"
"ssfOUT_15_0.5_2_BADGER.15",1.00199743429002,0.474432016577376,1.52956285200266,"ssf","mf.is","exp","vonmises",500,"ssfOUT_15_0.5_2_BADGER","BADGER",2,2,15,"preference"
"ssfOUT_15_0.5_2_BADGER.16",0.552736296172203,-0.0712565684732014,1.17672916081761,"ssf","mf.is","exp","unif",5,"ssfOUT_15_0.5_2_BADGER","BADGER",2,2,15,"no effect"
"ssfOUT_15_0.5_2_BADGER.17",0.670646448223369,0.100725667417945,1.24056722902879,"ssf","mf.is","exp","unif",15,"ssfOUT_15_0.5_2_BADGER","BADGER",2,2,15,"preference"
"ssfOUT_15_0.5_2_BADGER.18",1.04954057978331,0.512929068149039,1.58615209141757,"ssf","mf.is","exp","unif",50,"ssfOUT_15_0.5_2_BADGER","BADGER",2,2,15,"preference"
"ssfOUT_15_0.5_2_BADGER.19",0.913207593085009,0.40151415202046,1.42490103414956,"ssf","mf.is","exp","unif",158,"ssfOUT_15_0.5_2_BADGER","BADGER",2,2,15,"preference"
"ssfOUT_15_0.5_2_BADGER.20",0.944897406340608,0.416323272952425,1.47347153972879,"ssf","mf.is","exp","unif",500,"ssfOUT_15_0.5_2_BADGER","BADGER",2,2,15,"preference"
"ssfOUT_15_0.5_2_BADGER.21",0.408768169443518,-0.124974995111198,0.942511333998234,"ssf","mf.ss","gamma","vonmises",5,"ssfOUT_15_0.5_2_BADGER","BADGER",2,2,15,"no effect"
"ssfOUT_15_0.5_2_BADGER.22",0.716801337711551,0.181261317719231,1.25234135770387,"ssf","mf.ss","gamma","vonmises",15,"ssfOUT_15_0.5_2_BADGER","BADGER",2,2,15,"preference"
"ssfOUT_15_0.5_2_BADGER.23",0.937026962400005,0.402272960186411,1.4717809646136,"ssf","mf.ss","gamma","vonmises",50,"ssfOUT_15_0.5_2_BADGER","BADGER",2,2,15,"preference"
"ssfOUT_15_0.5_2_BADGER.24",0.939010256578986,0.411471470273946,1.46654904288403,"ssf","mf.ss","gamma","vonmises",158,"ssfOUT_15_0.5_2_BADGER","BADGER",2,2,15,"preference"
"ssfOUT_15_0.5_2_BADGER.25",0.961980007656742,0.43681930960915,1.48714070570433,"ssf","mf.ss","gamma","vonmises",500,"ssfOUT_15_0.5_2_BADGER","BADGER",2,2,15,"preference"
"ssfOUT_15_0.5_2_BADGER.26",0.647714137102364,0.117959163584506,1.17746911062022,"ssf","mf.ss","gamma","unif",5,"ssfOUT_15_0.5_2_BADGER","BADGER",2,2,15,"preference"
"ssfOUT_15_0.5_2_BADGER.27",0.956783485891472,0.424624854245243,1.4889421175377,"ssf","mf.ss","gamma","unif",15,"ssfOUT_15_0.5_2_BADGER","BADGER",2,2,15,"preference"
"ssfOUT_15_0.5_2_BADGER.28",0.943948099881792,0.395586800023939,1.49230939973964,"ssf","mf.ss","gamma","unif",50,"ssfOUT_15_0.5_2_BADGER","BADGER",2,2,15,"preference"
"ssfOUT_15_0.5_2_BADGER.29",0.95044059075616,0.416481631065164,1.48439955044716,"ssf","mf.ss","gamma","unif",158,"ssfOUT_15_0.5_2_BADGER","BADGER",2,2,15,"preference"
"ssfOUT_15_0.5_2_BADGER.30",0.949096835998967,0.420741901049287,1.47745177094865,"ssf","mf.ss","gamma","unif",500,"ssfOUT_15_0.5_2_BADGER","BADGER",2,2,15,"preference"
"ssfOUT_15_0.5_2_BADGER.31",0.879808703626985,0.337817904539852,1.42179950271412,"ssf","mf.ss","exp","vonmises",5,"ssfOUT_15_0.5_2_BADGER","BADGER",2,2,15,"preference"
"ssfOUT_15_0.5_2_BADGER.32",0.637663143024605,0.0962308670452293,1.17909541900398,"ssf","mf.ss","exp","vonmises",15,"ssfOUT_15_0.5_2_BADGER","BADGER",2,2,15,"preference"
"ssfOUT_15_0.5_2_BADGER.33",0.890127013025651,0.355475757801281,1.42477826825002,"ssf","mf.ss","exp","vonmises",50,"ssfOUT_15_0.5_2_BADGER","BADGER",2,2,15,"preference"
"ssfOUT_15_0.5_2_BADGER.34",0.965381814790409,0.43399034021169,1.49677328936913,"ssf","mf.ss","exp","vonmises",158,"ssfOUT_15_0.5_2_BADGER","BADGER",2,2,15,"preference"
"ssfOUT_15_0.5_2_BADGER.35",1.02318934625283,0.494154192958183,1.55222449954748,"ssf","mf.ss","exp","vonmises",500,"ssfOUT_15_0.5_2_BADGER","BADGER",2,2,15,"preference"
"ssfOUT_15_0.5_2_BADGER.36",0.597726523710576,-0.018230105218498,1.21368315263965,"ssf","mf.ss","exp","unif",5,"ssfOUT_15_0.5_2_BADGER","BADGER",2,2,15,"no effect"
"ssfOUT_15_0.5_2_BADGER.37",0.687759998692184,0.137587656187378,1.23793234119699,"ssf","mf.ss","exp","unif",15,"ssfOUT_15_0.5_2_BADGER","BADGER",2,2,15,"preference"
"ssfOUT_15_0.5_2_BADGER.38",0.969026806040235,0.440266561951427,1.49778705012904,"ssf","mf.ss","exp","unif",50,"ssfOUT_15_0.5_2_BADGER","BADGER",2,2,15,"preference"
"ssfOUT_15_0.5_2_BADGER.39",0.995790570387886,0.468988520987191,1.52259261978858,"ssf","mf.ss","exp","unif",158,"ssfOUT_15_0.5_2_BADGER","BADGER",2,2,15,"preference"
"ssfOUT_15_0.5_2_BADGER.40",0.970754075928484,0.441104216620982,1.50040393523599,"ssf","mf.ss","exp","unif",500,"ssfOUT_15_0.5_2_BADGER","BADGER",2,2,15,"preference"
"ssfOUT_15_0.5_2_VULTURE.1",0.252850894183326,-0.137522723686075,0.643224512052728,"ssf","mf.is","gamma","vonmises",5,"ssfOUT_15_0.5_2_VULTURE","VULTURE",2,2,15,"no effect"
"ssfOUT_15_0.5_2_VULTURE.2",0.223053132962733,-0.135499509272293,0.581605775197759,"ssf","mf.is","gamma","vonmises",15,"ssfOUT_15_0.5_2_VULTURE","VULTURE",2,2,15,"no effect"
"ssfOUT_15_0.5_2_VULTURE.3",0.299709204738259,-0.0540337073473837,0.653452116823901,"ssf","mf.is","gamma","vonmises",50,"ssfOUT_15_0.5_2_VULTURE","VULTURE",2,2,15,"no effect"
"ssfOUT_15_0.5_2_VULTURE.4",0.271612579115398,-0.078086460195759,0.621311618426554,"ssf","mf.is","gamma","vonmises",158,"ssfOUT_15_0.5_2_VULTURE","VULTURE",2,2,15,"no effect"
"ssfOUT_15_0.5_2_VULTURE.5",0.265760240594144,-0.083320659799733,0.614841140988021,"ssf","mf.is","gamma","vonmises",500,"ssfOUT_15_0.5_2_VULTURE","VULTURE",2,2,15,"no effect"
"ssfOUT_15_0.5_2_VULTURE.6",0.259992333285598,-0.125269101879609,0.645253768450806,"ssf","mf.is","gamma","unif",5,"ssfOUT_15_0.5_2_VULTURE","VULTURE",2,2,15,"no effect"
"ssfOUT_15_0.5_2_VULTURE.7",0.38838068097874,0.0352978418175562,0.741463520139923,"ssf","mf.is","gamma","unif",15,"ssfOUT_15_0.5_2_VULTURE","VULTURE",2,2,15,"preference"
"ssfOUT_15_0.5_2_VULTURE.8",0.300581415497343,-0.0517759676466944,0.65293879864138,"ssf","mf.is","gamma","unif",50,"ssfOUT_15_0.5_2_VULTURE","VULTURE",2,2,15,"no effect"
"ssfOUT_15_0.5_2_VULTURE.9",0.245365141927097,-0.104801823475943,0.595532107330137,"ssf","mf.is","gamma","unif",158,"ssfOUT_15_0.5_2_VULTURE","VULTURE",2,2,15,"no effect"
"ssfOUT_15_0.5_2_VULTURE.10",0.284554355380805,-0.0649787371494507,0.634087447911061,"ssf","mf.is","gamma","unif",500,"ssfOUT_15_0.5_2_VULTURE","VULTURE",2,2,15,"no effect"
"ssfOUT_15_0.5_2_VULTURE.11",0.268575113680826,-0.118344358136524,0.655494585498178,"ssf","mf.is","exp","vonmises",5,"ssfOUT_15_0.5_2_VULTURE","VULTURE",2,2,15,"no effect"
"ssfOUT_15_0.5_2_VULTURE.12",0.466877560560036,0.105514679664884,0.828240441455189,"ssf","mf.is","exp","vonmises",15,"ssfOUT_15_0.5_2_VULTURE","VULTURE",2,2,15,"preference"
"ssfOUT_15_0.5_2_VULTURE.13",0.190847891655596,-0.16232568869384,0.544021472005031,"ssf","mf.is","exp","vonmises",50,"ssfOUT_15_0.5_2_VULTURE","VULTURE",2,2,15,"no effect"
"ssfOUT_15_0.5_2_VULTURE.14",0.263884705440468,-0.0854789092176647,0.613248320098601,"ssf","mf.is","exp","vonmises",158,"ssfOUT_15_0.5_2_VULTURE","VULTURE",2,2,15,"no effect"
"ssfOUT_15_0.5_2_VULTURE.15",0.242761836864256,-0.105952166773603,0.591475840502114,"ssf","mf.is","exp","vonmises",500,"ssfOUT_15_0.5_2_VULTURE","VULTURE",2,2,15,"no effect"
"ssfOUT_15_0.5_2_VULTURE.16",0.0181008312738003,-0.399984766955987,0.436186429503588,"ssf","mf.is","exp","unif",5,"ssfOUT_15_0.5_2_VULTURE","VULTURE",2,2,15,"no effect"
"ssfOUT_15_0.5_2_VULTURE.17",0.211449553326478,-0.146937114534272,0.569836221187228,"ssf","mf.is","exp","unif",15,"ssfOUT_15_0.5_2_VULTURE","VULTURE",2,2,15,"no effect"
"ssfOUT_15_0.5_2_VULTURE.18",0.324422825796617,-0.0293394827442189,0.678185134337454,"ssf","mf.is","exp","unif",50,"ssfOUT_15_0.5_2_VULTURE","VULTURE",2,2,15,"no effect"
"ssfOUT_15_0.5_2_VULTURE.19",0.165854365099372,-0.184005227900037,0.515713958098781,"ssf","mf.is","exp","unif",158,"ssfOUT_15_0.5_2_VULTURE","VULTURE",2,2,15,"no effect"
"ssfOUT_15_0.5_2_VULTURE.20",0.248944979392985,-0.101218480659581,0.599108439445551,"ssf","mf.is","exp","unif",500,"ssfOUT_15_0.5_2_VULTURE","VULTURE",2,2,15,"no effect"
"ssfOUT_15_0.5_2_VULTURE.21",0.255551473418213,-0.135083113268349,0.646186060104774,"ssf","mf.ss","gamma","vonmises",5,"ssfOUT_15_0.5_2_VULTURE","VULTURE",2,2,15,"no effect"
"ssfOUT_15_0.5_2_VULTURE.22",0.215251348831763,-0.143648743135157,0.574151440798683,"ssf","mf.ss","gamma","vonmises",15,"ssfOUT_15_0.5_2_VULTURE","VULTURE",2,2,15,"no effect"
"ssfOUT_15_0.5_2_VULTURE.23",0.296716745887213,-0.0570805655233551,0.65051405729778,"ssf","mf.ss","gamma","vonmises",50,"ssfOUT_15_0.5_2_VULTURE","VULTURE",2,2,15,"no effect"
"ssfOUT_15_0.5_2_VULTURE.24",0.270234606506323,-0.0795242029898327,0.619993416002479,"ssf","mf.ss","gamma","vonmises",158,"ssfOUT_15_0.5_2_VULTURE","VULTURE",2,2,15,"no effect"
"ssfOUT_15_0.5_2_VULTURE.25",0.263774052109921,-0.0852597038804863,0.612807808100328,"ssf","mf.ss","gamma","vonmises",500,"ssfOUT_15_0.5_2_VULTURE","VULTURE",2,2,15,"no effect"
"ssfOUT_15_0.5_2_VULTURE.26",0.265984369265168,-0.119254449330422,0.651223187860758,"ssf","mf.ss","gamma","unif",5,"ssfOUT_15_0.5_2_VULTURE","VULTURE",2,2,15,"no effect"
"ssfOUT_15_0.5_2_VULTURE.27",0.384775604425391,0.0318264112474878,0.737724797603294,"ssf","mf.ss","gamma","unif",15,"ssfOUT_15_0.5_2_VULTURE","VULTURE",2,2,15,"preference"
"ssfOUT_15_0.5_2_VULTURE.28",0.306172613655483,-0.0463731524745939,0.658718379785561,"ssf","mf.ss","gamma","unif",50,"ssfOUT_15_0.5_2_VULTURE","VULTURE",2,2,15,"no effect"
"ssfOUT_15_0.5_2_VULTURE.29",0.249571430005416,-0.100597199248604,0.599740059259436,"ssf","mf.ss","gamma","unif",158,"ssfOUT_15_0.5_2_VULTURE","VULTURE",2,2,15,"no effect"
"ssfOUT_15_0.5_2_VULTURE.30",0.29246567061,-0.0572247483266732,0.642156089546673,"ssf","mf.ss","gamma","unif",500,"ssfOUT_15_0.5_2_VULTURE","VULTURE",2,2,15,"no effect"
"ssfOUT_15_0.5_2_VULTURE.31",0.192224539603043,-0.186869147076872,0.571318226282957,"ssf","mf.ss","exp","vonmises",5,"ssfOUT_15_0.5_2_VULTURE","VULTURE",2,2,15,"no effect"
"ssfOUT_15_0.5_2_VULTURE.32",0.328257662731364,-0.0327130511078444,0.689228376570573,"ssf","mf.ss","exp","vonmises",15,"ssfOUT_15_0.5_2_VULTURE","VULTURE",2,2,15,"no effect"
"ssfOUT_15_0.5_2_VULTURE.33",0.0892724965754257,-0.265164805820589,0.44370979897144,"ssf","mf.ss","exp","vonmises",50,"ssfOUT_15_0.5_2_VULTURE","VULTURE",2,2,15,"no effect"
"ssfOUT_15_0.5_2_VULTURE.34",0.182757161070474,-0.168762765964609,0.534277088105556,"ssf","mf.ss","exp","vonmises",158,"ssfOUT_15_0.5_2_VULTURE","VULTURE",2,2,15,"no effect"
"ssfOUT_15_0.5_2_VULTURE.35",0.16919126289708,-0.183063603419299,0.521446129213458,"ssf","mf.ss","exp","vonmises",500,"ssfOUT_15_0.5_2_VULTURE","VULTURE",2,2,15,"no effect"
"ssfOUT_15_0.5_2_VULTURE.36",-0.108703409363911,-0.516564175155054,0.299157356427233,"ssf","mf.ss","exp","unif",5,"ssfOUT_15_0.5_2_VULTURE","VULTURE",2,2,15,"no effect"
"ssfOUT_15_0.5_2_VULTURE.37",0.137779397491734,-0.220220819662053,0.495779614645521,"ssf","mf.ss","exp","unif",15,"ssfOUT_15_0.5_2_VULTURE","VULTURE",2,2,15,"no effect"
"ssfOUT_15_0.5_2_VULTURE.38",0.198971140977283,-0.155596220745008,0.553538502699575,"ssf","mf.ss","exp","unif",50,"ssfOUT_15_0.5_2_VULTURE","VULTURE",2,2,15,"no effect"
"ssfOUT_15_0.5_2_VULTURE.39",0.105042817422435,-0.247487290321598,0.457572925166468,"ssf","mf.ss","exp","unif",158,"ssfOUT_15_0.5_2_VULTURE","VULTURE",2,2,15,"no effect"
"ssfOUT_15_0.5_2_VULTURE.40",0.180689568137156,-0.172976899358344,0.534356035632657,"ssf","mf.ss","exp","unif",500,"ssfOUT_15_0.5_2_VULTURE","VULTURE",2,2,15,"no effect"
"ssfOUT_15_0.5_2_KINGCOBRA.1",0.663779829822907,0.162161365298103,1.16539829434771,"ssf","mf.is","gamma","vonmises",5,"ssfOUT_15_0.5_2_KINGCOBRA","KINGCOBRA",2,2,15,"preference"
"ssfOUT_15_0.5_2_KINGCOBRA.2",0.0109005013439023,-0.495951221630224,0.517752224318028,"ssf","mf.is","gamma","vonmises",15,"ssfOUT_15_0.5_2_KINGCOBRA","KINGCOBRA",2,2,15,"no effect"
"ssfOUT_15_0.5_2_KINGCOBRA.3",0.219665009867872,-0.302231533010396,0.741561552746141,"ssf","mf.is","gamma","vonmises",50,"ssfOUT_15_0.5_2_KINGCOBRA","KINGCOBRA",2,2,15,"no effect"
"ssfOUT_15_0.5_2_KINGCOBRA.4",0.287811934775185,-0.23278731696596,0.808411186516329,"ssf","mf.is","gamma","vonmises",158,"ssfOUT_15_0.5_2_KINGCOBRA","KINGCOBRA",2,2,15,"no effect"
"ssfOUT_15_0.5_2_KINGCOBRA.5",0.322672615128043,-0.196424232911784,0.841769463167871,"ssf","mf.is","gamma","vonmises",500,"ssfOUT_15_0.5_2_KINGCOBRA","KINGCOBRA",2,2,15,"no effect"
"ssfOUT_15_0.5_2_KINGCOBRA.6",0.397586512393523,-0.107540265534598,0.902713290321643,"ssf","mf.is","gamma","unif",5,"ssfOUT_15_0.5_2_KINGCOBRA","KINGCOBRA",2,2,15,"no effect"
"ssfOUT_15_0.5_2_KINGCOBRA.7",0.501739302540968,-0.0178771643260817,1.02135576940802,"ssf","mf.is","gamma","unif",15,"ssfOUT_15_0.5_2_KINGCOBRA","KINGCOBRA",2,2,15,"no effect"
"ssfOUT_15_0.5_2_KINGCOBRA.8",0.250890372574387,-0.277229303264612,0.779010048413386,"ssf","mf.is","gamma","unif",50,"ssfOUT_15_0.5_2_KINGCOBRA","KINGCOBRA",2,2,15,"no effect"
"ssfOUT_15_0.5_2_KINGCOBRA.9",0.288606711888841,-0.229169290958471,0.806382714736152,"ssf","mf.is","gamma","unif",158,"ssfOUT_15_0.5_2_KINGCOBRA","KINGCOBRA",2,2,15,"no effect"
"ssfOUT_15_0.5_2_KINGCOBRA.10",0.374688919389927,-0.142815645611988,0.892193484391841,"ssf","mf.is","gamma","unif",500,"ssfOUT_15_0.5_2_KINGCOBRA","KINGCOBRA",2,2,15,"no effect"
"ssfOUT_15_0.5_2_KINGCOBRA.11",0.247441686960296,-0.358411834569072,0.853295208489664,"ssf","mf.is","exp","vonmises",5,"ssfOUT_15_0.5_2_KINGCOBRA","KINGCOBRA",2,2,15,"no effect"
"ssfOUT_15_0.5_2_KINGCOBRA.12",0.273254007219014,-0.249874547052145,0.796382561490173,"ssf","mf.is","exp","vonmises",15,"ssfOUT_15_0.5_2_KINGCOBRA","KINGCOBRA",2,2,15,"no effect"
"ssfOUT_15_0.5_2_KINGCOBRA.13",0.665003390849058,0.12578097375799,1.20422580794013,"ssf","mf.is","exp","vonmises",50,"ssfOUT_15_0.5_2_KINGCOBRA","KINGCOBRA",2,2,15,"preference"
"ssfOUT_15_0.5_2_KINGCOBRA.14",0.199907301863857,-0.363818691003006,0.763633294730719,"ssf","mf.is","exp","vonmises",158,"ssfOUT_15_0.5_2_KINGCOBRA","KINGCOBRA",2,2,15,"no effect"
"ssfOUT_15_0.5_2_KINGCOBRA.15",0.419855330832315,-0.147235619986597,0.986946281651227,"ssf","mf.is","exp","vonmises",500,"ssfOUT_15_0.5_2_KINGCOBRA","KINGCOBRA",2,2,15,"no effect"
"ssfOUT_15_0.5_2_KINGCOBRA.16",0.516906487328402,-0.0987416198368216,1.13255459449363,"ssf","mf.is","exp","unif",5,"ssfOUT_15_0.5_2_KINGCOBRA","KINGCOBRA",2,2,15,"no effect"
"ssfOUT_15_0.5_2_KINGCOBRA.17",0.119462465053267,-0.394530116079812,0.633455046186345,"ssf","mf.is","exp","unif",15,"ssfOUT_15_0.5_2_KINGCOBRA","KINGCOBRA",2,2,15,"no effect"
"ssfOUT_15_0.5_2_KINGCOBRA.18",0.663310519316976,0.126363013856727,1.20025802477722,"ssf","mf.is","exp","unif",50,"ssfOUT_15_0.5_2_KINGCOBRA","KINGCOBRA",2,2,15,"preference"
"ssfOUT_15_0.5_2_KINGCOBRA.19",0.607452126252354,0.0939906483999283,1.12091360410478,"ssf","mf.is","exp","unif",158,"ssfOUT_15_0.5_2_KINGCOBRA","KINGCOBRA",2,2,15,"preference"
"ssfOUT_15_0.5_2_KINGCOBRA.20",0.265786128331695,-0.274127569704663,0.805699826368052,"ssf","mf.is","exp","unif",500,"ssfOUT_15_0.5_2_KINGCOBRA","KINGCOBRA",2,2,15,"no effect"
"ssfOUT_15_0.5_2_KINGCOBRA.21",0.578310819557174,0.0757060677203223,1.08091557139403,"ssf","mf.ss","gamma","vonmises",5,"ssfOUT_15_0.5_2_KINGCOBRA","KINGCOBRA",2,2,15,"preference"
"ssfOUT_15_0.5_2_KINGCOBRA.22",0.00762259174251538,-0.497633925322827,0.512879108807858,"ssf","mf.ss","gamma","vonmises",15,"ssfOUT_15_0.5_2_KINGCOBRA","KINGCOBRA",2,2,15,"no effect"
"ssfOUT_15_0.5_2_KINGCOBRA.23",0.229310298381592,-0.295986726018268,0.754607322781453,"ssf","mf.ss","gamma","vonmises",50,"ssfOUT_15_0.5_2_KINGCOBRA","KINGCOBRA",2,2,15,"no effect"
"ssfOUT_15_0.5_2_KINGCOBRA.24",0.29481914715566,-0.22821513255259,0.81785342686391,"ssf","mf.ss","gamma","vonmises",158,"ssfOUT_15_0.5_2_KINGCOBRA","KINGCOBRA",2,2,15,"no effect"
"ssfOUT_15_0.5_2_KINGCOBRA.25",0.327444644412091,-0.194341118015967,0.849230406840148,"ssf","mf.ss","gamma","vonmises",500,"ssfOUT_15_0.5_2_KINGCOBRA","KINGCOBRA",2,2,15,"no effect"
"ssfOUT_15_0.5_2_KINGCOBRA.26",0.378909596011786,-0.129327802498896,0.887146994522468,"ssf","mf.ss","gamma","unif",5,"ssfOUT_15_0.5_2_KINGCOBRA","KINGCOBRA",2,2,15,"no effect"
"ssfOUT_15_0.5_2_KINGCOBRA.27",0.502898998030774,-0.0180068956928354,1.02380489175438,"ssf","mf.ss","gamma","unif",15,"ssfOUT_15_0.5_2_KINGCOBRA","KINGCOBRA",2,2,15,"no effect"
"ssfOUT_15_0.5_2_KINGCOBRA.28",0.248551933327327,-0.282695119139365,0.779798985794019,"ssf","mf.ss","gamma","unif",50,"ssfOUT_15_0.5_2_KINGCOBRA","KINGCOBRA",2,2,15,"no effect"
"ssfOUT_15_0.5_2_KINGCOBRA.29",0.291333731453097,-0.230730022259077,0.813397485165271,"ssf","mf.ss","gamma","unif",158,"ssfOUT_15_0.5_2_KINGCOBRA","KINGCOBRA",2,2,15,"no effect"
"ssfOUT_15_0.5_2_KINGCOBRA.30",0.369446525641271,-0.151420376306998,0.890313427589539,"ssf","mf.ss","gamma","unif",500,"ssfOUT_15_0.5_2_KINGCOBRA","KINGCOBRA",2,2,15,"no effect"
"ssfOUT_15_0.5_2_KINGCOBRA.31",0.0693910368047096,-0.468469057313417,0.607251130922837,"ssf","mf.ss","exp","vonmises",5,"ssfOUT_15_0.5_2_KINGCOBRA","KINGCOBRA",2,2,15,"no effect"
"ssfOUT_15_0.5_2_KINGCOBRA.32",0.215688851438332,-0.290122530645261,0.721500233521925,"ssf","mf.ss","exp","vonmises",15,"ssfOUT_15_0.5_2_KINGCOBRA","KINGCOBRA",2,2,15,"no effect"
"ssfOUT_15_0.5_2_KINGCOBRA.33",0.225914127506694,-0.27745372217291,0.729281977186298,"ssf","mf.ss","exp","vonmises",50,"ssfOUT_15_0.5_2_KINGCOBRA","KINGCOBRA",2,2,15,"no effect"
"ssfOUT_15_0.5_2_KINGCOBRA.34",0.226935444909099,-0.266569350290425,0.720440240108623,"ssf","mf.ss","exp","vonmises",158,"ssfOUT_15_0.5_2_KINGCOBRA","KINGCOBRA",2,2,15,"no effect"
"ssfOUT_15_0.5_2_KINGCOBRA.35",0.267539684519969,-0.22596387440966,0.761043243449597,"ssf","mf.ss","exp","vonmises",500,"ssfOUT_15_0.5_2_KINGCOBRA","KINGCOBRA",2,2,15,"no effect"
"ssfOUT_15_0.5_2_KINGCOBRA.36",0.450939995027891,-0.088982790836639,0.990862780892421,"ssf","mf.ss","exp","unif",5,"ssfOUT_15_0.5_2_KINGCOBRA","KINGCOBRA",2,2,15,"no effect"
"ssfOUT_15_0.5_2_KINGCOBRA.37",0.239954317946103,-0.258806996565012,0.738715632457217,"ssf","mf.ss","exp","unif",15,"ssfOUT_15_0.5_2_KINGCOBRA","KINGCOBRA",2,2,15,"no effect"
"ssfOUT_15_0.5_2_KINGCOBRA.38",0.263532178024552,-0.231341743415462,0.758406099464567,"ssf","mf.ss","exp","unif",50,"ssfOUT_15_0.5_2_KINGCOBRA","KINGCOBRA",2,2,15,"no effect"
"ssfOUT_15_0.5_2_KINGCOBRA.39",0.359582157717954,-0.13347958399222,0.852643899428128,"ssf","mf.ss","exp","unif",158,"ssfOUT_15_0.5_2_KINGCOBRA","KINGCOBRA",2,2,15,"no effect"
"ssfOUT_15_0.5_2_KINGCOBRA.40",0.240467196214686,-0.251503561030528,0.732437953459901,"ssf","mf.ss","exp","unif",500,"ssfOUT_15_0.5_2_KINGCOBRA","KINGCOBRA",2,2,15,"no effect"
"ssfOUT_15_0.5_3_BADGER.1",0.0602060817525861,-0.321124151093478,0.44153631459865,"ssf","mf.is","gamma","vonmises",5,"ssfOUT_15_0.5_3_BADGER","BADGER",3,2,15,"no effect"
"ssfOUT_15_0.5_3_BADGER.2",-0.00497625643351845,-0.360161895737812,0.350209382870775,"ssf","mf.is","gamma","vonmises",15,"ssfOUT_15_0.5_3_BADGER","BADGER",3,2,15,"no effect"
"ssfOUT_15_0.5_3_BADGER.3",0.00145027131736587,-0.347215380952838,0.35011592358757,"ssf","mf.is","gamma","vonmises",50,"ssfOUT_15_0.5_3_BADGER","BADGER",3,2,15,"no effect"
"ssfOUT_15_0.5_3_BADGER.4",0.0215183485378212,-0.330491010882589,0.373527707958231,"ssf","mf.is","gamma","vonmises",158,"ssfOUT_15_0.5_3_BADGER","BADGER",3,2,15,"no effect"
"ssfOUT_15_0.5_3_BADGER.5",0.0086096071340092,-0.340367733278401,0.35758694754642,"ssf","mf.is","gamma","vonmises",500,"ssfOUT_15_0.5_3_BADGER","BADGER",3,2,15,"no effect"
"ssfOUT_15_0.5_3_BADGER.6",-0.286003436629489,-0.659193759216063,0.0871868859570851,"ssf","mf.is","gamma","unif",5,"ssfOUT_15_0.5_3_BADGER","BADGER",3,2,15,"no effect"
"ssfOUT_15_0.5_3_BADGER.7",0.0956301252723779,-0.263934204423201,0.455194454967957,"ssf","mf.is","gamma","unif",15,"ssfOUT_15_0.5_3_BADGER","BADGER",3,2,15,"no effect"
"ssfOUT_15_0.5_3_BADGER.8",0.111937959499746,-0.243922452552774,0.467798371552265,"ssf","mf.is","gamma","unif",50,"ssfOUT_15_0.5_3_BADGER","BADGER",3,2,15,"no effect"
"ssfOUT_15_0.5_3_BADGER.9",-0.0117757194296558,-0.368468422600003,0.344916983740691,"ssf","mf.is","gamma","unif",158,"ssfOUT_15_0.5_3_BADGER","BADGER",3,2,15,"no effect"
"ssfOUT_15_0.5_3_BADGER.10",0.0390845249397021,-0.312093092517457,0.390262142396861,"ssf","mf.is","gamma","unif",500,"ssfOUT_15_0.5_3_BADGER","BADGER",3,2,15,"no effect"
"ssfOUT_15_0.5_3_BADGER.11",0.0550172566781841,-0.320587218918548,0.430621732274916,"ssf","mf.is","exp","vonmises",5,"ssfOUT_15_0.5_3_BADGER","BADGER",3,2,15,"no effect"
"ssfOUT_15_0.5_3_BADGER.12",0.0974806705703854,-0.25465541907546,0.449616760216231,"ssf","mf.is","exp","vonmises",15,"ssfOUT_15_0.5_3_BADGER","BADGER",3,2,15,"no effect"
"ssfOUT_15_0.5_3_BADGER.13",0.00731141926932018,-0.341944562206992,0.356567400745632,"ssf","mf.is","exp","vonmises",50,"ssfOUT_15_0.5_3_BADGER","BADGER",3,2,15,"no effect"
"ssfOUT_15_0.5_3_BADGER.14",0.0112857681398291,-0.337824964270988,0.360396500550647,"ssf","mf.is","exp","vonmises",158,"ssfOUT_15_0.5_3_BADGER","BADGER",3,2,15,"no effect"
"ssfOUT_15_0.5_3_BADGER.15",0.0160741599402054,-0.334118179819987,0.366266499700398,"ssf","mf.is","exp","vonmises",500,"ssfOUT_15_0.5_3_BADGER","BADGER",3,2,15,"no effect"
"ssfOUT_15_0.5_3_BADGER.16",0.0142534209345928,-0.365924507550412,0.394431349419598,"ssf","mf.is","exp","unif",5,"ssfOUT_15_0.5_3_BADGER","BADGER",3,2,15,"no effect"
"ssfOUT_15_0.5_3_BADGER.17",0.000820634499543043,-0.36149544996267,0.363136718961756,"ssf","mf.is","exp","unif",15,"ssfOUT_15_0.5_3_BADGER","BADGER",3,2,15,"no effect"
"ssfOUT_15_0.5_3_BADGER.18",0.0345779334334819,-0.315049914710297,0.384205781577261,"ssf","mf.is","exp","unif",50,"ssfOUT_15_0.5_3_BADGER","BADGER",3,2,15,"no effect"
"ssfOUT_15_0.5_3_BADGER.19",0.0279586338966003,-0.319996080993578,0.375913348786778,"ssf","mf.is","exp","unif",158,"ssfOUT_15_0.5_3_BADGER","BADGER",3,2,15,"no effect"
"ssfOUT_15_0.5_3_BADGER.20",0.0153976202446548,-0.334181061777054,0.364976302266364,"ssf","mf.is","exp","unif",500,"ssfOUT_15_0.5_3_BADGER","BADGER",3,2,15,"no effect"
"ssfOUT_15_0.5_3_BADGER.21",0.0606784547872212,-0.320604882930137,0.441961792504579,"ssf","mf.ss","gamma","vonmises",5,"ssfOUT_15_0.5_3_BADGER","BADGER",3,2,15,"no effect"
"ssfOUT_15_0.5_3_BADGER.22",-0.00196182177260568,-0.357311675181295,0.353388031636083,"ssf","mf.ss","gamma","vonmises",15,"ssfOUT_15_0.5_3_BADGER","BADGER",3,2,15,"no effect"
"ssfOUT_15_0.5_3_BADGER.23",0.00435158691183023,-0.344467008062134,0.353170181885794,"ssf","mf.ss","gamma","vonmises",50,"ssfOUT_15_0.5_3_BADGER","BADGER",3,2,15,"no effect"
"ssfOUT_15_0.5_3_BADGER.24",0.0259367938957893,-0.326014739891294,0.377888327682873,"ssf","mf.ss","gamma","vonmises",158,"ssfOUT_15_0.5_3_BADGER","BADGER",3,2,15,"no effect"
"ssfOUT_15_0.5_3_BADGER.25",0.0123970651795497,-0.336506676239243,0.361300806598343,"ssf","mf.ss","gamma","vonmises",500,"ssfOUT_15_0.5_3_BADGER","BADGER",3,2,15,"no effect"
"ssfOUT_15_0.5_3_BADGER.26",-0.254628980427708,-0.624909316853789,0.115651355998373,"ssf","mf.ss","gamma","unif",5,"ssfOUT_15_0.5_3_BADGER","BADGER",3,2,15,"no effect"
"ssfOUT_15_0.5_3_BADGER.27",0.087540333979261,-0.271435333602963,0.446516001561485,"ssf","mf.ss","gamma","unif",15,"ssfOUT_15_0.5_3_BADGER","BADGER",3,2,15,"no effect"
"ssfOUT_15_0.5_3_BADGER.28",0.0994701805691989,-0.255343680933322,0.45428404207172,"ssf","mf.ss","gamma","unif",50,"ssfOUT_15_0.5_3_BADGER","BADGER",3,2,15,"no effect"
"ssfOUT_15_0.5_3_BADGER.29",0.0046583555646423,-0.351739435502468,0.361056146631752,"ssf","mf.ss","gamma","unif",158,"ssfOUT_15_0.5_3_BADGER","BADGER",3,2,15,"no effect"
"ssfOUT_15_0.5_3_BADGER.30",0.0442406485051885,-0.306581038867112,0.395062335877489,"ssf","mf.ss","gamma","unif",500,"ssfOUT_15_0.5_3_BADGER","BADGER",3,2,15,"no effect"
"ssfOUT_15_0.5_3_BADGER.31",0.0691943290363416,-0.30567267815032,0.444061336223003,"ssf","mf.ss","exp","vonmises",5,"ssfOUT_15_0.5_3_BADGER","BADGER",3,2,15,"no effect"
"ssfOUT_15_0.5_3_BADGER.32",0.0669393831126924,-0.283691296483065,0.41757006270845,"ssf","mf.ss","exp","vonmises",15,"ssfOUT_15_0.5_3_BADGER","BADGER",3,2,15,"no effect"
"ssfOUT_15_0.5_3_BADGER.33",0.0054671438431112,-0.342841359932546,0.353775647618768,"ssf","mf.ss","exp","vonmises",50,"ssfOUT_15_0.5_3_BADGER","BADGER",3,2,15,"no effect"
"ssfOUT_15_0.5_3_BADGER.34",0.00245307969237849,-0.345840625914111,0.350746785298868,"ssf","mf.ss","exp","vonmises",158,"ssfOUT_15_0.5_3_BADGER","BADGER",3,2,15,"no effect"
"ssfOUT_15_0.5_3_BADGER.35",0.00631752766802936,-0.342425024073672,0.355060079409731,"ssf","mf.ss","exp","vonmises",500,"ssfOUT_15_0.5_3_BADGER","BADGER",3,2,15,"no effect"
"ssfOUT_15_0.5_3_BADGER.36",-0.023070397020608,-0.397079248107632,0.350938454066416,"ssf","mf.ss","exp","unif",5,"ssfOUT_15_0.5_3_BADGER","BADGER",3,2,15,"no effect"
"ssfOUT_15_0.5_3_BADGER.37",-0.00249437898270418,-0.362380978149259,0.35739222018385,"ssf","mf.ss","exp","unif",15,"ssfOUT_15_0.5_3_BADGER","BADGER",3,2,15,"no effect"
"ssfOUT_15_0.5_3_BADGER.38",0.0221176598761452,-0.327212095858712,0.371447415611002,"ssf","mf.ss","exp","unif",50,"ssfOUT_15_0.5_3_BADGER","BADGER",3,2,15,"no effect"
"ssfOUT_15_0.5_3_BADGER.39",0.0330074735747033,-0.314216831264856,0.380231778414262,"ssf","mf.ss","exp","unif",158,"ssfOUT_15_0.5_3_BADGER","BADGER",3,2,15,"no effect"
"ssfOUT_15_0.5_3_BADGER.40",0.01285984091199,-0.335116317814183,0.360835999638163,"ssf","mf.ss","exp","unif",500,"ssfOUT_15_0.5_3_BADGER","BADGER",3,2,15,"no effect"
"ssfOUT_15_0.5_3_VULTURE.1",0.212798300788672,-0.30721837024051,0.732814971817854,"ssf","mf.is","gamma","vonmises",5,"ssfOUT_15_0.5_3_VULTURE","VULTURE",3,2,15,"no effect"
"ssfOUT_15_0.5_3_VULTURE.2",0.544775670425694,0.0589853714415101,1.03056596940988,"ssf","mf.is","gamma","vonmises",15,"ssfOUT_15_0.5_3_VULTURE","VULTURE",3,2,15,"preference"
"ssfOUT_15_0.5_3_VULTURE.3",0.28408296769264,-0.197701905653744,0.765867841039024,"ssf","mf.is","gamma","vonmises",50,"ssfOUT_15_0.5_3_VULTURE","VULTURE",3,2,15,"no effect"
"ssfOUT_15_0.5_3_VULTURE.4",0.409696019581045,-0.0720880942618229,0.891480133423914,"ssf","mf.is","gamma","vonmises",158,"ssfOUT_15_0.5_3_VULTURE","VULTURE",3,2,15,"no effect"
"ssfOUT_15_0.5_3_VULTURE.5",0.384488886591314,-0.0978633501482171,0.866841123330844,"ssf","mf.is","gamma","vonmises",500,"ssfOUT_15_0.5_3_VULTURE","VULTURE",3,2,15,"no effect"
"ssfOUT_15_0.5_3_VULTURE.6",-0.0854901937417707,-0.634797994571146,0.463817607087605,"ssf","mf.is","gamma","unif",5,"ssfOUT_15_0.5_3_VULTURE","VULTURE",3,2,15,"no effect"
"ssfOUT_15_0.5_3_VULTURE.7",0.37435893945255,-0.11684351246567,0.86556139137077,"ssf","mf.is","gamma","unif",15,"ssfOUT_15_0.5_3_VULTURE","VULTURE",3,2,15,"no effect"
"ssfOUT_15_0.5_3_VULTURE.8",0.33866216455619,-0.148530316702122,0.825854645814503,"ssf","mf.is","gamma","unif",50,"ssfOUT_15_0.5_3_VULTURE","VULTURE",3,2,15,"no effect"
"ssfOUT_15_0.5_3_VULTURE.9",0.336077335106318,-0.1490893008829,0.821243971095536,"ssf","mf.is","gamma","unif",158,"ssfOUT_15_0.5_3_VULTURE","VULTURE",3,2,15,"no effect"
"ssfOUT_15_0.5_3_VULTURE.10",0.380804693336659,-0.101905535671396,0.863514922344715,"ssf","mf.is","gamma","unif",500,"ssfOUT_15_0.5_3_VULTURE","VULTURE",3,2,15,"no effect"
"ssfOUT_15_0.5_3_VULTURE.11",0.340104679192259,-0.19242300539361,0.872632363778127,"ssf","mf.is","exp","vonmises",5,"ssfOUT_15_0.5_3_VULTURE","VULTURE",3,2,15,"no effect"
"ssfOUT_15_0.5_3_VULTURE.12",0.155579832986081,-0.348145429258754,0.659305095230916,"ssf","mf.is","exp","vonmises",15,"ssfOUT_15_0.5_3_VULTURE","VULTURE",3,2,15,"no effect"
"ssfOUT_15_0.5_3_VULTURE.13",0.372137249650139,-0.114009443846864,0.858283943147143,"ssf","mf.is","exp","vonmises",50,"ssfOUT_15_0.5_3_VULTURE","VULTURE",3,2,15,"no effect"
"ssfOUT_15_0.5_3_VULTURE.14",0.278166705705192,-0.205791688336338,0.762125099746722,"ssf","mf.is","exp","vonmises",158,"ssfOUT_15_0.5_3_VULTURE","VULTURE",3,2,15,"no effect"
"ssfOUT_15_0.5_3_VULTURE.15",0.363828077023104,-0.119155389416655,0.846811543462864,"ssf","mf.is","exp","vonmises",500,"ssfOUT_15_0.5_3_VULTURE","VULTURE",3,2,15,"no effect"
"ssfOUT_15_0.5_3_VULTURE.16",0.296160135829199,-0.238450844928836,0.830771116587235,"ssf","mf.is","exp","unif",5,"ssfOUT_15_0.5_3_VULTURE","VULTURE",3,2,15,"no effect"
"ssfOUT_15_0.5_3_VULTURE.17",0.426290886423305,-0.0712428119190225,0.923824584765633,"ssf","mf.is","exp","unif",15,"ssfOUT_15_0.5_3_VULTURE","VULTURE",3,2,15,"no effect"
"ssfOUT_15_0.5_3_VULTURE.18",0.266308425718621,-0.21930290202058,0.751919753457822,"ssf","mf.is","exp","unif",50,"ssfOUT_15_0.5_3_VULTURE","VULTURE",3,2,15,"no effect"
"ssfOUT_15_0.5_3_VULTURE.19",0.395574057666963,-0.0855241419642032,0.876672257298129,"ssf","mf.is","exp","unif",158,"ssfOUT_15_0.5_3_VULTURE","VULTURE",3,2,15,"no effect"
"ssfOUT_15_0.5_3_VULTURE.20",0.368206363346847,-0.114622901115831,0.851035627809526,"ssf","mf.is","exp","unif",500,"ssfOUT_15_0.5_3_VULTURE","VULTURE",3,2,15,"no effect"
"ssfOUT_15_0.5_3_VULTURE.21",0.247779877278388,-0.269636117688926,0.765195872245702,"ssf","mf.ss","gamma","vonmises",5,"ssfOUT_15_0.5_3_VULTURE","VULTURE",3,2,15,"no effect"
"ssfOUT_15_0.5_3_VULTURE.22",0.57283727828492,0.0876048843863118,1.05806967218353,"ssf","mf.ss","gamma","vonmises",15,"ssfOUT_15_0.5_3_VULTURE","VULTURE",3,2,15,"preference"
"ssfOUT_15_0.5_3_VULTURE.23",0.300354302815663,-0.181005752511854,0.781714358143179,"ssf","mf.ss","gamma","vonmises",50,"ssfOUT_15_0.5_3_VULTURE","VULTURE",3,2,15,"no effect"
"ssfOUT_15_0.5_3_VULTURE.24",0.41795610156096,-0.0636993110130824,0.899611514135002,"ssf","mf.ss","gamma","vonmises",158,"ssfOUT_15_0.5_3_VULTURE","VULTURE",3,2,15,"no effect"
"ssfOUT_15_0.5_3_VULTURE.25",0.390375859760125,-0.0918358500180439,0.872587569538293,"ssf","mf.ss","gamma","vonmises",500,"ssfOUT_15_0.5_3_VULTURE","VULTURE",3,2,15,"no effect"
"ssfOUT_15_0.5_3_VULTURE.26",-0.082265673810831,-0.631520326911677,0.466988979290015,"ssf","mf.ss","gamma","unif",5,"ssfOUT_15_0.5_3_VULTURE","VULTURE",3,2,15,"no effect"
"ssfOUT_15_0.5_3_VULTURE.27",0.384221244775019,-0.106688500931402,0.87513099048144,"ssf","mf.ss","gamma","unif",15,"ssfOUT_15_0.5_3_VULTURE","VULTURE",3,2,15,"no effect"
"ssfOUT_15_0.5_3_VULTURE.28",0.350114088527403,-0.13678312213071,0.837011299185516,"ssf","mf.ss","gamma","unif",50,"ssfOUT_15_0.5_3_VULTURE","VULTURE",3,2,15,"no effect"
"ssfOUT_15_0.5_3_VULTURE.29",0.346798373305387,-0.138196287494425,0.831793034105199,"ssf","mf.ss","gamma","unif",158,"ssfOUT_15_0.5_3_VULTURE","VULTURE",3,2,15,"no effect"
"ssfOUT_15_0.5_3_VULTURE.30",0.390518076000484,-0.0920513177083311,0.873087469709299,"ssf","mf.ss","gamma","unif",500,"ssfOUT_15_0.5_3_VULTURE","VULTURE",3,2,15,"no effect"
"ssfOUT_15_0.5_3_VULTURE.31",0.304007526601386,-0.221200698623106,0.829215751825878,"ssf","mf.ss","exp","vonmises",5,"ssfOUT_15_0.5_3_VULTURE","VULTURE",3,2,15,"no effect"
"ssfOUT_15_0.5_3_VULTURE.32",0.163066808452255,-0.340449101672648,0.666582718577158,"ssf","mf.ss","exp","vonmises",15,"ssfOUT_15_0.5_3_VULTURE","VULTURE",3,2,15,"no effect"
"ssfOUT_15_0.5_3_VULTURE.33",0.378661390997855,-0.110895039275518,0.868217821271229,"ssf","mf.ss","exp","vonmises",50,"ssfOUT_15_0.5_3_VULTURE","VULTURE",3,2,15,"no effect"
"ssfOUT_15_0.5_3_VULTURE.34",0.283253868343218,-0.203424411639243,0.76993214832568,"ssf","mf.ss","exp","vonmises",158,"ssfOUT_15_0.5_3_VULTURE","VULTURE",3,2,15,"no effect"
"ssfOUT_15_0.5_3_VULTURE.35",0.369575655186568,-0.115147310732109,0.854298621105245,"ssf","mf.ss","exp","vonmises",500,"ssfOUT_15_0.5_3_VULTURE","VULTURE",3,2,15,"no effect"
"ssfOUT_15_0.5_3_VULTURE.36",0.286113404454656,-0.235710081253251,0.807936890162563,"ssf","mf.ss","exp","unif",5,"ssfOUT_15_0.5_3_VULTURE","VULTURE",3,2,15,"no effect"
"ssfOUT_15_0.5_3_VULTURE.37",0.467191176920723,-0.0242858601527772,0.958668213994223,"ssf","mf.ss","exp","unif",15,"ssfOUT_15_0.5_3_VULTURE","VULTURE",3,2,15,"no effect"
"ssfOUT_15_0.5_3_VULTURE.38",0.257611761807143,-0.232063082967825,0.747286606582112,"ssf","mf.ss","exp","unif",50,"ssfOUT_15_0.5_3_VULTURE","VULTURE",3,2,15,"no effect"
"ssfOUT_15_0.5_3_VULTURE.39",0.397081575939909,-0.0838519907208344,0.878015142600652,"ssf","mf.ss","exp","unif",158,"ssfOUT_15_0.5_3_VULTURE","VULTURE",3,2,15,"no effect"
"ssfOUT_15_0.5_3_VULTURE.40",0.36696711494086,-0.118413150170337,0.852347380052056,"ssf","mf.ss","exp","unif",500,"ssfOUT_15_0.5_3_VULTURE","VULTURE",3,2,15,"no effect"
"ssfOUT_15_0.5_3_KINGCOBRA.1",13.7229740160096,-1223.38698977098,1250.832937803,"ssf","mf.is","gamma","vonmises",5,"ssfOUT_15_0.5_3_KINGCOBRA","KINGCOBRA",3,2,15,"no effect"
"ssfOUT_15_0.5_3_KINGCOBRA.2",13.7446293157663,-1163.80931483334,1191.29857346487,"ssf","mf.is","gamma","vonmises",15,"ssfOUT_15_0.5_3_KINGCOBRA","KINGCOBRA",3,2,15,"no effect"
"ssfOUT_15_0.5_3_KINGCOBRA.3",13.7927193044631,-990.588907968674,1018.1743465776,"ssf","mf.is","gamma","vonmises",50,"ssfOUT_15_0.5_3_KINGCOBRA","KINGCOBRA",3,2,15,"no effect"
"ssfOUT_15_0.5_3_KINGCOBRA.4",13.7361116739527,-934.604636593904,962.07685994181,"ssf","mf.is","gamma","vonmises",158,"ssfOUT_15_0.5_3_KINGCOBRA","KINGCOBRA",3,2,15,"no effect"
"ssfOUT_15_0.5_3_KINGCOBRA.5",13.7469961398071,-967.382739645486,994.8767319251,"ssf","mf.is","gamma","vonmises",500,"ssfOUT_15_0.5_3_KINGCOBRA","KINGCOBRA",3,2,15,"no effect"
"ssfOUT_15_0.5_3_KINGCOBRA.6",13.7889239411104,-1770.52649070502,1798.10433858724,"ssf","mf.is","gamma","unif",5,"ssfOUT_15_0.5_3_KINGCOBRA","KINGCOBRA",3,2,15,"no effect"
"ssfOUT_15_0.5_3_KINGCOBRA.7",13.886770636782,-1129.01181831667,1156.78535959024,"ssf","mf.is","gamma","unif",15,"ssfOUT_15_0.5_3_KINGCOBRA","KINGCOBRA",3,2,15,"no effect"
"ssfOUT_15_0.5_3_KINGCOBRA.8",13.7853270366754,-857.491449751299,885.06210382465,"ssf","mf.is","gamma","unif",50,"ssfOUT_15_0.5_3_KINGCOBRA","KINGCOBRA",3,2,15,"no effect"
"ssfOUT_15_0.5_3_KINGCOBRA.9",13.7224167283571,-1011.88222458269,1039.32705803941,"ssf","mf.is","gamma","unif",158,"ssfOUT_15_0.5_3_KINGCOBRA","KINGCOBRA",3,2,15,"no effect"
"ssfOUT_15_0.5_3_KINGCOBRA.10",13.7473581022848,-959.271102627909,986.765818832479,"ssf","mf.is","gamma","unif",500,"ssfOUT_15_0.5_3_KINGCOBRA","KINGCOBRA",3,2,15,"no effect"
"ssfOUT_15_0.5_3_KINGCOBRA.11",14.7349795571562,-1707.90406758542,1737.37402669973,"ssf","mf.is","exp","vonmises",5,"ssfOUT_15_0.5_3_KINGCOBRA","KINGCOBRA",3,2,15,"no effect"
"ssfOUT_15_0.5_3_KINGCOBRA.12",14.4800775804963,-1835.5085178643,1864.4686730253,"ssf","mf.is","exp","vonmises",15,"ssfOUT_15_0.5_3_KINGCOBRA","KINGCOBRA",3,2,15,"no effect"
"ssfOUT_15_0.5_3_KINGCOBRA.13",14.7509550447736,-1261.44662693175,1290.9485370213,"ssf","mf.is","exp","vonmises",50,"ssfOUT_15_0.5_3_KINGCOBRA","KINGCOBRA",3,2,15,"no effect"
"ssfOUT_15_0.5_3_KINGCOBRA.14",14.1822493558568,-1006.60910973771,1034.97360844942,"ssf","mf.is","exp","vonmises",158,"ssfOUT_15_0.5_3_KINGCOBRA","KINGCOBRA",3,2,15,"no effect"
"ssfOUT_15_0.5_3_KINGCOBRA.15",13.2958302830323,-780.144543490605,806.73620405667,"ssf","mf.is","exp","vonmises",500,"ssfOUT_15_0.5_3_KINGCOBRA","KINGCOBRA",3,2,15,"no effect"
"ssfOUT_15_0.5_3_KINGCOBRA.16",13.3747380272657,-1945.41585330124,1972.16532935577,"ssf","mf.is","exp","unif",5,"ssfOUT_15_0.5_3_KINGCOBRA","KINGCOBRA",3,2,15,"no effect"
"ssfOUT_15_0.5_3_KINGCOBRA.17",15.0513573726608,-1719.01902614949,1749.12174089481,"ssf","mf.is","exp","unif",15,"ssfOUT_15_0.5_3_KINGCOBRA","KINGCOBRA",3,2,15,"no effect"
"ssfOUT_15_0.5_3_KINGCOBRA.18",13.8245468326432,-909.756944427832,937.406038093119,"ssf","mf.is","exp","unif",50,"ssfOUT_15_0.5_3_KINGCOBRA","KINGCOBRA",3,2,15,"no effect"
"ssfOUT_15_0.5_3_KINGCOBRA.19",13.8279035511934,-862.311138267073,889.96694536946,"ssf","mf.is","exp","unif",158,"ssfOUT_15_0.5_3_KINGCOBRA","KINGCOBRA",3,2,15,"no effect"
"ssfOUT_15_0.5_3_KINGCOBRA.20",14.4753015883799,-1079.34781807376,1108.29842125052,"ssf","mf.is","exp","unif",500,"ssfOUT_15_0.5_3_KINGCOBRA","KINGCOBRA",3,2,15,"no effect"
"ssfOUT_15_0.5_3_KINGCOBRA.21",13.6250419750177,-1212.84503067899,1240.09511462903,"ssf","mf.ss","gamma","vonmises",5,"ssfOUT_15_0.5_3_KINGCOBRA","KINGCOBRA",3,2,15,"no effect"
"ssfOUT_15_0.5_3_KINGCOBRA.22",13.7690145762913,-1142.08324684392,1169.6212759965,"ssf","mf.ss","gamma","vonmises",15,"ssfOUT_15_0.5_3_KINGCOBRA","KINGCOBRA",3,2,15,"no effect"
"ssfOUT_15_0.5_3_KINGCOBRA.23",13.735651916173,-977.984290147265,1005.45559397961,"ssf","mf.ss","gamma","vonmises",50,"ssfOUT_15_0.5_3_KINGCOBRA","KINGCOBRA",3,2,15,"no effect"
"ssfOUT_15_0.5_3_KINGCOBRA.24",13.6792613766276,-931.879362630761,959.237885384017,"ssf","mf.ss","gamma","vonmises",158,"ssfOUT_15_0.5_3_KINGCOBRA","KINGCOBRA",3,2,15,"no effect"
"ssfOUT_15_0.5_3_KINGCOBRA.25",13.697756739774,-960.958495255701,988.354008735249,"ssf","mf.ss","gamma","vonmises",500,"ssfOUT_15_0.5_3_KINGCOBRA","KINGCOBRA",3,2,15,"no effect"
"ssfOUT_15_0.5_3_KINGCOBRA.26",13.767138684923,-1729.38932345873,1756.92360082858,"ssf","mf.ss","gamma","unif",5,"ssfOUT_15_0.5_3_KINGCOBRA","KINGCOBRA",3,2,15,"no effect"
"ssfOUT_15_0.5_3_KINGCOBRA.27",13.7313025996901,-1123.49482704265,1150.95743224203,"ssf","mf.ss","gamma","unif",15,"ssfOUT_15_0.5_3_KINGCOBRA","KINGCOBRA",3,2,15,"no effect"
"ssfOUT_15_0.5_3_KINGCOBRA.28",13.7439255278348,-848.058747526258,875.546598581927,"ssf","mf.ss","gamma","unif",50,"ssfOUT_15_0.5_3_KINGCOBRA","KINGCOBRA",3,2,15,"no effect"
"ssfOUT_15_0.5_3_KINGCOBRA.29",13.6374799467685,-1004.20473375995,1031.47969365349,"ssf","mf.ss","gamma","unif",158,"ssfOUT_15_0.5_3_KINGCOBRA","KINGCOBRA",3,2,15,"no effect"
"ssfOUT_15_0.5_3_KINGCOBRA.30",13.6997984121973,-951.730509359253,979.130106183647,"ssf","mf.ss","gamma","unif",500,"ssfOUT_15_0.5_3_KINGCOBRA","KINGCOBRA",3,2,15,"no effect"
"ssfOUT_15_0.5_3_KINGCOBRA.31",14.7996722455119,-1472.05138938766,1501.65073387868,"ssf","mf.ss","exp","vonmises",5,"ssfOUT_15_0.5_3_KINGCOBRA","KINGCOBRA",3,2,15,"no effect"
"ssfOUT_15_0.5_3_KINGCOBRA.32",13.6844943007654,-1146.18311584699,1173.55210444852,"ssf","mf.ss","exp","vonmises",15,"ssfOUT_15_0.5_3_KINGCOBRA","KINGCOBRA",3,2,15,"no effect"
"ssfOUT_15_0.5_3_KINGCOBRA.33",13.9413169642171,-970.119678585787,998.002312514221,"ssf","mf.ss","exp","vonmises",50,"ssfOUT_15_0.5_3_KINGCOBRA","KINGCOBRA",3,2,15,"no effect"
"ssfOUT_15_0.5_3_KINGCOBRA.34",13.8909735828435,-926.300575276855,954.082522442542,"ssf","mf.ss","exp","vonmises",158,"ssfOUT_15_0.5_3_KINGCOBRA","KINGCOBRA",3,2,15,"no effect"
"ssfOUT_15_0.5_3_KINGCOBRA.35",13.7874725144956,-962.133099108433,989.708044137424,"ssf","mf.ss","exp","vonmises",500,"ssfOUT_15_0.5_3_KINGCOBRA","KINGCOBRA",3,2,15,"no effect"
"ssfOUT_15_0.5_3_KINGCOBRA.36",13.7147002869192,-1725.01827217026,1752.4476727441,"ssf","mf.ss","exp","unif",5,"ssfOUT_15_0.5_3_KINGCOBRA","KINGCOBRA",3,2,15,"no effect"
"ssfOUT_15_0.5_3_KINGCOBRA.37",13.880310703652,-1149.18969392693,1176.95031533424,"ssf","mf.ss","exp","unif",15,"ssfOUT_15_0.5_3_KINGCOBRA","KINGCOBRA",3,2,15,"no effect"
"ssfOUT_15_0.5_3_KINGCOBRA.38",13.9815352134036,-917.140239552342,945.103309979149,"ssf","mf.ss","exp","unif",50,"ssfOUT_15_0.5_3_KINGCOBRA","KINGCOBRA",3,2,15,"no effect"
"ssfOUT_15_0.5_3_KINGCOBRA.39",13.7672940268453,-998.107137896217,1025.64172594991,"ssf","mf.ss","exp","unif",158,"ssfOUT_15_0.5_3_KINGCOBRA","KINGCOBRA",3,2,15,"no effect"
"ssfOUT_15_0.5_3_KINGCOBRA.40",13.9778069698888,-926.449979406055,954.405593345832,"ssf","mf.ss","exp","unif",500,"ssfOUT_15_0.5_3_KINGCOBRA","KINGCOBRA",3,2,15,"no effect"
"ssfOUT_15_0.5_4_BADGER.1",1.00595390591236,0.430676490019609,1.5812313218051,"ssf","mf.is","gamma","vonmises",5,"ssfOUT_15_0.5_4_BADGER","BADGER",4,2,15,"preference"
"ssfOUT_15_0.5_4_BADGER.2",1.02285673473361,0.480253592750095,1.56545987671712,"ssf","mf.is","gamma","vonmises",15,"ssfOUT_15_0.5_4_BADGER","BADGER",4,2,15,"preference"
"ssfOUT_15_0.5_4_BADGER.3",1.08913367907133,0.557078555978921,1.62118880216373,"ssf","mf.is","gamma","vonmises",50,"ssfOUT_15_0.5_4_BADGER","BADGER",4,2,15,"preference"
"ssfOUT_15_0.5_4_BADGER.4",0.997801891680218,0.469249618129036,1.5263541652314,"ssf","mf.is","gamma","vonmises",158,"ssfOUT_15_0.5_4_BADGER","BADGER",4,2,15,"preference"
"ssfOUT_15_0.5_4_BADGER.5",0.951001117738547,0.423581138838604,1.47842109663849,"ssf","mf.is","gamma","vonmises",500,"ssfOUT_15_0.5_4_BADGER","BADGER",4,2,15,"preference"
"ssfOUT_15_0.5_4_BADGER.6",0.944994903495229,0.370807034255708,1.51918277273475,"ssf","mf.is","gamma","unif",5,"ssfOUT_15_0.5_4_BADGER","BADGER",4,2,15,"preference"
"ssfOUT_15_0.5_4_BADGER.7",0.86484779696124,0.31727110804948,1.412424485873,"ssf","mf.is","gamma","unif",15,"ssfOUT_15_0.5_4_BADGER","BADGER",4,2,15,"preference"
"ssfOUT_15_0.5_4_BADGER.8",0.867121442659294,0.338718080884391,1.3955248044342,"ssf","mf.is","gamma","unif",50,"ssfOUT_15_0.5_4_BADGER","BADGER",4,2,15,"preference"
"ssfOUT_15_0.5_4_BADGER.9",0.948102843602049,0.414780128001956,1.48142555920214,"ssf","mf.is","gamma","unif",158,"ssfOUT_15_0.5_4_BADGER","BADGER",4,2,15,"preference"
"ssfOUT_15_0.5_4_BADGER.10",0.975833639786418,0.447280817249634,1.5043864623232,"ssf","mf.is","gamma","unif",500,"ssfOUT_15_0.5_4_BADGER","BADGER",4,2,15,"preference"
"ssfOUT_15_0.5_4_BADGER.11",1.00086637407272,0.400396310266944,1.60133643787849,"ssf","mf.is","exp","vonmises",5,"ssfOUT_15_0.5_4_BADGER","BADGER",4,2,15,"preference"
"ssfOUT_15_0.5_4_BADGER.12",0.918151369927984,0.3752759745044,1.46102676535157,"ssf","mf.is","exp","vonmises",15,"ssfOUT_15_0.5_4_BADGER","BADGER",4,2,15,"preference"
"ssfOUT_15_0.5_4_BADGER.13",1.01581393462237,0.480484387055603,1.55114348218914,"ssf","mf.is","exp","vonmises",50,"ssfOUT_15_0.5_4_BADGER","BADGER",4,2,15,"preference"
"ssfOUT_15_0.5_4_BADGER.14",0.920804123695632,0.391765268756954,1.44984297863431,"ssf","mf.is","exp","vonmises",158,"ssfOUT_15_0.5_4_BADGER","BADGER",4,2,15,"preference"
"ssfOUT_15_0.5_4_BADGER.15",0.965545638400512,0.435757212656055,1.49533406414497,"ssf","mf.is","exp","vonmises",500,"ssfOUT_15_0.5_4_BADGER","BADGER",4,2,15,"preference"
"ssfOUT_15_0.5_4_BADGER.16",0.632454393269617,0.0598268721373703,1.20508191440186,"ssf","mf.is","exp","unif",5,"ssfOUT_15_0.5_4_BADGER","BADGER",4,2,15,"preference"
"ssfOUT_15_0.5_4_BADGER.17",0.807934508116559,0.266244597947852,1.34962441828527,"ssf","mf.is","exp","unif",15,"ssfOUT_15_0.5_4_BADGER","BADGER",4,2,15,"preference"
"ssfOUT_15_0.5_4_BADGER.18",0.763353493617301,0.237858701182463,1.28884828605214,"ssf","mf.is","exp","unif",50,"ssfOUT_15_0.5_4_BADGER","BADGER",4,2,15,"preference"
"ssfOUT_15_0.5_4_BADGER.19",1.02902770086808,0.500452568041827,1.55760283369433,"ssf","mf.is","exp","unif",158,"ssfOUT_15_0.5_4_BADGER","BADGER",4,2,15,"preference"
"ssfOUT_15_0.5_4_BADGER.20",0.977164062668051,0.447248565786039,1.50707955955006,"ssf","mf.is","exp","unif",500,"ssfOUT_15_0.5_4_BADGER","BADGER",4,2,15,"preference"
"ssfOUT_15_0.5_4_BADGER.21",0.968845653233427,0.391479886696991,1.54621141976986,"ssf","mf.ss","gamma","vonmises",5,"ssfOUT_15_0.5_4_BADGER","BADGER",4,2,15,"preference"
"ssfOUT_15_0.5_4_BADGER.22",1.00408812536341,0.460186360423015,1.54798989030381,"ssf","mf.ss","gamma","vonmises",15,"ssfOUT_15_0.5_4_BADGER","BADGER",4,2,15,"preference"
"ssfOUT_15_0.5_4_BADGER.23",1.0664995015056,0.53322834808684,1.59977065492435,"ssf","mf.ss","gamma","vonmises",50,"ssfOUT_15_0.5_4_BADGER","BADGER",4,2,15,"preference"
"ssfOUT_15_0.5_4_BADGER.24",0.976106084130818,0.446208163033164,1.50600400522847,"ssf","mf.ss","gamma","vonmises",158,"ssfOUT_15_0.5_4_BADGER","BADGER",4,2,15,"preference"
"ssfOUT_15_0.5_4_BADGER.25",0.929882126085076,0.401237408129645,1.45852684404051,"ssf","mf.ss","gamma","vonmises",500,"ssfOUT_15_0.5_4_BADGER","BADGER",4,2,15,"preference"
"ssfOUT_15_0.5_4_BADGER.26",0.924531464971808,0.34886579820199,1.50019713174163,"ssf","mf.ss","gamma","unif",5,"ssfOUT_15_0.5_4_BADGER","BADGER",4,2,15,"preference"
"ssfOUT_15_0.5_4_BADGER.27",0.85235688289503,0.301707922423458,1.4030058433666,"ssf","mf.ss","gamma","unif",15,"ssfOUT_15_0.5_4_BADGER","BADGER",4,2,15,"preference"
"ssfOUT_15_0.5_4_BADGER.28",0.852540118171052,0.323326871649156,1.38175336469295,"ssf","mf.ss","gamma","unif",50,"ssfOUT_15_0.5_4_BADGER","BADGER",4,2,15,"preference"
"ssfOUT_15_0.5_4_BADGER.29",0.931396179738396,0.396227246285878,1.46656511319091,"ssf","mf.ss","gamma","unif",158,"ssfOUT_15_0.5_4_BADGER","BADGER",4,2,15,"preference"
"ssfOUT_15_0.5_4_BADGER.30",0.963437611882863,0.433630806437429,1.4932444173283,"ssf","mf.ss","gamma","unif",500,"ssfOUT_15_0.5_4_BADGER","BADGER",4,2,15,"preference"
"ssfOUT_15_0.5_4_BADGER.31",0.863507699279352,0.290908883979351,1.43610651457935,"ssf","mf.ss","exp","vonmises",5,"ssfOUT_15_0.5_4_BADGER","BADGER",4,2,15,"preference"
"ssfOUT_15_0.5_4_BADGER.32",0.920080484232382,0.376334315547523,1.46382665291724,"ssf","mf.ss","exp","vonmises",15,"ssfOUT_15_0.5_4_BADGER","BADGER",4,2,15,"preference"
"ssfOUT_15_0.5_4_BADGER.33",0.96420115054844,0.435655331821995,1.49274696927488,"ssf","mf.ss","exp","vonmises",50,"ssfOUT_15_0.5_4_BADGER","BADGER",4,2,15,"preference"
"ssfOUT_15_0.5_4_BADGER.34",0.922387487551128,0.394808437200083,1.44996653790217,"ssf","mf.ss","exp","vonmises",158,"ssfOUT_15_0.5_4_BADGER","BADGER",4,2,15,"preference"
"ssfOUT_15_0.5_4_BADGER.35",0.949392963698579,0.422549479186443,1.47623644821071,"ssf","mf.ss","exp","vonmises",500,"ssfOUT_15_0.5_4_BADGER","BADGER",4,2,15,"preference"
"ssfOUT_15_0.5_4_BADGER.36",0.715616587055505,0.149470694676636,1.28176247943437,"ssf","mf.ss","exp","unif",5,"ssfOUT_15_0.5_4_BADGER","BADGER",4,2,15,"preference"
"ssfOUT_15_0.5_4_BADGER.37",0.886152780924037,0.349065390360518,1.42324017148756,"ssf","mf.ss","exp","unif",15,"ssfOUT_15_0.5_4_BADGER","BADGER",4,2,15,"preference"
"ssfOUT_15_0.5_4_BADGER.38",0.827640882768816,0.299456214016568,1.35582555152106,"ssf","mf.ss","exp","unif",50,"ssfOUT_15_0.5_4_BADGER","BADGER",4,2,15,"preference"
"ssfOUT_15_0.5_4_BADGER.39",1.0476088772277,0.520413785143463,1.57480396931193,"ssf","mf.ss","exp","unif",158,"ssfOUT_15_0.5_4_BADGER","BADGER",4,2,15,"preference"
"ssfOUT_15_0.5_4_BADGER.40",0.973340204394197,0.446778921059936,1.49990148772846,"ssf","mf.ss","exp","unif",500,"ssfOUT_15_0.5_4_BADGER","BADGER",4,2,15,"preference"
"ssfOUT_15_0.5_4_VULTURE.1",0.467355584431241,0.091696700220651,0.84301446864183,"ssf","mf.is","gamma","vonmises",5,"ssfOUT_15_0.5_4_VULTURE","VULTURE",4,2,15,"preference"
"ssfOUT_15_0.5_4_VULTURE.2",0.689628147110066,0.331230671234492,1.04802562298564,"ssf","mf.is","gamma","vonmises",15,"ssfOUT_15_0.5_4_VULTURE","VULTURE",4,2,15,"preference"
"ssfOUT_15_0.5_4_VULTURE.3",0.556163663698637,0.199094343347009,0.913232984050266,"ssf","mf.is","gamma","vonmises",50,"ssfOUT_15_0.5_4_VULTURE","VULTURE",4,2,15,"preference"
"ssfOUT_15_0.5_4_VULTURE.4",0.569706581481315,0.21476994194494,0.92464322101769,"ssf","mf.is","gamma","vonmises",158,"ssfOUT_15_0.5_4_VULTURE","VULTURE",4,2,15,"preference"
"ssfOUT_15_0.5_4_VULTURE.5",0.526297557508816,0.1729629042186,0.879632210799032,"ssf","mf.is","gamma","vonmises",500,"ssfOUT_15_0.5_4_VULTURE","VULTURE",4,2,15,"preference"
"ssfOUT_15_0.5_4_VULTURE.6",0.489304410351213,0.115670732179901,0.862938088522524,"ssf","mf.is","gamma","unif",5,"ssfOUT_15_0.5_4_VULTURE","VULTURE",4,2,15,"preference"
"ssfOUT_15_0.5_4_VULTURE.7",0.554358856722816,0.191545963870759,0.917171749574874,"ssf","mf.is","gamma","unif",15,"ssfOUT_15_0.5_4_VULTURE","VULTURE",4,2,15,"preference"
"ssfOUT_15_0.5_4_VULTURE.8",0.556591074334889,0.200668884899955,0.912513263769822,"ssf","mf.is","gamma","unif",50,"ssfOUT_15_0.5_4_VULTURE","VULTURE",4,2,15,"preference"
"ssfOUT_15_0.5_4_VULTURE.9",0.510222462822021,0.157123664057088,0.863321261586955,"ssf","mf.is","gamma","unif",158,"ssfOUT_15_0.5_4_VULTURE","VULTURE",4,2,15,"preference"
"ssfOUT_15_0.5_4_VULTURE.10",0.559026584429044,0.206128003089774,0.911925165768314,"ssf","mf.is","gamma","unif",500,"ssfOUT_15_0.5_4_VULTURE","VULTURE",4,2,15,"preference"
"ssfOUT_15_0.5_4_VULTURE.11",0.700321606519877,0.308229049024606,1.09241416401515,"ssf","mf.is","exp","vonmises",5,"ssfOUT_15_0.5_4_VULTURE","VULTURE",4,2,15,"preference"
"ssfOUT_15_0.5_4_VULTURE.12",0.380810705690825,0.0144162356997203,0.747205175681929,"ssf","mf.is","exp","vonmises",15,"ssfOUT_15_0.5_4_VULTURE","VULTURE",4,2,15,"preference"
"ssfOUT_15_0.5_4_VULTURE.13",0.593045874714566,0.235921679616607,0.950170069812525,"ssf","mf.is","exp","vonmises",50,"ssfOUT_15_0.5_4_VULTURE","VULTURE",4,2,15,"preference"
"ssfOUT_15_0.5_4_VULTURE.14",0.51763477632516,0.163418490861957,0.871851061788363,"ssf","mf.is","exp","vonmises",158,"ssfOUT_15_0.5_4_VULTURE","VULTURE",4,2,15,"preference"
"ssfOUT_15_0.5_4_VULTURE.15",0.547891498795787,0.193973003708847,0.901809993882727,"ssf","mf.is","exp","vonmises",500,"ssfOUT_15_0.5_4_VULTURE","VULTURE",4,2,15,"preference"
"ssfOUT_15_0.5_4_VULTURE.16",0.640806491366722,0.26442649383933,1.01718648889411,"ssf","mf.is","exp","unif",5,"ssfOUT_15_0.5_4_VULTURE","VULTURE",4,2,15,"preference"
"ssfOUT_15_0.5_4_VULTURE.17",0.443628403813724,0.0810060911485732,0.806250716478875,"ssf","mf.is","exp","unif",15,"ssfOUT_15_0.5_4_VULTURE","VULTURE",4,2,15,"preference"
"ssfOUT_15_0.5_4_VULTURE.18",0.554721676229782,0.197178672374457,0.912264680085106,"ssf","mf.is","exp","unif",50,"ssfOUT_15_0.5_4_VULTURE","VULTURE",4,2,15,"preference"
"ssfOUT_15_0.5_4_VULTURE.19",0.543552779390272,0.188431195491719,0.898674363288825,"ssf","mf.is","exp","unif",158,"ssfOUT_15_0.5_4_VULTURE","VULTURE",4,2,15,"preference"
"ssfOUT_15_0.5_4_VULTURE.20",0.556720065683321,0.202480032073681,0.910960099292961,"ssf","mf.is","exp","unif",500,"ssfOUT_15_0.5_4_VULTURE","VULTURE",4,2,15,"preference"
"ssfOUT_15_0.5_4_VULTURE.21",0.456545650869541,0.0810206051128489,0.832070696626233,"ssf","mf.ss","gamma","vonmises",5,"ssfOUT_15_0.5_4_VULTURE","VULTURE",4,2,15,"preference"
"ssfOUT_15_0.5_4_VULTURE.22",0.685371984987283,0.326697205709764,1.0440467642648,"ssf","mf.ss","gamma","vonmises",15,"ssfOUT_15_0.5_4_VULTURE","VULTURE",4,2,15,"preference"
"ssfOUT_15_0.5_4_VULTURE.23",0.553674885654574,0.196479122001286,0.910870649307862,"ssf","mf.ss","gamma","vonmises",50,"ssfOUT_15_0.5_4_VULTURE","VULTURE",4,2,15,"preference"
"ssfOUT_15_0.5_4_VULTURE.24",0.568957721624013,0.214019535069896,0.923895908178129,"ssf","mf.ss","gamma","vonmises",158,"ssfOUT_15_0.5_4_VULTURE","VULTURE",4,2,15,"preference"
"ssfOUT_15_0.5_4_VULTURE.25",0.525332741370664,0.172003980864425,0.878661501876903,"ssf","mf.ss","gamma","vonmises",500,"ssfOUT_15_0.5_4_VULTURE","VULTURE",4,2,15,"preference"
"ssfOUT_15_0.5_4_VULTURE.26",0.519494196671225,0.146447099628139,0.892541293714311,"ssf","mf.ss","gamma","unif",5,"ssfOUT_15_0.5_4_VULTURE","VULTURE",4,2,15,"preference"
"ssfOUT_15_0.5_4_VULTURE.27",0.569345536427471,0.20635503732736,0.932336035527582,"ssf","mf.ss","gamma","unif",15,"ssfOUT_15_0.5_4_VULTURE","VULTURE",4,2,15,"preference"
"ssfOUT_15_0.5_4_VULTURE.28",0.572275754867842,0.216196954641319,0.928354555094366,"ssf","mf.ss","gamma","unif",50,"ssfOUT_15_0.5_4_VULTURE","VULTURE",4,2,15,"preference"
"ssfOUT_15_0.5_4_VULTURE.29",0.516237512501682,0.163315351733741,0.869159673269622,"ssf","mf.ss","gamma","unif",158,"ssfOUT_15_0.5_4_VULTURE","VULTURE",4,2,15,"preference"
"ssfOUT_15_0.5_4_VULTURE.30",0.5694943065907,0.216711547332007,0.922277065849393,"ssf","mf.ss","gamma","unif",500,"ssfOUT_15_0.5_4_VULTURE","VULTURE",4,2,15,"preference"
"ssfOUT_15_0.5_4_VULTURE.31",0.631957134077087,0.249282324777836,1.01463194337634,"ssf","mf.ss","exp","vonmises",5,"ssfOUT_15_0.5_4_VULTURE","VULTURE",4,2,15,"preference"
"ssfOUT_15_0.5_4_VULTURE.32",0.38904915913129,0.0254835147337458,0.752614803528834,"ssf","mf.ss","exp","vonmises",15,"ssfOUT_15_0.5_4_VULTURE","VULTURE",4,2,15,"preference"
"ssfOUT_15_0.5_4_VULTURE.33",0.618806675770434,0.258767326086589,0.978846025454278,"ssf","mf.ss","exp","vonmises",50,"ssfOUT_15_0.5_4_VULTURE","VULTURE",4,2,15,"preference"
"ssfOUT_15_0.5_4_VULTURE.34",0.524597685249362,0.168510421783468,0.880684948715255,"ssf","mf.ss","exp","vonmises",158,"ssfOUT_15_0.5_4_VULTURE","VULTURE",4,2,15,"preference"
"ssfOUT_15_0.5_4_VULTURE.35",0.550274641338238,0.194612439311032,0.905936843365443,"ssf","mf.ss","exp","vonmises",500,"ssfOUT_15_0.5_4_VULTURE","VULTURE",4,2,15,"preference"
"ssfOUT_15_0.5_4_VULTURE.36",0.597219744910537,0.218550341413638,0.975889148407436,"ssf","mf.ss","exp","unif",5,"ssfOUT_15_0.5_4_VULTURE","VULTURE",4,2,15,"preference"
"ssfOUT_15_0.5_4_VULTURE.37",0.483175872414399,0.119327069688881,0.847024675139918,"ssf","mf.ss","exp","unif",15,"ssfOUT_15_0.5_4_VULTURE","VULTURE",4,2,15,"preference"
"ssfOUT_15_0.5_4_VULTURE.38",0.568402301299616,0.208926000286324,0.927878602312908,"ssf","mf.ss","exp","unif",50,"ssfOUT_15_0.5_4_VULTURE","VULTURE",4,2,15,"preference"
"ssfOUT_15_0.5_4_VULTURE.39",0.567505263616413,0.211345938139655,0.923664589093172,"ssf","mf.ss","exp","unif",158,"ssfOUT_15_0.5_4_VULTURE","VULTURE",4,2,15,"preference"
"ssfOUT_15_0.5_4_VULTURE.40",0.563796849496454,0.207865395622161,0.919728303370746,"ssf","mf.ss","exp","unif",500,"ssfOUT_15_0.5_4_VULTURE","VULTURE",4,2,15,"preference"
"ssfOUT_15_0.5_4_KINGCOBRA.1",0.24013751220679,-0.340720784865194,0.820995809278774,"ssf","mf.is","gamma","vonmises",5,"ssfOUT_15_0.5_4_KINGCOBRA","KINGCOBRA",4,2,15,"no effect"
"ssfOUT_15_0.5_4_KINGCOBRA.2",0.331540824434442,-0.231357552654772,0.894439201523655,"ssf","mf.is","gamma","vonmises",15,"ssfOUT_15_0.5_4_KINGCOBRA","KINGCOBRA",4,2,15,"no effect"
"ssfOUT_15_0.5_4_KINGCOBRA.3",0.303931155011348,-0.24240241316142,0.850264723184117,"ssf","mf.is","gamma","vonmises",50,"ssfOUT_15_0.5_4_KINGCOBRA","KINGCOBRA",4,2,15,"no effect"
"ssfOUT_15_0.5_4_KINGCOBRA.4",0.424496522731602,-0.119365505627953,0.968358551091156,"ssf","mf.is","gamma","vonmises",158,"ssfOUT_15_0.5_4_KINGCOBRA","KINGCOBRA",4,2,15,"no effect"
"ssfOUT_15_0.5_4_KINGCOBRA.5",0.335605819764131,-0.211093563131245,0.882305202659507,"ssf","mf.is","gamma","vonmises",500,"ssfOUT_15_0.5_4_KINGCOBRA","KINGCOBRA",4,2,15,"no effect"
"ssfOUT_15_0.5_4_KINGCOBRA.6",0.577615434157756,0.0153647586086207,1.13986610970689,"ssf","mf.is","gamma","unif",5,"ssfOUT_15_0.5_4_KINGCOBRA","KINGCOBRA",4,2,15,"preference"
"ssfOUT_15_0.5_4_KINGCOBRA.7",0.408791771815168,-0.148458324597673,0.966041868228008,"ssf","mf.is","gamma","unif",15,"ssfOUT_15_0.5_4_KINGCOBRA","KINGCOBRA",4,2,15,"no effect"
"ssfOUT_15_0.5_4_KINGCOBRA.8",0.302307941295407,-0.244363880888301,0.848979763479115,"ssf","mf.is","gamma","unif",50,"ssfOUT_15_0.5_4_KINGCOBRA","KINGCOBRA",4,2,15,"no effect"
"ssfOUT_15_0.5_4_KINGCOBRA.9",0.353611695349485,-0.191842495500396,0.899065886199366,"ssf","mf.is","gamma","unif",158,"ssfOUT_15_0.5_4_KINGCOBRA","KINGCOBRA",4,2,15,"no effect"
"ssfOUT_15_0.5_4_KINGCOBRA.10",0.362799279485025,-0.184540806379016,0.910139365349066,"ssf","mf.is","gamma","unif",500,"ssfOUT_15_0.5_4_KINGCOBRA","KINGCOBRA",4,2,15,"no effect"
"ssfOUT_15_0.5_4_KINGCOBRA.11",0.639565549824219,-0.0617259912618151,1.34085709091025,"ssf","mf.is","exp","vonmises",5,"ssfOUT_15_0.5_4_KINGCOBRA","KINGCOBRA",4,2,15,"no effect"
"ssfOUT_15_0.5_4_KINGCOBRA.12",0.477650645123583,-0.0693138085972887,1.02461509884446,"ssf","mf.is","exp","vonmises",15,"ssfOUT_15_0.5_4_KINGCOBRA","KINGCOBRA",4,2,15,"no effect"
"ssfOUT_15_0.5_4_KINGCOBRA.13",0.63685903396156,0.0952623362054654,1.17845573171765,"ssf","mf.is","exp","vonmises",50,"ssfOUT_15_0.5_4_KINGCOBRA","KINGCOBRA",4,2,15,"preference"
"ssfOUT_15_0.5_4_KINGCOBRA.14",0.357425727569856,-0.192400922998175,0.907252378137888,"ssf","mf.is","exp","vonmises",158,"ssfOUT_15_0.5_4_KINGCOBRA","KINGCOBRA",4,2,15,"no effect"
"ssfOUT_15_0.5_4_KINGCOBRA.15",0.402739527173476,-0.155169150118173,0.960648204465125,"ssf","mf.is","exp","vonmises",500,"ssfOUT_15_0.5_4_KINGCOBRA","KINGCOBRA",4,2,15,"no effect"
"ssfOUT_15_0.5_4_KINGCOBRA.16",0.249384104038477,-0.344691339738132,0.843459547815087,"ssf","mf.is","exp","unif",5,"ssfOUT_15_0.5_4_KINGCOBRA","KINGCOBRA",4,2,15,"no effect"
"ssfOUT_15_0.5_4_KINGCOBRA.17",0.0270054761717659,-0.534466436973298,0.58847738931683,"ssf","mf.is","exp","unif",15,"ssfOUT_15_0.5_4_KINGCOBRA","KINGCOBRA",4,2,15,"no effect"
"ssfOUT_15_0.5_4_KINGCOBRA.18",0.510418571689732,-0.0533725818894243,1.07420972526889,"ssf","mf.is","exp","unif",50,"ssfOUT_15_0.5_4_KINGCOBRA","KINGCOBRA",4,2,15,"no effect"
"ssfOUT_15_0.5_4_KINGCOBRA.19",0.399464463068268,-0.145955406090075,0.94488433222661,"ssf","mf.is","exp","unif",158,"ssfOUT_15_0.5_4_KINGCOBRA","KINGCOBRA",4,2,15,"no effect"
"ssfOUT_15_0.5_4_KINGCOBRA.20",0.334490904853348,-0.218224345532849,0.887206155239546,"ssf","mf.is","exp","unif",500,"ssfOUT_15_0.5_4_KINGCOBRA","KINGCOBRA",4,2,15,"no effect"
"ssfOUT_15_0.5_4_KINGCOBRA.21",0.245478790054005,-0.336057654176811,0.827015234284822,"ssf","mf.ss","gamma","vonmises",5,"ssfOUT_15_0.5_4_KINGCOBRA","KINGCOBRA",4,2,15,"no effect"
"ssfOUT_15_0.5_4_KINGCOBRA.22",0.339680323547895,-0.220472040217982,0.899832687313772,"ssf","mf.ss","gamma","vonmises",15,"ssfOUT_15_0.5_4_KINGCOBRA","KINGCOBRA",4,2,15,"no effect"
"ssfOUT_15_0.5_4_KINGCOBRA.23",0.301881969400138,-0.243788791987079,0.847552730787355,"ssf","mf.ss","gamma","vonmises",50,"ssfOUT_15_0.5_4_KINGCOBRA","KINGCOBRA",4,2,15,"no effect"
"ssfOUT_15_0.5_4_KINGCOBRA.24",0.422113949678045,-0.121703383109948,0.965931282466038,"ssf","mf.ss","gamma","vonmises",158,"ssfOUT_15_0.5_4_KINGCOBRA","KINGCOBRA",4,2,15,"no effect"
"ssfOUT_15_0.5_4_KINGCOBRA.25",0.331855814848419,-0.21457412668169,0.878285756378528,"ssf","mf.ss","gamma","vonmises",500,"ssfOUT_15_0.5_4_KINGCOBRA","KINGCOBRA",4,2,15,"no effect"
"ssfOUT_15_0.5_4_KINGCOBRA.26",0.593654515733829,0.031826267515538,1.15548276395212,"ssf","mf.ss","gamma","unif",5,"ssfOUT_15_0.5_4_KINGCOBRA","KINGCOBRA",4,2,15,"preference"
"ssfOUT_15_0.5_4_KINGCOBRA.27",0.405927923419051,-0.151754478875437,0.963610325713538,"ssf","mf.ss","gamma","unif",15,"ssfOUT_15_0.5_4_KINGCOBRA","KINGCOBRA",4,2,15,"no effect"
"ssfOUT_15_0.5_4_KINGCOBRA.28",0.300202401417691,-0.246539235842653,0.846944038678036,"ssf","mf.ss","gamma","unif",50,"ssfOUT_15_0.5_4_KINGCOBRA","KINGCOBRA",4,2,15,"no effect"
"ssfOUT_15_0.5_4_KINGCOBRA.29",0.353544851903526,-0.19163240386417,0.898722107671223,"ssf","mf.ss","gamma","unif",158,"ssfOUT_15_0.5_4_KINGCOBRA","KINGCOBRA",4,2,15,"no effect"
"ssfOUT_15_0.5_4_KINGCOBRA.30",0.36459013731273,-0.182308713277533,0.911488987902993,"ssf","mf.ss","gamma","unif",500,"ssfOUT_15_0.5_4_KINGCOBRA","KINGCOBRA",4,2,15,"no effect"
"ssfOUT_15_0.5_4_KINGCOBRA.31",-0.243260785538013,-0.824063073313347,0.337541502237321,"ssf","mf.ss","exp","vonmises",5,"ssfOUT_15_0.5_4_KINGCOBRA","KINGCOBRA",4,2,15,"no effect"
"ssfOUT_15_0.5_4_KINGCOBRA.32",0.117203383115659,-0.420545014684289,0.654951780915607,"ssf","mf.ss","exp","vonmises",15,"ssfOUT_15_0.5_4_KINGCOBRA","KINGCOBRA",4,2,15,"no effect"
"ssfOUT_15_0.5_4_KINGCOBRA.33",0.176249721498115,-0.357279277635991,0.709778720632222,"ssf","mf.ss","exp","vonmises",50,"ssfOUT_15_0.5_4_KINGCOBRA","KINGCOBRA",4,2,15,"no effect"
"ssfOUT_15_0.5_4_KINGCOBRA.34",0.099358866735272,-0.439819240177542,0.638536973648086,"ssf","mf.ss","exp","vonmises",158,"ssfOUT_15_0.5_4_KINGCOBRA","KINGCOBRA",4,2,15,"no effect"
"ssfOUT_15_0.5_4_KINGCOBRA.35",0.0712327393400115,-0.465966577413566,0.608432056093589,"ssf","mf.ss","exp","vonmises",500,"ssfOUT_15_0.5_4_KINGCOBRA","KINGCOBRA",4,2,15,"no effect"
"ssfOUT_15_0.5_4_KINGCOBRA.36",-0.0713731747713108,-0.6307613263034,0.488014976760778,"ssf","mf.ss","exp","unif",5,"ssfOUT_15_0.5_4_KINGCOBRA","KINGCOBRA",4,2,15,"no effect"
"ssfOUT_15_0.5_4_KINGCOBRA.37",-0.0354885905463206,-0.57819623011644,0.507219049023798,"ssf","mf.ss","exp","unif",15,"ssfOUT_15_0.5_4_KINGCOBRA","KINGCOBRA",4,2,15,"no effect"
"ssfOUT_15_0.5_4_KINGCOBRA.38",0.183361046356571,-0.361705954602475,0.728428047315618,"ssf","mf.ss","exp","unif",50,"ssfOUT_15_0.5_4_KINGCOBRA","KINGCOBRA",4,2,15,"no effect"
"ssfOUT_15_0.5_4_KINGCOBRA.39",0.0683066258340834,-0.469537520314244,0.606150771982411,"ssf","mf.ss","exp","unif",158,"ssfOUT_15_0.5_4_KINGCOBRA","KINGCOBRA",4,2,15,"no effect"
"ssfOUT_15_0.5_4_KINGCOBRA.40",0.0476119950729565,-0.489690026367105,0.584914016513018,"ssf","mf.ss","exp","unif",500,"ssfOUT_15_0.5_4_KINGCOBRA","KINGCOBRA",4,2,15,"no effect"
"ssfOUT_15_1_1_BADGER.1",0.516480498142525,-0.279255911199382,1.31221690748443,"ssf","mf.is","gamma","vonmises",5,"ssfOUT_15_1_1_BADGER","BADGER",1,1,15,"no effect"
"ssfOUT_15_1_1_BADGER.2",0.250173439739349,-0.509486889627243,1.00983376910594,"ssf","mf.is","gamma","vonmises",15,"ssfOUT_15_1_1_BADGER","BADGER",1,1,15,"no effect"
"ssfOUT_15_1_1_BADGER.3",0.500954035540157,-0.268337371527213,1.27024544260753,"ssf","mf.is","gamma","vonmises",50,"ssfOUT_15_1_1_BADGER","BADGER",1,1,15,"no effect"
"ssfOUT_15_1_1_BADGER.4",0.566852814620569,-0.185974189385677,1.31967981862682,"ssf","mf.is","gamma","vonmises",158,"ssfOUT_15_1_1_BADGER","BADGER",1,1,15,"no effect"
"ssfOUT_15_1_1_BADGER.5",0.501715087130568,-0.253016767037122,1.25644694129826,"ssf","mf.is","gamma","vonmises",500,"ssfOUT_15_1_1_BADGER","BADGER",1,1,15,"no effect"
"ssfOUT_15_1_1_BADGER.6",0.803894725966834,0.0290354327649137,1.57875401916875,"ssf","mf.is","gamma","unif",5,"ssfOUT_15_1_1_BADGER","BADGER",1,1,15,"preference"
"ssfOUT_15_1_1_BADGER.7",0.166171999956912,-0.624461834812113,0.956805834725938,"ssf","mf.is","gamma","unif",15,"ssfOUT_15_1_1_BADGER","BADGER",1,1,15,"no effect"
"ssfOUT_15_1_1_BADGER.8",0.492801229228126,-0.255959849558127,1.24156230801438,"ssf","mf.is","gamma","unif",50,"ssfOUT_15_1_1_BADGER","BADGER",1,1,15,"no effect"
"ssfOUT_15_1_1_BADGER.9",0.490652788368198,-0.256430332630721,1.23773590936712,"ssf","mf.is","gamma","unif",158,"ssfOUT_15_1_1_BADGER","BADGER",1,1,15,"no effect"
"ssfOUT_15_1_1_BADGER.10",0.630158712390432,-0.12342614150262,1.38374356628348,"ssf","mf.is","gamma","unif",500,"ssfOUT_15_1_1_BADGER","BADGER",1,1,15,"no effect"
"ssfOUT_15_1_1_BADGER.11",0.0431586608987338,-0.773385008186259,0.859702329983727,"ssf","mf.is","exp","vonmises",5,"ssfOUT_15_1_1_BADGER","BADGER",1,1,15,"no effect"
"ssfOUT_15_1_1_BADGER.12",0.93766905867933,0.17475433841103,1.70058377894763,"ssf","mf.is","exp","vonmises",15,"ssfOUT_15_1_1_BADGER","BADGER",1,1,15,"preference"
"ssfOUT_15_1_1_BADGER.13",0.327553196006455,-0.437093620472454,1.09220001248536,"ssf","mf.is","exp","vonmises",50,"ssfOUT_15_1_1_BADGER","BADGER",1,1,15,"no effect"
"ssfOUT_15_1_1_BADGER.14",0.509387879825009,-0.243061353889564,1.26183711353958,"ssf","mf.is","exp","vonmises",158,"ssfOUT_15_1_1_BADGER","BADGER",1,1,15,"no effect"
"ssfOUT_15_1_1_BADGER.15",0.572460610745034,-0.181151310566303,1.32607253205637,"ssf","mf.is","exp","vonmises",500,"ssfOUT_15_1_1_BADGER","BADGER",1,1,15,"no effect"
"ssfOUT_15_1_1_BADGER.16",-0.226040989946123,-1.03913094554389,0.587048965651647,"ssf","mf.is","exp","unif",5,"ssfOUT_15_1_1_BADGER","BADGER",1,1,15,"no effect"
"ssfOUT_15_1_1_BADGER.17",0.555446289449814,-0.200226426292919,1.31111900519255,"ssf","mf.is","exp","unif",15,"ssfOUT_15_1_1_BADGER","BADGER",1,1,15,"no effect"
"ssfOUT_15_1_1_BADGER.18",0.487404326954278,-0.268490815010743,1.2432994689193,"ssf","mf.is","exp","unif",50,"ssfOUT_15_1_1_BADGER","BADGER",1,1,15,"no effect"
"ssfOUT_15_1_1_BADGER.19",0.54773203261991,-0.20148824057636,1.29695230581618,"ssf","mf.is","exp","unif",158,"ssfOUT_15_1_1_BADGER","BADGER",1,1,15,"no effect"
"ssfOUT_15_1_1_BADGER.20",0.561769776104033,-0.192808001770264,1.31634755397833,"ssf","mf.is","exp","unif",500,"ssfOUT_15_1_1_BADGER","BADGER",1,1,15,"no effect"
"ssfOUT_15_1_1_BADGER.21",0.548400543234606,-0.246773779345485,1.3435748658147,"ssf","mf.ss","gamma","vonmises",5,"ssfOUT_15_1_1_BADGER","BADGER",1,1,15,"no effect"
"ssfOUT_15_1_1_BADGER.22",0.252216354740729,-0.50562082276928,1.01005353225074,"ssf","mf.ss","gamma","vonmises",15,"ssfOUT_15_1_1_BADGER","BADGER",1,1,15,"no effect"
"ssfOUT_15_1_1_BADGER.23",0.497038799446699,-0.271219505154904,1.2652971040483,"ssf","mf.ss","gamma","vonmises",50,"ssfOUT_15_1_1_BADGER","BADGER",1,1,15,"no effect"
"ssfOUT_15_1_1_BADGER.24",0.551616599442465,-0.200006990106934,1.30324018899186,"ssf","mf.ss","gamma","vonmises",158,"ssfOUT_15_1_1_BADGER","BADGER",1,1,15,"no effect"
"ssfOUT_15_1_1_BADGER.25",0.490908716345043,-0.263064316485427,1.24488174917551,"ssf","mf.ss","gamma","vonmises",500,"ssfOUT_15_1_1_BADGER","BADGER",1,1,15,"no effect"
"ssfOUT_15_1_1_BADGER.26",0.791697235171417,0.0169814060187582,1.56641306432408,"ssf","mf.ss","gamma","unif",5,"ssfOUT_15_1_1_BADGER","BADGER",1,1,15,"preference"
"ssfOUT_15_1_1_BADGER.27",0.164007789723388,-0.627941506382118,0.955957085828894,"ssf","mf.ss","gamma","unif",15,"ssfOUT_15_1_1_BADGER","BADGER",1,1,15,"no effect"
"ssfOUT_15_1_1_BADGER.28",0.492573832557464,-0.255540961058318,1.24068862617325,"ssf","mf.ss","gamma","unif",50,"ssfOUT_15_1_1_BADGER","BADGER",1,1,15,"no effect"
"ssfOUT_15_1_1_BADGER.29",0.488433446794532,-0.257845557101017,1.23471245069008,"ssf","mf.ss","gamma","unif",158,"ssfOUT_15_1_1_BADGER","BADGER",1,1,15,"no effect"
"ssfOUT_15_1_1_BADGER.30",0.628274115986708,-0.124627850151675,1.38117608212509,"ssf","mf.ss","gamma","unif",500,"ssfOUT_15_1_1_BADGER","BADGER",1,1,15,"no effect"
"ssfOUT_15_1_1_BADGER.31",0.273609625477782,-0.53720904943783,1.08442830039339,"ssf","mf.ss","exp","vonmises",5,"ssfOUT_15_1_1_BADGER","BADGER",1,1,15,"no effect"
"ssfOUT_15_1_1_BADGER.32",0.893897072879672,0.125379215028276,1.66241493073107,"ssf","mf.ss","exp","vonmises",15,"ssfOUT_15_1_1_BADGER","BADGER",1,1,15,"preference"
"ssfOUT_15_1_1_BADGER.33",0.343095585868878,-0.41526170786482,1.10145287960258,"ssf","mf.ss","exp","vonmises",50,"ssfOUT_15_1_1_BADGER","BADGER",1,1,15,"no effect"
"ssfOUT_15_1_1_BADGER.34",0.477082831222932,-0.270409089117778,1.22457475156364,"ssf","mf.ss","exp","vonmises",158,"ssfOUT_15_1_1_BADGER","BADGER",1,1,15,"no effect"
"ssfOUT_15_1_1_BADGER.35",0.47148122588338,-0.276696591744856,1.21965904351162,"ssf","mf.ss","exp","vonmises",500,"ssfOUT_15_1_1_BADGER","BADGER",1,1,15,"no effect"
"ssfOUT_15_1_1_BADGER.36",-0.159084087375973,-0.964940066834511,0.646771892082566,"ssf","mf.ss","exp","unif",5,"ssfOUT_15_1_1_BADGER","BADGER",1,1,15,"no effect"
"ssfOUT_15_1_1_BADGER.37",0.595564441604877,-0.161191538129412,1.35232042133917,"ssf","mf.ss","exp","unif",15,"ssfOUT_15_1_1_BADGER","BADGER",1,1,15,"no effect"
"ssfOUT_15_1_1_BADGER.38",0.40301267829817,-0.350082915049009,1.15610827164535,"ssf","mf.ss","exp","unif",50,"ssfOUT_15_1_1_BADGER","BADGER",1,1,15,"no effect"
"ssfOUT_15_1_1_BADGER.39",0.519752812151453,-0.226645499372919,1.26615112367582,"ssf","mf.ss","exp","unif",158,"ssfOUT_15_1_1_BADGER","BADGER",1,1,15,"no effect"
"ssfOUT_15_1_1_BADGER.40",0.511099814739186,-0.238755870782305,1.26095550026068,"ssf","mf.ss","exp","unif",500,"ssfOUT_15_1_1_BADGER","BADGER",1,1,15,"no effect"
"ssfOUT_15_1_1_VULTURE.1",-0.172382535955768,-0.775137081880034,0.430372009968499,"ssf","mf.is","gamma","vonmises",5,"ssfOUT_15_1_1_VULTURE","VULTURE",1,1,15,"no effect"
"ssfOUT_15_1_1_VULTURE.2",0.1238922235451,-0.430406596290726,0.678191043380926,"ssf","mf.is","gamma","vonmises",15,"ssfOUT_15_1_1_VULTURE","VULTURE",1,1,15,"no effect"
"ssfOUT_15_1_1_VULTURE.3",-0.0256662577303273,-0.561405979119991,0.510073463659337,"ssf","mf.is","gamma","vonmises",50,"ssfOUT_15_1_1_VULTURE","VULTURE",1,1,15,"no effect"
"ssfOUT_15_1_1_VULTURE.4",-0.0613807246785979,-0.590970640834349,0.468209191477153,"ssf","mf.is","gamma","vonmises",158,"ssfOUT_15_1_1_VULTURE","VULTURE",1,1,15,"no effect"
"ssfOUT_15_1_1_VULTURE.5",-0.0187109744773037,-0.549111509422157,0.51168956046755,"ssf","mf.is","gamma","vonmises",500,"ssfOUT_15_1_1_VULTURE","VULTURE",1,1,15,"no effect"
"ssfOUT_15_1_1_VULTURE.6",0.12687022321115,-0.456866299608624,0.710606746030924,"ssf","mf.is","gamma","unif",5,"ssfOUT_15_1_1_VULTURE","VULTURE",1,1,15,"no effect"
"ssfOUT_15_1_1_VULTURE.7",-0.149780230900846,-0.706823569542287,0.407263107740595,"ssf","mf.is","gamma","unif",15,"ssfOUT_15_1_1_VULTURE","VULTURE",1,1,15,"no effect"
"ssfOUT_15_1_1_VULTURE.8",-0.0641266311756036,-0.601682400454985,0.473429138103778,"ssf","mf.is","gamma","unif",50,"ssfOUT_15_1_1_VULTURE","VULTURE",1,1,15,"no effect"
"ssfOUT_15_1_1_VULTURE.9",-0.145750382005467,-0.675632243819638,0.384131479808703,"ssf","mf.is","gamma","unif",158,"ssfOUT_15_1_1_VULTURE","VULTURE",1,1,15,"no effect"
"ssfOUT_15_1_1_VULTURE.10",-0.030427746308271,-0.561266567024688,0.500411074408146,"ssf","mf.is","gamma","unif",500,"ssfOUT_15_1_1_VULTURE","VULTURE",1,1,15,"no effect"
"ssfOUT_15_1_1_VULTURE.11",0.0516615284485965,-0.548013645361174,0.651336702258367,"ssf","mf.is","exp","vonmises",5,"ssfOUT_15_1_1_VULTURE","VULTURE",1,1,15,"no effect"
"ssfOUT_15_1_1_VULTURE.12",0.159089177408525,-0.391792135734113,0.709970490551162,"ssf","mf.is","exp","vonmises",15,"ssfOUT_15_1_1_VULTURE","VULTURE",1,1,15,"no effect"
"ssfOUT_15_1_1_VULTURE.13",0.0130539536862418,-0.521532009343165,0.547639916715649,"ssf","mf.is","exp","vonmises",50,"ssfOUT_15_1_1_VULTURE","VULTURE",1,1,15,"no effect"
"ssfOUT_15_1_1_VULTURE.14",-0.115140182879777,-0.64895648610061,0.418676120341056,"ssf","mf.is","exp","vonmises",158,"ssfOUT_15_1_1_VULTURE","VULTURE",1,1,15,"no effect"
"ssfOUT_15_1_1_VULTURE.15",-0.0245900760804354,-0.555179359233643,0.505999207072772,"ssf","mf.is","exp","vonmises",500,"ssfOUT_15_1_1_VULTURE","VULTURE",1,1,15,"no effect"
"ssfOUT_15_1_1_VULTURE.16",0.413582908016423,-0.151297133326436,0.978462949359282,"ssf","mf.is","exp","unif",5,"ssfOUT_15_1_1_VULTURE","VULTURE",1,1,15,"no effect"
"ssfOUT_15_1_1_VULTURE.17",0.0875642285599785,-0.469240105361828,0.644368562481785,"ssf","mf.is","exp","unif",15,"ssfOUT_15_1_1_VULTURE","VULTURE",1,1,15,"no effect"
"ssfOUT_15_1_1_VULTURE.18",-0.0023014186883505,-0.547816221020932,0.54321338364423,"ssf","mf.is","exp","unif",50,"ssfOUT_15_1_1_VULTURE","VULTURE",1,1,15,"no effect"
"ssfOUT_15_1_1_VULTURE.19",0.0201835671781898,-0.513270317003325,0.553637451359705,"ssf","mf.is","exp","unif",158,"ssfOUT_15_1_1_VULTURE","VULTURE",1,1,15,"no effect"
"ssfOUT_15_1_1_VULTURE.20",0.00555711404743374,-0.525634116061935,0.536748344156803,"ssf","mf.is","exp","unif",500,"ssfOUT_15_1_1_VULTURE","VULTURE",1,1,15,"no effect"
"ssfOUT_15_1_1_VULTURE.21",-0.215551555781774,-0.818719792042974,0.387616680479426,"ssf","mf.ss","gamma","vonmises",5,"ssfOUT_15_1_1_VULTURE","VULTURE",1,1,15,"no effect"
"ssfOUT_15_1_1_VULTURE.22",0.111762170402952,-0.441616327009387,0.665140667815292,"ssf","mf.ss","gamma","vonmises",15,"ssfOUT_15_1_1_VULTURE","VULTURE",1,1,15,"no effect"
"ssfOUT_15_1_1_VULTURE.23",-0.0345580535559306,-0.570204586251154,0.501088479139293,"ssf","mf.ss","gamma","vonmises",50,"ssfOUT_15_1_1_VULTURE","VULTURE",1,1,15,"no effect"
"ssfOUT_15_1_1_VULTURE.24",-0.0711509097578372,-0.600660947902869,0.458359128387194,"ssf","mf.ss","gamma","vonmises",158,"ssfOUT_15_1_1_VULTURE","VULTURE",1,1,15,"no effect"
"ssfOUT_15_1_1_VULTURE.25",-0.0279586657865199,-0.558286977909819,0.502369646336779,"ssf","mf.ss","gamma","vonmises",500,"ssfOUT_15_1_1_VULTURE","VULTURE",1,1,15,"no effect"
"ssfOUT_15_1_1_VULTURE.26",0.0898697427218582,-0.49156020095421,0.671299686397926,"ssf","mf.ss","gamma","unif",5,"ssfOUT_15_1_1_VULTURE","VULTURE",1,1,15,"no effect"
"ssfOUT_15_1_1_VULTURE.27",-0.145431291923901,-0.702616787935333,0.411754204087531,"ssf","mf.ss","gamma","unif",15,"ssfOUT_15_1_1_VULTURE","VULTURE",1,1,15,"no effect"
"ssfOUT_15_1_1_VULTURE.28",-0.0759238302668349,-0.612979184629783,0.461131524096114,"ssf","mf.ss","gamma","unif",50,"ssfOUT_15_1_1_VULTURE","VULTURE",1,1,15,"no effect"
"ssfOUT_15_1_1_VULTURE.29",-0.148347505785475,-0.67814971729806,0.381454705727111,"ssf","mf.ss","gamma","unif",158,"ssfOUT_15_1_1_VULTURE","VULTURE",1,1,15,"no effect"
"ssfOUT_15_1_1_VULTURE.30",-0.0331604055202285,-0.5639234585188,0.497602647478343,"ssf","mf.ss","gamma","unif",500,"ssfOUT_15_1_1_VULTURE","VULTURE",1,1,15,"no effect"
"ssfOUT_15_1_1_VULTURE.31",0.11950966595666,-0.479700568018022,0.718719899931341,"ssf","mf.ss","exp","vonmises",5,"ssfOUT_15_1_1_VULTURE","VULTURE",1,1,15,"no effect"
"ssfOUT_15_1_1_VULTURE.32",0.174470889384374,-0.378332743597355,0.727274522366102,"ssf","mf.ss","exp","vonmises",15,"ssfOUT_15_1_1_VULTURE","VULTURE",1,1,15,"no effect"
"ssfOUT_15_1_1_VULTURE.33",0.00659442765043803,-0.527021388083362,0.540210243384239,"ssf","mf.ss","exp","vonmises",50,"ssfOUT_15_1_1_VULTURE","VULTURE",1,1,15,"no effect"
"ssfOUT_15_1_1_VULTURE.34",-0.0717369449678656,-0.605000283192728,0.461526393256997,"ssf","mf.ss","exp","vonmises",158,"ssfOUT_15_1_1_VULTURE","VULTURE",1,1,15,"no effect"
"ssfOUT_15_1_1_VULTURE.35",0.00532547808084947,-0.526697655126306,0.537348611288005,"ssf","mf.ss","exp","vonmises",500,"ssfOUT_15_1_1_VULTURE","VULTURE",1,1,15,"no effect"
"ssfOUT_15_1_1_VULTURE.36",0.322655342537051,-0.228230525245983,0.873541210320085,"ssf","mf.ss","exp","unif",5,"ssfOUT_15_1_1_VULTURE","VULTURE",1,1,15,"no effect"
"ssfOUT_15_1_1_VULTURE.37",0.0815113799611755,-0.467360210205633,0.630382970127984,"ssf","mf.ss","exp","unif",15,"ssfOUT_15_1_1_VULTURE","VULTURE",1,1,15,"no effect"
"ssfOUT_15_1_1_VULTURE.38",-0.0249193443235398,-0.5652548123957,0.51541612374862,"ssf","mf.ss","exp","unif",50,"ssfOUT_15_1_1_VULTURE","VULTURE",1,1,15,"no effect"
"ssfOUT_15_1_1_VULTURE.39",0.0130838760652877,-0.521058332495828,0.547226084626404,"ssf","mf.ss","exp","unif",158,"ssfOUT_15_1_1_VULTURE","VULTURE",1,1,15,"no effect"
"ssfOUT_15_1_1_VULTURE.40",0.0369917094459165,-0.494462918963109,0.568446337854942,"ssf","mf.ss","exp","unif",500,"ssfOUT_15_1_1_VULTURE","VULTURE",1,1,15,"no effect"
"ssfOUT_15_1_1_KINGCOBRA.1",14.5974491433114,-2021.40108901119,2050.59598729782,"ssf","mf.is","gamma","vonmises",5,"ssfOUT_15_1_1_KINGCOBRA","KINGCOBRA",1,1,15,"no effect"
"ssfOUT_15_1_1_KINGCOBRA.2",14.3185796019137,-1856.5124644995,1885.14962370333,"ssf","mf.is","gamma","vonmises",15,"ssfOUT_15_1_1_KINGCOBRA","KINGCOBRA",1,1,15,"no effect"
"ssfOUT_15_1_1_KINGCOBRA.3",14.380839947051,-1583.8649310945,1612.6266109886,"ssf","mf.is","gamma","vonmises",50,"ssfOUT_15_1_1_KINGCOBRA","KINGCOBRA",1,1,15,"no effect"
"ssfOUT_15_1_1_KINGCOBRA.4",14.3208005846504,-1501.75429003661,1530.39589120591,"ssf","mf.is","gamma","vonmises",158,"ssfOUT_15_1_1_KINGCOBRA","KINGCOBRA",1,1,15,"no effect"
"ssfOUT_15_1_1_KINGCOBRA.5",13.3636079755174,-886.294631451267,913.021847402301,"ssf","mf.is","gamma","vonmises",500,"ssfOUT_15_1_1_KINGCOBRA","KINGCOBRA",1,1,15,"no effect"
"ssfOUT_15_1_1_KINGCOBRA.6",15.4020819565258,-2358.0870415746,2388.89120548765,"ssf","mf.is","gamma","unif",5,"ssfOUT_15_1_1_KINGCOBRA","KINGCOBRA",1,1,15,"no effect"
"ssfOUT_15_1_1_KINGCOBRA.7",14.6219760072987,-1580.00556507645,1609.24951709105,"ssf","mf.is","gamma","unif",15,"ssfOUT_15_1_1_KINGCOBRA","KINGCOBRA",1,1,15,"no effect"
"ssfOUT_15_1_1_KINGCOBRA.8",14.2890236758594,-1577.3667153928,1605.94476274452,"ssf","mf.is","gamma","unif",50,"ssfOUT_15_1_1_KINGCOBRA","KINGCOBRA",1,1,15,"no effect"
"ssfOUT_15_1_1_KINGCOBRA.9",14.294283067195,-1469.02144564156,1497.61001177595,"ssf","mf.is","gamma","unif",158,"ssfOUT_15_1_1_KINGCOBRA","KINGCOBRA",1,1,15,"no effect"
"ssfOUT_15_1_1_KINGCOBRA.10",13.3300933577134,-959.328754681758,985.988941397185,"ssf","mf.is","gamma","unif",500,"ssfOUT_15_1_1_KINGCOBRA","KINGCOBRA",1,1,15,"no effect"
"ssfOUT_15_1_1_KINGCOBRA.11",15.2902377000772,-2649.11469175218,2679.69516715234,"ssf","mf.is","exp","vonmises",5,"ssfOUT_15_1_1_KINGCOBRA","KINGCOBRA",1,1,15,"no effect"
"ssfOUT_15_1_1_KINGCOBRA.12",18.3975943005698,-1827.4902210588,1864.28540965994,"ssf","mf.is","exp","vonmises",15,"ssfOUT_15_1_1_KINGCOBRA","KINGCOBRA",1,1,15,"no effect"
"ssfOUT_15_1_1_KINGCOBRA.13",13.9045213662633,-1254.09959015473,1281.90863288726,"ssf","mf.is","exp","vonmises",50,"ssfOUT_15_1_1_KINGCOBRA","KINGCOBRA",1,1,15,"no effect"
"ssfOUT_15_1_1_KINGCOBRA.14",13.5298012897074,-1267.57352074283,1294.63312332224,"ssf","mf.is","exp","vonmises",158,"ssfOUT_15_1_1_KINGCOBRA","KINGCOBRA",1,1,15,"no effect"
"ssfOUT_15_1_1_KINGCOBRA.15",14.2326950823813,-1197.8834477977,1226.34883796246,"ssf","mf.is","exp","vonmises",500,"ssfOUT_15_1_1_KINGCOBRA","KINGCOBRA",1,1,15,"no effect"
"ssfOUT_15_1_1_KINGCOBRA.16",14.0776769524674,-2290.60137580463,2318.75672970957,"ssf","mf.is","exp","unif",5,"ssfOUT_15_1_1_KINGCOBRA","KINGCOBRA",1,1,15,"no effect"
"ssfOUT_15_1_1_KINGCOBRA.17",14.8924487467738,-2181.94536479091,2211.73026228445,"ssf","mf.is","exp","unif",15,"ssfOUT_15_1_1_KINGCOBRA","KINGCOBRA",1,1,15,"no effect"
"ssfOUT_15_1_1_KINGCOBRA.18",13.7379338661458,-1736.74486745193,1764.22073518422,"ssf","mf.is","exp","unif",50,"ssfOUT_15_1_1_KINGCOBRA","KINGCOBRA",1,1,15,"no effect"
"ssfOUT_15_1_1_KINGCOBRA.19",13.4833715700687,-1315.27303701819,1342.23978015833,"ssf","mf.is","exp","unif",158,"ssfOUT_15_1_1_KINGCOBRA","KINGCOBRA",1,1,15,"no effect"
"ssfOUT_15_1_1_KINGCOBRA.20",14.6411826190867,-1491.57273056246,1520.85509580063,"ssf","mf.is","exp","unif",500,"ssfOUT_15_1_1_KINGCOBRA","KINGCOBRA",1,1,15,"no effect"
"ssfOUT_15_1_1_KINGCOBRA.21",16.5428139745892,-2249.80733789809,2282.89296584727,"ssf","mf.ss","gamma","vonmises",5,"ssfOUT_15_1_1_KINGCOBRA","KINGCOBRA",1,1,15,"no effect"
"ssfOUT_15_1_1_KINGCOBRA.22",14.9797574438291,-1322.74388259879,1352.70339748645,"ssf","mf.ss","gamma","vonmises",15,"ssfOUT_15_1_1_KINGCOBRA","KINGCOBRA",1,1,15,"no effect"
"ssfOUT_15_1_1_KINGCOBRA.23",15.0134405504872,-1182.68025539496,1212.70713649593,"ssf","mf.ss","gamma","vonmises",50,"ssfOUT_15_1_1_KINGCOBRA","KINGCOBRA",1,1,15,"no effect"
"ssfOUT_15_1_1_KINGCOBRA.24",15.5323998747533,-1105.26227282011,1136.32707256961,"ssf","mf.ss","gamma","vonmises",158,"ssfOUT_15_1_1_KINGCOBRA","KINGCOBRA",1,1,15,"no effect"
"ssfOUT_15_1_1_KINGCOBRA.25",15.6547817121129,-1081.36802993075,1112.67759335498,"ssf","mf.ss","gamma","vonmises",500,"ssfOUT_15_1_1_KINGCOBRA","KINGCOBRA",1,1,15,"no effect"
"ssfOUT_15_1_1_KINGCOBRA.26",16.838492951469,-1839.838541021,1873.51552692393,"ssf","mf.ss","gamma","unif",5,"ssfOUT_15_1_1_KINGCOBRA","KINGCOBRA",1,1,15,"no effect"
"ssfOUT_15_1_1_KINGCOBRA.27",16.9666531944913,-1968.41916980108,2002.35247619006,"ssf","mf.ss","gamma","unif",15,"ssfOUT_15_1_1_KINGCOBRA","KINGCOBRA",1,1,15,"no effect"
"ssfOUT_15_1_1_KINGCOBRA.28",15.9167402753325,-1130.56350414208,1162.39698469274,"ssf","mf.ss","gamma","unif",50,"ssfOUT_15_1_1_KINGCOBRA","KINGCOBRA",1,1,15,"no effect"
"ssfOUT_15_1_1_KINGCOBRA.29",15.6637798944941,-1079.55046058631,1110.8780203753,"ssf","mf.ss","gamma","unif",158,"ssfOUT_15_1_1_KINGCOBRA","KINGCOBRA",1,1,15,"no effect"
"ssfOUT_15_1_1_KINGCOBRA.30",15.6576134335552,-1128.29664540339,1159.6118722705,"ssf","mf.ss","gamma","unif",500,"ssfOUT_15_1_1_KINGCOBRA","KINGCOBRA",1,1,15,"no effect"
"ssfOUT_15_1_1_KINGCOBRA.31",16.2336743362123,-1924.56300865451,1957.03035732694,"ssf","mf.ss","exp","vonmises",5,"ssfOUT_15_1_1_KINGCOBRA","KINGCOBRA",1,1,15,"no effect"
"ssfOUT_15_1_1_KINGCOBRA.32",15.9418426245891,-1867.8668646998,1899.75054994898,"ssf","mf.ss","exp","vonmises",15,"ssfOUT_15_1_1_KINGCOBRA","KINGCOBRA",1,1,15,"no effect"
"ssfOUT_15_1_1_KINGCOBRA.33",14.9184334152829,-1100.77067582221,1130.60754265278,"ssf","mf.ss","exp","vonmises",50,"ssfOUT_15_1_1_KINGCOBRA","KINGCOBRA",1,1,15,"no effect"
"ssfOUT_15_1_1_KINGCOBRA.34",15.2305937290977,-1049.59189006754,1080.05307752573,"ssf","mf.ss","exp","vonmises",158,"ssfOUT_15_1_1_KINGCOBRA","KINGCOBRA",1,1,15,"no effect"
"ssfOUT_15_1_1_KINGCOBRA.35",15.4644036336765,-1080.10218523161,1111.03099249896,"ssf","mf.ss","exp","vonmises",500,"ssfOUT_15_1_1_KINGCOBRA","KINGCOBRA",1,1,15,"no effect"
"ssfOUT_15_1_1_KINGCOBRA.36",16.7227964966808,-2309.57139939134,2343.0169923847,"ssf","mf.ss","exp","unif",5,"ssfOUT_15_1_1_KINGCOBRA","KINGCOBRA",1,1,15,"no effect"
"ssfOUT_15_1_1_KINGCOBRA.37",16.5423940245644,-1692.66803048467,1725.7528185338,"ssf","mf.ss","exp","unif",15,"ssfOUT_15_1_1_KINGCOBRA","KINGCOBRA",1,1,15,"no effect"
"ssfOUT_15_1_1_KINGCOBRA.38",15.5895369859641,-1155.67451188209,1186.85358585402,"ssf","mf.ss","exp","unif",50,"ssfOUT_15_1_1_KINGCOBRA","KINGCOBRA",1,1,15,"no effect"
"ssfOUT_15_1_1_KINGCOBRA.39",15.5564320756339,-1120.08611583739,1151.19897998865,"ssf","mf.ss","exp","unif",158,"ssfOUT_15_1_1_KINGCOBRA","KINGCOBRA",1,1,15,"no effect"
"ssfOUT_15_1_1_KINGCOBRA.40",15.4452354271889,-1057.28433585237,1088.17480670675,"ssf","mf.ss","exp","unif",500,"ssfOUT_15_1_1_KINGCOBRA","KINGCOBRA",1,1,15,"no effect"
"ssfOUT_15_1_2_BADGER.1",1.32727469116234,0.55685861341137,2.09769076891331,"ssf","mf.is","gamma","vonmises",5,"ssfOUT_15_1_2_BADGER","BADGER",2,1,15,"preference"
"ssfOUT_15_1_2_BADGER.2",1.41548428245676,0.634175560802624,2.19679300411089,"ssf","mf.is","gamma","vonmises",15,"ssfOUT_15_1_2_BADGER","BADGER",2,1,15,"preference"
"ssfOUT_15_1_2_BADGER.3",1.68316770964908,0.894530946639133,2.47180447265903,"ssf","mf.is","gamma","vonmises",50,"ssfOUT_15_1_2_BADGER","BADGER",2,1,15,"preference"
"ssfOUT_15_1_2_BADGER.4",1.52631591445771,0.750747401611778,2.30188442730365,"ssf","mf.is","gamma","vonmises",158,"ssfOUT_15_1_2_BADGER","BADGER",2,1,15,"preference"
"ssfOUT_15_1_2_BADGER.5",1.55009702862499,0.777785593590572,2.32240846365941,"ssf","mf.is","gamma","vonmises",500,"ssfOUT_15_1_2_BADGER","BADGER",2,1,15,"preference"
"ssfOUT_15_1_2_BADGER.6",1.39257479073125,0.585809986547978,2.19933959491451,"ssf","mf.is","gamma","unif",5,"ssfOUT_15_1_2_BADGER","BADGER",2,1,15,"preference"
"ssfOUT_15_1_2_BADGER.7",1.51198428633625,0.735149849189957,2.28881872348254,"ssf","mf.is","gamma","unif",15,"ssfOUT_15_1_2_BADGER","BADGER",2,1,15,"preference"
"ssfOUT_15_1_2_BADGER.8",1.43077604372228,0.666421963612627,2.19513012383192,"ssf","mf.is","gamma","unif",50,"ssfOUT_15_1_2_BADGER","BADGER",2,1,15,"preference"
"ssfOUT_15_1_2_BADGER.9",1.51207825616238,0.746609885574947,2.27754662674981,"ssf","mf.is","gamma","unif",158,"ssfOUT_15_1_2_BADGER","BADGER",2,1,15,"preference"
"ssfOUT_15_1_2_BADGER.10",1.57996213261829,0.810285834000675,2.34963843123591,"ssf","mf.is","gamma","unif",500,"ssfOUT_15_1_2_BADGER","BADGER",2,1,15,"preference"
"ssfOUT_15_1_2_BADGER.11",1.08833353149453,0.274098180447454,1.9025688825416,"ssf","mf.is","exp","vonmises",5,"ssfOUT_15_1_2_BADGER","BADGER",2,1,15,"preference"
"ssfOUT_15_1_2_BADGER.12",1.59686601477999,0.784128011359847,2.40960401820013,"ssf","mf.is","exp","vonmises",15,"ssfOUT_15_1_2_BADGER","BADGER",2,1,15,"preference"
"ssfOUT_15_1_2_BADGER.13",1.46180809880636,0.702146275479901,2.22146992213281,"ssf","mf.is","exp","vonmises",50,"ssfOUT_15_1_2_BADGER","BADGER",2,1,15,"preference"
"ssfOUT_15_1_2_BADGER.14",1.54184574833965,0.775435142537317,2.30825635414198,"ssf","mf.is","exp","vonmises",158,"ssfOUT_15_1_2_BADGER","BADGER",2,1,15,"preference"
"ssfOUT_15_1_2_BADGER.15",1.52954321836658,0.759979859098983,2.29910657763419,"ssf","mf.is","exp","vonmises",500,"ssfOUT_15_1_2_BADGER","BADGER",2,1,15,"preference"
"ssfOUT_15_1_2_BADGER.16",1.3067755371396,0.511371311507071,2.10217976277213,"ssf","mf.is","exp","unif",5,"ssfOUT_15_1_2_BADGER","BADGER",2,1,15,"preference"
"ssfOUT_15_1_2_BADGER.17",1.07932163680843,0.302775727231475,1.85586754638538,"ssf","mf.is","exp","unif",15,"ssfOUT_15_1_2_BADGER","BADGER",2,1,15,"preference"
"ssfOUT_15_1_2_BADGER.18",1.43316847365693,0.655909401124606,2.21042754618925,"ssf","mf.is","exp","unif",50,"ssfOUT_15_1_2_BADGER","BADGER",2,1,15,"preference"
"ssfOUT_15_1_2_BADGER.19",1.55743635588454,0.78707503407786,2.32779767769123,"ssf","mf.is","exp","unif",158,"ssfOUT_15_1_2_BADGER","BADGER",2,1,15,"preference"
"ssfOUT_15_1_2_BADGER.20",1.53163498776814,0.758402522588283,2.30486745294801,"ssf","mf.is","exp","unif",500,"ssfOUT_15_1_2_BADGER","BADGER",2,1,15,"preference"
"ssfOUT_15_1_2_BADGER.21",1.31002305105666,0.536748736064833,2.08329736604848,"ssf","mf.ss","gamma","vonmises",5,"ssfOUT_15_1_2_BADGER","BADGER",2,1,15,"preference"
"ssfOUT_15_1_2_BADGER.22",1.43168029377916,0.64633173337334,2.21702885418498,"ssf","mf.ss","gamma","vonmises",15,"ssfOUT_15_1_2_BADGER","BADGER",2,1,15,"preference"
"ssfOUT_15_1_2_BADGER.23",1.68022244195589,0.884920182986511,2.47552470092527,"ssf","mf.ss","gamma","vonmises",50,"ssfOUT_15_1_2_BADGER","BADGER",2,1,15,"preference"
"ssfOUT_15_1_2_BADGER.24",1.51563624938317,0.734929853444554,2.29634264532179,"ssf","mf.ss","gamma","vonmises",158,"ssfOUT_15_1_2_BADGER","BADGER",2,1,15,"preference"
"ssfOUT_15_1_2_BADGER.25",1.55514399072655,0.778447245319221,2.33184073613387,"ssf","mf.ss","gamma","vonmises",500,"ssfOUT_15_1_2_BADGER","BADGER",2,1,15,"preference"
"ssfOUT_15_1_2_BADGER.26",1.37752628165689,0.57640727222251,2.17864529109127,"ssf","mf.ss","gamma","unif",5,"ssfOUT_15_1_2_BADGER","BADGER",2,1,15,"preference"
"ssfOUT_15_1_2_BADGER.27",1.54582130345034,0.76581788729587,2.32582471960481,"ssf","mf.ss","gamma","unif",15,"ssfOUT_15_1_2_BADGER","BADGER",2,1,15,"preference"
"ssfOUT_15_1_2_BADGER.28",1.41736424338529,0.649719118325134,2.18500936844544,"ssf","mf.ss","gamma","unif",50,"ssfOUT_15_1_2_BADGER","BADGER",2,1,15,"preference"
"ssfOUT_15_1_2_BADGER.29",1.49471727447975,0.723066930960617,2.26636761799888,"ssf","mf.ss","gamma","unif",158,"ssfOUT_15_1_2_BADGER","BADGER",2,1,15,"preference"
"ssfOUT_15_1_2_BADGER.30",1.57646742106466,0.801429239839545,2.35150560228977,"ssf","mf.ss","gamma","unif",500,"ssfOUT_15_1_2_BADGER","BADGER",2,1,15,"preference"
"ssfOUT_15_1_2_BADGER.31",1.24295803685042,0.437530597987904,2.04838547571295,"ssf","mf.ss","exp","vonmises",5,"ssfOUT_15_1_2_BADGER","BADGER",2,1,15,"preference"
"ssfOUT_15_1_2_BADGER.32",1.60043704586941,0.811624784481198,2.38924930725762,"ssf","mf.ss","exp","vonmises",15,"ssfOUT_15_1_2_BADGER","BADGER",2,1,15,"preference"
"ssfOUT_15_1_2_BADGER.33",1.61040820695046,0.835929854301101,2.38488655959981,"ssf","mf.ss","exp","vonmises",50,"ssfOUT_15_1_2_BADGER","BADGER",2,1,15,"preference"
"ssfOUT_15_1_2_BADGER.34",1.56567826245156,0.800450782528032,2.3309057423751,"ssf","mf.ss","exp","vonmises",158,"ssfOUT_15_1_2_BADGER","BADGER",2,1,15,"preference"
"ssfOUT_15_1_2_BADGER.35",1.6040026517474,0.835698238908818,2.37230706458599,"ssf","mf.ss","exp","vonmises",500,"ssfOUT_15_1_2_BADGER","BADGER",2,1,15,"preference"
"ssfOUT_15_1_2_BADGER.36",1.52109144941607,0.741440463943984,2.30074243488817,"ssf","mf.ss","exp","unif",5,"ssfOUT_15_1_2_BADGER","BADGER",2,1,15,"preference"
"ssfOUT_15_1_2_BADGER.37",1.14890803830313,0.382529260250884,1.91528681635537,"ssf","mf.ss","exp","unif",15,"ssfOUT_15_1_2_BADGER","BADGER",2,1,15,"preference"
"ssfOUT_15_1_2_BADGER.38",1.44035537341606,0.667672587709684,2.21303815912244,"ssf","mf.ss","exp","unif",50,"ssfOUT_15_1_2_BADGER","BADGER",2,1,15,"preference"
"ssfOUT_15_1_2_BADGER.39",1.58919756784041,0.822753643748927,2.35564149193188,"ssf","mf.ss","exp","unif",158,"ssfOUT_15_1_2_BADGER","BADGER",2,1,15,"preference"
"ssfOUT_15_1_2_BADGER.40",1.61168754448961,0.84102177967073,2.38235330930848,"ssf","mf.ss","exp","unif",500,"ssfOUT_15_1_2_BADGER","BADGER",2,1,15,"preference"
"ssfOUT_15_1_2_VULTURE.1",0.628434917231009,0.0886152409363639,1.16825459352565,"ssf","mf.is","gamma","vonmises",5,"ssfOUT_15_1_2_VULTURE","VULTURE",2,1,15,"preference"
"ssfOUT_15_1_2_VULTURE.2",0.496156159294593,-0.0304043325925683,1.02271665118175,"ssf","mf.is","gamma","vonmises",15,"ssfOUT_15_1_2_VULTURE","VULTURE",2,1,15,"no effect"
"ssfOUT_15_1_2_VULTURE.3",0.383294017893638,-0.133141177770235,0.899729213557511,"ssf","mf.is","gamma","vonmises",50,"ssfOUT_15_1_2_VULTURE","VULTURE",2,1,15,"no effect"
"ssfOUT_15_1_2_VULTURE.4",0.510045069650552,-0.00578592071859529,1.0258760600197,"ssf","mf.is","gamma","vonmises",158,"ssfOUT_15_1_2_VULTURE","VULTURE",2,1,15,"no effect"
"ssfOUT_15_1_2_VULTURE.5",0.478109494328072,-0.0359366761064058,0.99215566476255,"ssf","mf.is","gamma","vonmises",500,"ssfOUT_15_1_2_VULTURE","VULTURE",2,1,15,"no effect"
"ssfOUT_15_1_2_VULTURE.6",0.711789980169227,0.170631494532147,1.25294846580631,"ssf","mf.is","gamma","unif",5,"ssfOUT_15_1_2_VULTURE","VULTURE",2,1,15,"preference"
"ssfOUT_15_1_2_VULTURE.7",0.430524758341223,-0.0957564013746308,0.956805918057076,"ssf","mf.is","gamma","unif",15,"ssfOUT_15_1_2_VULTURE","VULTURE",2,1,15,"no effect"
"ssfOUT_15_1_2_VULTURE.8",0.483746617492372,-0.0316578469480167,0.99915108193276,"ssf","mf.is","gamma","unif",50,"ssfOUT_15_1_2_VULTURE","VULTURE",2,1,15,"no effect"
"ssfOUT_15_1_2_VULTURE.9",0.445938136141036,-0.0694879377820712,0.961364210064143,"ssf","mf.is","gamma","unif",158,"ssfOUT_15_1_2_VULTURE","VULTURE",2,1,15,"no effect"
"ssfOUT_15_1_2_VULTURE.10",0.468386645581988,-0.0456714350029255,0.982444726166901,"ssf","mf.is","gamma","unif",500,"ssfOUT_15_1_2_VULTURE","VULTURE",2,1,15,"no effect"
"ssfOUT_15_1_2_VULTURE.11",0.481018003992412,-0.0766087448851905,1.03864475287001,"ssf","mf.is","exp","vonmises",5,"ssfOUT_15_1_2_VULTURE","VULTURE",2,1,15,"no effect"
"ssfOUT_15_1_2_VULTURE.12",0.6005170067326,0.0727192324293604,1.12831478103584,"ssf","mf.is","exp","vonmises",15,"ssfOUT_15_1_2_VULTURE","VULTURE",2,1,15,"preference"
"ssfOUT_15_1_2_VULTURE.13",0.486938808064887,-0.0331528701309735,1.00703048626075,"ssf","mf.is","exp","vonmises",50,"ssfOUT_15_1_2_VULTURE","VULTURE",2,1,15,"no effect"
"ssfOUT_15_1_2_VULTURE.14",0.443609275885414,-0.072875759750397,0.960094311521224,"ssf","mf.is","exp","vonmises",158,"ssfOUT_15_1_2_VULTURE","VULTURE",2,1,15,"no effect"
"ssfOUT_15_1_2_VULTURE.15",0.484192997991766,-0.0301178497249959,0.998503845708529,"ssf","mf.is","exp","vonmises",500,"ssfOUT_15_1_2_VULTURE","VULTURE",2,1,15,"no effect"
"ssfOUT_15_1_2_VULTURE.16",0.658539057335201,0.100457477127096,1.21662063754331,"ssf","mf.is","exp","unif",5,"ssfOUT_15_1_2_VULTURE","VULTURE",2,1,15,"preference"
"ssfOUT_15_1_2_VULTURE.17",0.432941777502993,-0.102102133534139,0.967985688540124,"ssf","mf.is","exp","unif",15,"ssfOUT_15_1_2_VULTURE","VULTURE",2,1,15,"no effect"
"ssfOUT_15_1_2_VULTURE.18",0.531001219500287,0.0142939906051953,1.04770844839538,"ssf","mf.is","exp","unif",50,"ssfOUT_15_1_2_VULTURE","VULTURE",2,1,15,"preference"
"ssfOUT_15_1_2_VULTURE.19",0.450249912692365,-0.0664332657256418,0.966933091110372,"ssf","mf.is","exp","unif",158,"ssfOUT_15_1_2_VULTURE","VULTURE",2,1,15,"no effect"
"ssfOUT_15_1_2_VULTURE.20",0.45148046102332,-0.0623704228459762,0.965331344892616,"ssf","mf.is","exp","unif",500,"ssfOUT_15_1_2_VULTURE","VULTURE",2,1,15,"no effect"
"ssfOUT_15_1_2_VULTURE.21",0.624115881804937,0.0848561390585233,1.16337562455135,"ssf","mf.ss","gamma","vonmises",5,"ssfOUT_15_1_2_VULTURE","VULTURE",2,1,15,"preference"
"ssfOUT_15_1_2_VULTURE.22",0.488342384966387,-0.0381464346724302,1.0148312046052,"ssf","mf.ss","gamma","vonmises",15,"ssfOUT_15_1_2_VULTURE","VULTURE",2,1,15,"no effect"
"ssfOUT_15_1_2_VULTURE.23",0.382068161526991,-0.134224575088959,0.898360898142942,"ssf","mf.ss","gamma","vonmises",50,"ssfOUT_15_1_2_VULTURE","VULTURE",2,1,15,"no effect"
"ssfOUT_15_1_2_VULTURE.24",0.50627037922288,-0.00946131165177799,1.02200207009754,"ssf","mf.ss","gamma","vonmises",158,"ssfOUT_15_1_2_VULTURE","VULTURE",2,1,15,"no effect"
"ssfOUT_15_1_2_VULTURE.25",0.472362070631628,-0.0415975865307361,0.986321727793992,"ssf","mf.ss","gamma","vonmises",500,"ssfOUT_15_1_2_VULTURE","VULTURE",2,1,15,"no effect"
"ssfOUT_15_1_2_VULTURE.26",0.711167124863146,0.170109132489566,1.25222511723673,"ssf","mf.ss","gamma","unif",5,"ssfOUT_15_1_2_VULTURE","VULTURE",2,1,15,"preference"
"ssfOUT_15_1_2_VULTURE.27",0.427653706252929,-0.0984603904534646,0.953767802959323,"ssf","mf.ss","gamma","unif",15,"ssfOUT_15_1_2_VULTURE","VULTURE",2,1,15,"no effect"
"ssfOUT_15_1_2_VULTURE.28",0.480172835665283,-0.0352126553955453,0.995558326726111,"ssf","mf.ss","gamma","unif",50,"ssfOUT_15_1_2_VULTURE","VULTURE",2,1,15,"no effect"
"ssfOUT_15_1_2_VULTURE.29",0.44171350993755,-0.0737149580206777,0.957141977895778,"ssf","mf.ss","gamma","unif",158,"ssfOUT_15_1_2_VULTURE","VULTURE",2,1,15,"no effect"
"ssfOUT_15_1_2_VULTURE.30",0.464733476145662,-0.049273636599765,0.978740588891089,"ssf","mf.ss","gamma","unif",500,"ssfOUT_15_1_2_VULTURE","VULTURE",2,1,15,"no effect"
"ssfOUT_15_1_2_VULTURE.31",0.40187178655372,-0.148886748047697,0.952630321155138,"ssf","mf.ss","exp","vonmises",5,"ssfOUT_15_1_2_VULTURE","VULTURE",2,1,15,"no effect"
"ssfOUT_15_1_2_VULTURE.32",0.479066071738112,-0.04966127668299,1.00779342015921,"ssf","mf.ss","exp","vonmises",15,"ssfOUT_15_1_2_VULTURE","VULTURE",2,1,15,"no effect"
"ssfOUT_15_1_2_VULTURE.33",0.419214868086883,-0.103385678492788,0.941815414666554,"ssf","mf.ss","exp","vonmises",50,"ssfOUT_15_1_2_VULTURE","VULTURE",2,1,15,"no effect"
"ssfOUT_15_1_2_VULTURE.34",0.399403215272319,-0.120463070806727,0.919269501351365,"ssf","mf.ss","exp","vonmises",158,"ssfOUT_15_1_2_VULTURE","VULTURE",2,1,15,"no effect"
"ssfOUT_15_1_2_VULTURE.35",0.447576256897199,-0.0707744942366778,0.965927008031075,"ssf","mf.ss","exp","vonmises",500,"ssfOUT_15_1_2_VULTURE","VULTURE",2,1,15,"no effect"
"ssfOUT_15_1_2_VULTURE.36",0.519140302991288,-0.0289042686050296,1.06718487458761,"ssf","mf.ss","exp","unif",5,"ssfOUT_15_1_2_VULTURE","VULTURE",2,1,15,"no effect"
"ssfOUT_15_1_2_VULTURE.37",0.37443353436476,-0.158843797513461,0.907710866242981,"ssf","mf.ss","exp","unif",15,"ssfOUT_15_1_2_VULTURE","VULTURE",2,1,15,"no effect"
"ssfOUT_15_1_2_VULTURE.38",0.522205080283372,0.0030614602447685,1.04134870032197,"ssf","mf.ss","exp","unif",50,"ssfOUT_15_1_2_VULTURE","VULTURE",2,1,15,"preference"
"ssfOUT_15_1_2_VULTURE.39",0.419355291986876,-0.100899007383222,0.939609591356974,"ssf","mf.ss","exp","unif",158,"ssfOUT_15_1_2_VULTURE","VULTURE",2,1,15,"no effect"
"ssfOUT_15_1_2_VULTURE.40",0.415224455178799,-0.101916556149574,0.932365466507173,"ssf","mf.ss","exp","unif",500,"ssfOUT_15_1_2_VULTURE","VULTURE",2,1,15,"no effect"
"ssfOUT_15_1_2_KINGCOBRA.1",0.727663789149313,-0.221314206672173,1.6766417849708,"ssf","mf.is","gamma","vonmises",5,"ssfOUT_15_1_2_KINGCOBRA","KINGCOBRA",2,1,15,"no effect"
"ssfOUT_15_1_2_KINGCOBRA.2",0.81504160981939,0.0265467358178908,1.60353648382089,"ssf","mf.is","gamma","vonmises",15,"ssfOUT_15_1_2_KINGCOBRA","KINGCOBRA",2,1,15,"preference"
"ssfOUT_15_1_2_KINGCOBRA.3",0.725368894388554,-0.110276922675083,1.56101471145219,"ssf","mf.is","gamma","vonmises",50,"ssfOUT_15_1_2_KINGCOBRA","KINGCOBRA",2,1,15,"no effect"
"ssfOUT_15_1_2_KINGCOBRA.4",0.657958576064901,-0.178391060145559,1.49430821227536,"ssf","mf.is","gamma","vonmises",158,"ssfOUT_15_1_2_KINGCOBRA","KINGCOBRA",2,1,15,"no effect"
"ssfOUT_15_1_2_KINGCOBRA.5",0.715667402909856,-0.0995609855931221,1.53089579141283,"ssf","mf.is","gamma","vonmises",500,"ssfOUT_15_1_2_KINGCOBRA","KINGCOBRA",2,1,15,"no effect"
"ssfOUT_15_1_2_KINGCOBRA.6",0.481520955794968,-0.455609199112033,1.41865111070197,"ssf","mf.is","gamma","unif",5,"ssfOUT_15_1_2_KINGCOBRA","KINGCOBRA",2,1,15,"no effect"
"ssfOUT_15_1_2_KINGCOBRA.7",0.578640991067064,-0.272907699188375,1.4301896813225,"ssf","mf.is","gamma","unif",15,"ssfOUT_15_1_2_KINGCOBRA","KINGCOBRA",2,1,15,"no effect"
"ssfOUT_15_1_2_KINGCOBRA.8",0.780924193905442,-0.0253429045029531,1.58719129231384,"ssf","mf.is","gamma","unif",50,"ssfOUT_15_1_2_KINGCOBRA","KINGCOBRA",2,1,15,"no effect"
"ssfOUT_15_1_2_KINGCOBRA.9",0.809435794030802,-0.00173082341050013,1.6206024114721,"ssf","mf.is","gamma","unif",158,"ssfOUT_15_1_2_KINGCOBRA","KINGCOBRA",2,1,15,"no effect"
"ssfOUT_15_1_2_KINGCOBRA.10",0.825251304298657,0.00714406785577648,1.64335854074154,"ssf","mf.is","gamma","unif",500,"ssfOUT_15_1_2_KINGCOBRA","KINGCOBRA",2,1,15,"preference"
"ssfOUT_15_1_2_KINGCOBRA.11",0.474942449245757,-0.362293522260357,1.31217842075187,"ssf","mf.is","exp","vonmises",5,"ssfOUT_15_1_2_KINGCOBRA","KINGCOBRA",2,1,15,"no effect"
"ssfOUT_15_1_2_KINGCOBRA.12",1.29035756984085,0.442595576918997,2.13811956276271,"ssf","mf.is","exp","vonmises",15,"ssfOUT_15_1_2_KINGCOBRA","KINGCOBRA",2,1,15,"preference"
"ssfOUT_15_1_2_KINGCOBRA.13",0.720281059659394,-0.142095615610376,1.58265773492916,"ssf","mf.is","exp","vonmises",50,"ssfOUT_15_1_2_KINGCOBRA","KINGCOBRA",2,1,15,"no effect"
"ssfOUT_15_1_2_KINGCOBRA.14",0.651508801815949,-0.171893074341521,1.47491067797342,"ssf","mf.is","exp","vonmises",158,"ssfOUT_15_1_2_KINGCOBRA","KINGCOBRA",2,1,15,"no effect"
"ssfOUT_15_1_2_KINGCOBRA.15",0.647004691146473,-0.179806131916696,1.47381551420964,"ssf","mf.is","exp","vonmises",500,"ssfOUT_15_1_2_KINGCOBRA","KINGCOBRA",2,1,15,"no effect"
"ssfOUT_15_1_2_KINGCOBRA.16",0.859857080613616,0.0338988716500175,1.68581528957721,"ssf","mf.is","exp","unif",5,"ssfOUT_15_1_2_KINGCOBRA","KINGCOBRA",2,1,15,"preference"
"ssfOUT_15_1_2_KINGCOBRA.17",0.874365314789398,-0.011150035040985,1.75988066461978,"ssf","mf.is","exp","unif",15,"ssfOUT_15_1_2_KINGCOBRA","KINGCOBRA",2,1,15,"no effect"
"ssfOUT_15_1_2_KINGCOBRA.18",0.509819502584936,-0.289417244615756,1.30905624978563,"ssf","mf.is","exp","unif",50,"ssfOUT_15_1_2_KINGCOBRA","KINGCOBRA",2,1,15,"no effect"
"ssfOUT_15_1_2_KINGCOBRA.19",0.803660639718094,-0.0594950997024701,1.66681637913866,"ssf","mf.is","exp","unif",158,"ssfOUT_15_1_2_KINGCOBRA","KINGCOBRA",2,1,15,"no effect"
"ssfOUT_15_1_2_KINGCOBRA.20",0.805616625713569,-0.029207484600308,1.64044073602745,"ssf","mf.is","exp","unif",500,"ssfOUT_15_1_2_KINGCOBRA","KINGCOBRA",2,1,15,"no effect"
"ssfOUT_15_1_2_KINGCOBRA.21",0.757923954679838,-0.189877904209448,1.70572581356912,"ssf","mf.ss","gamma","vonmises",5,"ssfOUT_15_1_2_KINGCOBRA","KINGCOBRA",2,1,15,"no effect"
"ssfOUT_15_1_2_KINGCOBRA.22",0.763412964887057,-0.0403674002698596,1.56719333004397,"ssf","mf.ss","gamma","vonmises",15,"ssfOUT_15_1_2_KINGCOBRA","KINGCOBRA",2,1,15,"no effect"
"ssfOUT_15_1_2_KINGCOBRA.23",0.716954456034013,-0.113053989649709,1.54696290171773,"ssf","mf.ss","gamma","vonmises",50,"ssfOUT_15_1_2_KINGCOBRA","KINGCOBRA",2,1,15,"no effect"
"ssfOUT_15_1_2_KINGCOBRA.24",0.649836704175376,-0.186655137368219,1.48632854571897,"ssf","mf.ss","gamma","vonmises",158,"ssfOUT_15_1_2_KINGCOBRA","KINGCOBRA",2,1,15,"no effect"
"ssfOUT_15_1_2_KINGCOBRA.25",0.732408764210887,-0.0836323139154022,1.54844984233718,"ssf","mf.ss","gamma","vonmises",500,"ssfOUT_15_1_2_KINGCOBRA","KINGCOBRA",2,1,15,"no effect"
"ssfOUT_15_1_2_KINGCOBRA.26",0.499818905240623,-0.437339593903978,1.43697740438522,"ssf","mf.ss","gamma","unif",5,"ssfOUT_15_1_2_KINGCOBRA","KINGCOBRA",2,1,15,"no effect"
"ssfOUT_15_1_2_KINGCOBRA.27",0.579394319537322,-0.269282243479047,1.42807088255369,"ssf","mf.ss","gamma","unif",15,"ssfOUT_15_1_2_KINGCOBRA","KINGCOBRA",2,1,15,"no effect"
"ssfOUT_15_1_2_KINGCOBRA.28",0.743750422899693,-0.0616014754279665,1.54910232122735,"ssf","mf.ss","gamma","unif",50,"ssfOUT_15_1_2_KINGCOBRA","KINGCOBRA",2,1,15,"no effect"
"ssfOUT_15_1_2_KINGCOBRA.29",0.818062750473395,0.00663549697256893,1.62949000397422,"ssf","mf.ss","gamma","unif",158,"ssfOUT_15_1_2_KINGCOBRA","KINGCOBRA",2,1,15,"preference"
"ssfOUT_15_1_2_KINGCOBRA.30",0.820669803102962,0.0016518788336467,1.63968772737228,"ssf","mf.ss","gamma","unif",500,"ssfOUT_15_1_2_KINGCOBRA","KINGCOBRA",2,1,15,"preference"
"ssfOUT_15_1_2_KINGCOBRA.31",0.933456958636368,0.130585431681577,1.73632848559116,"ssf","mf.ss","exp","vonmises",5,"ssfOUT_15_1_2_KINGCOBRA","KINGCOBRA",2,1,15,"preference"
"ssfOUT_15_1_2_KINGCOBRA.32",0.899639483246369,0.108659691043761,1.69061927544898,"ssf","mf.ss","exp","vonmises",15,"ssfOUT_15_1_2_KINGCOBRA","KINGCOBRA",2,1,15,"preference"
"ssfOUT_15_1_2_KINGCOBRA.33",0.740795974986273,-0.0307770722946726,1.51236902226722,"ssf","mf.ss","exp","vonmises",50,"ssfOUT_15_1_2_KINGCOBRA","KINGCOBRA",2,1,15,"no effect"
"ssfOUT_15_1_2_KINGCOBRA.34",0.871616693477635,0.106686863433275,1.636546523522,"ssf","mf.ss","exp","vonmises",158,"ssfOUT_15_1_2_KINGCOBRA","KINGCOBRA",2,1,15,"preference"
"ssfOUT_15_1_2_KINGCOBRA.35",0.855007591200702,0.0853534856909433,1.62466169671046,"ssf","mf.ss","exp","vonmises",500,"ssfOUT_15_1_2_KINGCOBRA","KINGCOBRA",2,1,15,"preference"
"ssfOUT_15_1_2_KINGCOBRA.36",1.21615073471914,0.422295234564517,2.01000623487377,"ssf","mf.ss","exp","unif",5,"ssfOUT_15_1_2_KINGCOBRA","KINGCOBRA",2,1,15,"preference"
"ssfOUT_15_1_2_KINGCOBRA.37",0.615073046322518,-0.208923879755722,1.43906997240076,"ssf","mf.ss","exp","unif",15,"ssfOUT_15_1_2_KINGCOBRA","KINGCOBRA",2,1,15,"no effect"
"ssfOUT_15_1_2_KINGCOBRA.38",0.735858121191608,-0.0465506148919778,1.51826685727519,"ssf","mf.ss","exp","unif",50,"ssfOUT_15_1_2_KINGCOBRA","KINGCOBRA",2,1,15,"no effect"
"ssfOUT_15_1_2_KINGCOBRA.39",0.954788858145497,0.181243552987412,1.72833416330358,"ssf","mf.ss","exp","unif",158,"ssfOUT_15_1_2_KINGCOBRA","KINGCOBRA",2,1,15,"preference"
"ssfOUT_15_1_2_KINGCOBRA.40",0.798855353591513,0.0334975602124191,1.56421314697061,"ssf","mf.ss","exp","unif",500,"ssfOUT_15_1_2_KINGCOBRA","KINGCOBRA",2,1,15,"preference"
"ssfOUT_15_1_3_BADGER.1",0.0365318694035242,-0.401711998695992,0.474775737503041,"ssf","mf.is","gamma","vonmises",5,"ssfOUT_15_1_3_BADGER","BADGER",3,1,15,"no effect"
"ssfOUT_15_1_3_BADGER.2",-0.240956708415774,-0.651208245279897,0.169294828448348,"ssf","mf.is","gamma","vonmises",15,"ssfOUT_15_1_3_BADGER","BADGER",3,1,15,"no effect"
"ssfOUT_15_1_3_BADGER.3",-0.236336207373204,-0.650178907223331,0.177506492476923,"ssf","mf.is","gamma","vonmises",50,"ssfOUT_15_1_3_BADGER","BADGER",3,1,15,"no effect"
"ssfOUT_15_1_3_BADGER.4",-0.120946610756113,-0.530528322414625,0.288635100902399,"ssf","mf.is","gamma","vonmises",158,"ssfOUT_15_1_3_BADGER","BADGER",3,1,15,"no effect"
"ssfOUT_15_1_3_BADGER.5",-0.161210508455966,-0.56442298159858,0.242001964686648,"ssf","mf.is","gamma","vonmises",500,"ssfOUT_15_1_3_BADGER","BADGER",3,1,15,"no effect"
"ssfOUT_15_1_3_BADGER.6",-0.0747270486132677,-0.501407594959662,0.351953497733127,"ssf","mf.is","gamma","unif",5,"ssfOUT_15_1_3_BADGER","BADGER",3,1,15,"no effect"
"ssfOUT_15_1_3_BADGER.7",-0.190663881645503,-0.604904733948588,0.223576970657581,"ssf","mf.is","gamma","unif",15,"ssfOUT_15_1_3_BADGER","BADGER",3,1,15,"no effect"
"ssfOUT_15_1_3_BADGER.8",-0.140079168486267,-0.545606153549603,0.265447816577069,"ssf","mf.is","gamma","unif",50,"ssfOUT_15_1_3_BADGER","BADGER",3,1,15,"no effect"
"ssfOUT_15_1_3_BADGER.9",-0.205620121549429,-0.611076292760993,0.199836049662135,"ssf","mf.is","gamma","unif",158,"ssfOUT_15_1_3_BADGER","BADGER",3,1,15,"no effect"
"ssfOUT_15_1_3_BADGER.10",-0.150249270117205,-0.553311436051389,0.252812895816979,"ssf","mf.is","gamma","unif",500,"ssfOUT_15_1_3_BADGER","BADGER",3,1,15,"no effect"
"ssfOUT_15_1_3_BADGER.11",-0.043980647169208,-0.469575177351129,0.381613883012713,"ssf","mf.is","exp","vonmises",5,"ssfOUT_15_1_3_BADGER","BADGER",3,1,15,"no effect"
"ssfOUT_15_1_3_BADGER.12",-0.220721305757863,-0.641414474440259,0.199971862924534,"ssf","mf.is","exp","vonmises",15,"ssfOUT_15_1_3_BADGER","BADGER",3,1,15,"no effect"
"ssfOUT_15_1_3_BADGER.13",-0.202969396144122,-0.612450207357472,0.206511415069227,"ssf","mf.is","exp","vonmises",50,"ssfOUT_15_1_3_BADGER","BADGER",3,1,15,"no effect"
"ssfOUT_15_1_3_BADGER.14",-0.1655305920167,-0.569016769506635,0.237955585473235,"ssf","mf.is","exp","vonmises",158,"ssfOUT_15_1_3_BADGER","BADGER",3,1,15,"no effect"
"ssfOUT_15_1_3_BADGER.15",-0.169684869915881,-0.574355434789402,0.234985694957641,"ssf","mf.is","exp","vonmises",500,"ssfOUT_15_1_3_BADGER","BADGER",3,1,15,"no effect"
"ssfOUT_15_1_3_BADGER.16",-0.347267754727194,-0.796334352578183,0.101798843123795,"ssf","mf.is","exp","unif",5,"ssfOUT_15_1_3_BADGER","BADGER",3,1,15,"no effect"
"ssfOUT_15_1_3_BADGER.17",-0.104610250016111,-0.530404217699658,0.321183717667437,"ssf","mf.is","exp","unif",15,"ssfOUT_15_1_3_BADGER","BADGER",3,1,15,"no effect"
"ssfOUT_15_1_3_BADGER.18",-0.0848554316910981,-0.493551462405845,0.323840599023649,"ssf","mf.is","exp","unif",50,"ssfOUT_15_1_3_BADGER","BADGER",3,1,15,"no effect"
"ssfOUT_15_1_3_BADGER.19",-0.187140671552716,-0.593052429342117,0.218771086236685,"ssf","mf.is","exp","unif",158,"ssfOUT_15_1_3_BADGER","BADGER",3,1,15,"no effect"
"ssfOUT_15_1_3_BADGER.20",-0.151770085657565,-0.555774457194025,0.252234285878895,"ssf","mf.is","exp","unif",500,"ssfOUT_15_1_3_BADGER","BADGER",3,1,15,"no effect"
"ssfOUT_15_1_3_BADGER.21",0.0393316916088135,-0.396859497449304,0.475522880666931,"ssf","mf.ss","gamma","vonmises",5,"ssfOUT_15_1_3_BADGER","BADGER",3,1,15,"no effect"
"ssfOUT_15_1_3_BADGER.22",-0.238831128684433,-0.648781141570611,0.171118884201746,"ssf","mf.ss","gamma","vonmises",15,"ssfOUT_15_1_3_BADGER","BADGER",3,1,15,"no effect"
"ssfOUT_15_1_3_BADGER.23",-0.240167483665543,-0.653511586928469,0.173176619597383,"ssf","mf.ss","gamma","vonmises",50,"ssfOUT_15_1_3_BADGER","BADGER",3,1,15,"no effect"
"ssfOUT_15_1_3_BADGER.24",-0.125956811327628,-0.535170354512662,0.283256731857407,"ssf","mf.ss","gamma","vonmises",158,"ssfOUT_15_1_3_BADGER","BADGER",3,1,15,"no effect"
"ssfOUT_15_1_3_BADGER.25",-0.165603229418526,-0.568289272170879,0.237082813333827,"ssf","mf.ss","gamma","vonmises",500,"ssfOUT_15_1_3_BADGER","BADGER",3,1,15,"no effect"
"ssfOUT_15_1_3_BADGER.26",-0.0660246168165432,-0.490519497244564,0.358470263611477,"ssf","mf.ss","gamma","unif",5,"ssfOUT_15_1_3_BADGER","BADGER",3,1,15,"no effect"
"ssfOUT_15_1_3_BADGER.27",-0.190350625273899,-0.602619576980115,0.221918326432316,"ssf","mf.ss","gamma","unif",15,"ssfOUT_15_1_3_BADGER","BADGER",3,1,15,"no effect"
"ssfOUT_15_1_3_BADGER.28",-0.112249132875189,-0.516096142433395,0.291597876683016,"ssf","mf.ss","gamma","unif",50,"ssfOUT_15_1_3_BADGER","BADGER",3,1,15,"no effect"
"ssfOUT_15_1_3_BADGER.29",-0.179296900708496,-0.583646502668297,0.225052701251305,"ssf","mf.ss","gamma","unif",158,"ssfOUT_15_1_3_BADGER","BADGER",3,1,15,"no effect"
"ssfOUT_15_1_3_BADGER.30",-0.1440190319102,-0.546497888625417,0.258459824805016,"ssf","mf.ss","gamma","unif",500,"ssfOUT_15_1_3_BADGER","BADGER",3,1,15,"no effect"
"ssfOUT_15_1_3_BADGER.31",-0.073438314461358,-0.498609989541809,0.351733360619093,"ssf","mf.ss","exp","vonmises",5,"ssfOUT_15_1_3_BADGER","BADGER",3,1,15,"no effect"
"ssfOUT_15_1_3_BADGER.32",-0.233583402557916,-0.653851950342208,0.186685145226377,"ssf","mf.ss","exp","vonmises",15,"ssfOUT_15_1_3_BADGER","BADGER",3,1,15,"no effect"
"ssfOUT_15_1_3_BADGER.33",-0.221615961423451,-0.630310552458319,0.187078629611417,"ssf","mf.ss","exp","vonmises",50,"ssfOUT_15_1_3_BADGER","BADGER",3,1,15,"no effect"
"ssfOUT_15_1_3_BADGER.34",-0.178489236666477,-0.581460388857334,0.22448191552438,"ssf","mf.ss","exp","vonmises",158,"ssfOUT_15_1_3_BADGER","BADGER",3,1,15,"no effect"
"ssfOUT_15_1_3_BADGER.35",-0.183625353513808,-0.587865302947095,0.220614595919479,"ssf","mf.ss","exp","vonmises",500,"ssfOUT_15_1_3_BADGER","BADGER",3,1,15,"no effect"
"ssfOUT_15_1_3_BADGER.36",-0.3086102928419,-0.751897642437607,0.134677056753806,"ssf","mf.ss","exp","unif",5,"ssfOUT_15_1_3_BADGER","BADGER",3,1,15,"no effect"
"ssfOUT_15_1_3_BADGER.37",-0.166394044206473,-0.589952010274876,0.257163921861931,"ssf","mf.ss","exp","unif",15,"ssfOUT_15_1_3_BADGER","BADGER",3,1,15,"no effect"
"ssfOUT_15_1_3_BADGER.38",-0.0938406274315141,-0.500038905450695,0.312357650587667,"ssf","mf.ss","exp","unif",50,"ssfOUT_15_1_3_BADGER","BADGER",3,1,15,"no effect"
"ssfOUT_15_1_3_BADGER.39",-0.187609470035135,-0.592009222570457,0.216790282500187,"ssf","mf.ss","exp","unif",158,"ssfOUT_15_1_3_BADGER","BADGER",3,1,15,"no effect"
"ssfOUT_15_1_3_BADGER.40",-0.158588234150441,-0.561121538063223,0.243945069762341,"ssf","mf.ss","exp","unif",500,"ssfOUT_15_1_3_BADGER","BADGER",3,1,15,"no effect"
"ssfOUT_15_1_3_VULTURE.1",0.067278834974103,-0.523716008852387,0.658273678800593,"ssf","mf.is","gamma","vonmises",5,"ssfOUT_15_1_3_VULTURE","VULTURE",3,1,15,"no effect"
"ssfOUT_15_1_3_VULTURE.2",-0.0286800021607332,-0.588535579116703,0.531175574795237,"ssf","mf.is","gamma","vonmises",15,"ssfOUT_15_1_3_VULTURE","VULTURE",3,1,15,"no effect"
"ssfOUT_15_1_3_VULTURE.3",-0.0472844795162531,-0.593060911654595,0.498491952622089,"ssf","mf.is","gamma","vonmises",50,"ssfOUT_15_1_3_VULTURE","VULTURE",3,1,15,"no effect"
"ssfOUT_15_1_3_VULTURE.4",0.026203762399124,-0.518131579121525,0.570539103919773,"ssf","mf.is","gamma","vonmises",158,"ssfOUT_15_1_3_VULTURE","VULTURE",3,1,15,"no effect"
"ssfOUT_15_1_3_VULTURE.5",-0.0514611423105862,-0.591215026403351,0.488292741782179,"ssf","mf.is","gamma","vonmises",500,"ssfOUT_15_1_3_VULTURE","VULTURE",3,1,15,"no effect"
"ssfOUT_15_1_3_VULTURE.6",0.251323911136281,-0.371823803753709,0.87447162602627,"ssf","mf.is","gamma","unif",5,"ssfOUT_15_1_3_VULTURE","VULTURE",3,1,15,"no effect"
"ssfOUT_15_1_3_VULTURE.7",0.097964252724203,-0.46588206019663,0.661810565645036,"ssf","mf.is","gamma","unif",15,"ssfOUT_15_1_3_VULTURE","VULTURE",3,1,15,"no effect"
"ssfOUT_15_1_3_VULTURE.8",-0.082209738035466,-0.628242331630452,0.46382285555952,"ssf","mf.is","gamma","unif",50,"ssfOUT_15_1_3_VULTURE","VULTURE",3,1,15,"no effect"
"ssfOUT_15_1_3_VULTURE.9",0.0147022234148634,-0.52750823969749,0.556912686527217,"ssf","mf.is","gamma","unif",158,"ssfOUT_15_1_3_VULTURE","VULTURE",3,1,15,"no effect"
"ssfOUT_15_1_3_VULTURE.10",-0.0102215914198442,-0.549914189832154,0.529471006992466,"ssf","mf.is","gamma","unif",500,"ssfOUT_15_1_3_VULTURE","VULTURE",3,1,15,"no effect"
"ssfOUT_15_1_3_VULTURE.11",0.0337193539382084,-0.610507988023063,0.67794669589948,"ssf","mf.is","exp","vonmises",5,"ssfOUT_15_1_3_VULTURE","VULTURE",3,1,15,"no effect"
"ssfOUT_15_1_3_VULTURE.12",-0.107084383174913,-0.684043269025147,0.469874502675321,"ssf","mf.is","exp","vonmises",15,"ssfOUT_15_1_3_VULTURE","VULTURE",3,1,15,"no effect"
"ssfOUT_15_1_3_VULTURE.13",0.00115397455575455,-0.552889627025878,0.555197576137387,"ssf","mf.is","exp","vonmises",50,"ssfOUT_15_1_3_VULTURE","VULTURE",3,1,15,"no effect"
"ssfOUT_15_1_3_VULTURE.14",-0.0469814287777691,-0.592213699917618,0.498250842362079,"ssf","mf.is","exp","vonmises",158,"ssfOUT_15_1_3_VULTURE","VULTURE",3,1,15,"no effect"
"ssfOUT_15_1_3_VULTURE.15",0.00250087493624174,-0.537845979792113,0.542847729664596,"ssf","mf.is","exp","vonmises",500,"ssfOUT_15_1_3_VULTURE","VULTURE",3,1,15,"no effect"
"ssfOUT_15_1_3_VULTURE.16",0.0565725007945194,-0.560055516475212,0.67320051806425,"ssf","mf.is","exp","unif",5,"ssfOUT_15_1_3_VULTURE","VULTURE",3,1,15,"no effect"
"ssfOUT_15_1_3_VULTURE.17",-0.21072214283501,-0.783314939084869,0.36187065341485,"ssf","mf.is","exp","unif",15,"ssfOUT_15_1_3_VULTURE","VULTURE",3,1,15,"no effect"
"ssfOUT_15_1_3_VULTURE.18",-0.0342149048073248,-0.579941793397809,0.51151198378316,"ssf","mf.is","exp","unif",50,"ssfOUT_15_1_3_VULTURE","VULTURE",3,1,15,"no effect"
"ssfOUT_15_1_3_VULTURE.19",-0.050161234742801,-0.594276925010404,0.493954455524802,"ssf","mf.is","exp","unif",158,"ssfOUT_15_1_3_VULTURE","VULTURE",3,1,15,"no effect"
"ssfOUT_15_1_3_VULTURE.20",-0.0575083577535704,-0.599470914075688,0.484454198568547,"ssf","mf.is","exp","unif",500,"ssfOUT_15_1_3_VULTURE","VULTURE",3,1,15,"no effect"
"ssfOUT_15_1_3_VULTURE.21",0.0519566058530976,-0.539415511845779,0.643328723551975,"ssf","mf.ss","gamma","vonmises",5,"ssfOUT_15_1_3_VULTURE","VULTURE",3,1,15,"no effect"
"ssfOUT_15_1_3_VULTURE.22",0.0120454983390815,-0.545298449975556,0.569389446653719,"ssf","mf.ss","gamma","vonmises",15,"ssfOUT_15_1_3_VULTURE","VULTURE",3,1,15,"no effect"
"ssfOUT_15_1_3_VULTURE.23",-0.0195077995582601,-0.564976152695315,0.525960553578795,"ssf","mf.ss","gamma","vonmises",50,"ssfOUT_15_1_3_VULTURE","VULTURE",3,1,15,"no effect"
"ssfOUT_15_1_3_VULTURE.24",0.0372569244846573,-0.5068050094497,0.581318858419015,"ssf","mf.ss","gamma","vonmises",158,"ssfOUT_15_1_3_VULTURE","VULTURE",3,1,15,"no effect"
"ssfOUT_15_1_3_VULTURE.25",-0.04177912316363,-0.581158556645433,0.497600310318173,"ssf","mf.ss","gamma","vonmises",500,"ssfOUT_15_1_3_VULTURE","VULTURE",3,1,15,"no effect"
"ssfOUT_15_1_3_VULTURE.26",0.231888162190248,-0.390685256625723,0.854461581006218,"ssf","mf.ss","gamma","unif",5,"ssfOUT_15_1_3_VULTURE","VULTURE",3,1,15,"no effect"
"ssfOUT_15_1_3_VULTURE.27",0.096889407936377,-0.466574576671851,0.660353392544605,"ssf","mf.ss","gamma","unif",15,"ssfOUT_15_1_3_VULTURE","VULTURE",3,1,15,"no effect"
"ssfOUT_15_1_3_VULTURE.28",-0.0575566928394594,-0.602398060024533,0.487284674345614,"ssf","mf.ss","gamma","unif",50,"ssfOUT_15_1_3_VULTURE","VULTURE",3,1,15,"no effect"
"ssfOUT_15_1_3_VULTURE.29",0.0484878191431806,-0.492779532672108,0.589755170958469,"ssf","mf.ss","gamma","unif",158,"ssfOUT_15_1_3_VULTURE","VULTURE",3,1,15,"no effect"
"ssfOUT_15_1_3_VULTURE.30",0.013024640066665,-0.525912768514595,0.551962048647925,"ssf","mf.ss","gamma","unif",500,"ssfOUT_15_1_3_VULTURE","VULTURE",3,1,15,"no effect"
"ssfOUT_15_1_3_VULTURE.31",0.004095595641904,-0.60412914505897,0.612320336342778,"ssf","mf.ss","exp","vonmises",5,"ssfOUT_15_1_3_VULTURE","VULTURE",3,1,15,"no effect"
"ssfOUT_15_1_3_VULTURE.32",-0.146105920197542,-0.708349714366696,0.416137873971613,"ssf","mf.ss","exp","vonmises",15,"ssfOUT_15_1_3_VULTURE","VULTURE",3,1,15,"no effect"
"ssfOUT_15_1_3_VULTURE.33",0.0537499837147663,-0.49965641966307,0.607156387092603,"ssf","mf.ss","exp","vonmises",50,"ssfOUT_15_1_3_VULTURE","VULTURE",3,1,15,"no effect"
"ssfOUT_15_1_3_VULTURE.34",0.0616211683197714,-0.486284678871382,0.609527015510925,"ssf","mf.ss","exp","vonmises",158,"ssfOUT_15_1_3_VULTURE","VULTURE",3,1,15,"no effect"
"ssfOUT_15_1_3_VULTURE.35",0.0526489472313416,-0.488666212287363,0.593964106750046,"ssf","mf.ss","exp","vonmises",500,"ssfOUT_15_1_3_VULTURE","VULTURE",3,1,15,"no effect"
"ssfOUT_15_1_3_VULTURE.36",-0.220726186922072,-0.828500483593811,0.387048109749667,"ssf","mf.ss","exp","unif",5,"ssfOUT_15_1_3_VULTURE","VULTURE",3,1,15,"no effect"
"ssfOUT_15_1_3_VULTURE.37",-0.0729416970787397,-0.62858513021516,0.482701736057681,"ssf","mf.ss","exp","unif",15,"ssfOUT_15_1_3_VULTURE","VULTURE",3,1,15,"no effect"
"ssfOUT_15_1_3_VULTURE.38",0.0478920836224708,-0.494455660844497,0.590239828089439,"ssf","mf.ss","exp","unif",50,"ssfOUT_15_1_3_VULTURE","VULTURE",3,1,15,"no effect"
"ssfOUT_15_1_3_VULTURE.39",0.0234210162049032,-0.524435504953915,0.571277537363721,"ssf","mf.ss","exp","unif",158,"ssfOUT_15_1_3_VULTURE","VULTURE",3,1,15,"no effect"
"ssfOUT_15_1_3_VULTURE.40",2.10254120820927e-06,-0.543054272958935,0.543058478041352,"ssf","mf.ss","exp","unif",500,"ssfOUT_15_1_3_VULTURE","VULTURE",3,1,15,"no effect"
"ssfOUT_15_1_3_KINGCOBRA.1",13.7332747556903,-1759.50060506129,1786.96715457267,"ssf","mf.is","gamma","vonmises",5,"ssfOUT_15_1_3_KINGCOBRA","KINGCOBRA",3,1,15,"no effect"
"ssfOUT_15_1_3_KINGCOBRA.2",13.8663845749771,-2001.57030613038,2029.30307528034,"ssf","mf.is","gamma","vonmises",15,"ssfOUT_15_1_3_KINGCOBRA","KINGCOBRA",3,1,15,"no effect"
"ssfOUT_15_1_3_KINGCOBRA.3",13.4338024764325,-1336.94807657616,1363.81568152902,"ssf","mf.is","gamma","vonmises",50,"ssfOUT_15_1_3_KINGCOBRA","KINGCOBRA",3,1,15,"no effect"
"ssfOUT_15_1_3_KINGCOBRA.4",13.5003639132843,-1463.81357672629,1490.81430455286,"ssf","mf.is","gamma","vonmises",158,"ssfOUT_15_1_3_KINGCOBRA","KINGCOBRA",3,1,15,"no effect"
"ssfOUT_15_1_3_KINGCOBRA.5",13.530380986259,-1325.40799086556,1352.46875283808,"ssf","mf.is","gamma","vonmises",500,"ssfOUT_15_1_3_KINGCOBRA","KINGCOBRA",3,1,15,"no effect"
"ssfOUT_15_1_3_KINGCOBRA.6",14.7845631384665,-2033.52555290308,2063.09467918001,"ssf","mf.is","gamma","unif",5,"ssfOUT_15_1_3_KINGCOBRA","KINGCOBRA",3,1,15,"no effect"
"ssfOUT_15_1_3_KINGCOBRA.7",14.4876362537158,-1988.41627318914,2017.39154569658,"ssf","mf.is","gamma","unif",15,"ssfOUT_15_1_3_KINGCOBRA","KINGCOBRA",3,1,15,"no effect"
"ssfOUT_15_1_3_KINGCOBRA.8",13.608004345014,-1204.01893322461,1231.23494191464,"ssf","mf.is","gamma","unif",50,"ssfOUT_15_1_3_KINGCOBRA","KINGCOBRA",3,1,15,"no effect"
"ssfOUT_15_1_3_KINGCOBRA.9",13.5422011734432,-1319.37341751789,1346.45781986477,"ssf","mf.is","gamma","unif",158,"ssfOUT_15_1_3_KINGCOBRA","KINGCOBRA",3,1,15,"no effect"
"ssfOUT_15_1_3_KINGCOBRA.10",13.4973846474453,-1241.33929324994,1268.33406254483,"ssf","mf.is","gamma","unif",500,"ssfOUT_15_1_3_KINGCOBRA","KINGCOBRA",3,1,15,"no effect"
"ssfOUT_15_1_3_KINGCOBRA.11",0.646994450474591,0.418253992496025,0.875734908453157,"ssf","mf.is","exp","vonmises",5,"ssfOUT_15_1_3_KINGCOBRA","KINGCOBRA",3,1,15,"preference"
"ssfOUT_15_1_3_KINGCOBRA.12",15.0743912213906,-2269.67121809437,2299.82000053715,"ssf","mf.is","exp","vonmises",15,"ssfOUT_15_1_3_KINGCOBRA","KINGCOBRA",3,1,15,"no effect"
"ssfOUT_15_1_3_KINGCOBRA.13",13.5538881521425,-1540.53305197416,1567.64082827845,"ssf","mf.is","exp","vonmises",50,"ssfOUT_15_1_3_KINGCOBRA","KINGCOBRA",3,1,15,"no effect"
"ssfOUT_15_1_3_KINGCOBRA.14",12.8261078268535,-1345.80778737193,1371.46000302563,"ssf","mf.is","exp","vonmises",158,"ssfOUT_15_1_3_KINGCOBRA","KINGCOBRA",3,1,15,"no effect"
"ssfOUT_15_1_3_KINGCOBRA.15",13.0294814469381,-1111.85042901018,1137.90939190406,"ssf","mf.is","exp","vonmises",500,"ssfOUT_15_1_3_KINGCOBRA","KINGCOBRA",3,1,15,"no effect"
"ssfOUT_15_1_3_KINGCOBRA.16",13.8450745217261,-3001.74961605912,3029.43976510258,"ssf","mf.is","exp","unif",5,"ssfOUT_15_1_3_KINGCOBRA","KINGCOBRA",3,1,15,"no effect"
"ssfOUT_15_1_3_KINGCOBRA.17",13.5293612584643,-1622.20119425828,1649.2599167752,"ssf","mf.is","exp","unif",15,"ssfOUT_15_1_3_KINGCOBRA","KINGCOBRA",3,1,15,"no effect"
"ssfOUT_15_1_3_KINGCOBRA.18",13.4654845767091,-1831.42409933613,1858.35506848954,"ssf","mf.is","exp","unif",50,"ssfOUT_15_1_3_KINGCOBRA","KINGCOBRA",3,1,15,"no effect"
"ssfOUT_15_1_3_KINGCOBRA.19",12.8452545049028,-1340.47989215403,1366.17040116383,"ssf","mf.is","exp","unif",158,"ssfOUT_15_1_3_KINGCOBRA","KINGCOBRA",3,1,15,"no effect"
"ssfOUT_15_1_3_KINGCOBRA.20",12.6672830750744,-1167.73142171668,1193.06598786683,"ssf","mf.is","exp","unif",500,"ssfOUT_15_1_3_KINGCOBRA","KINGCOBRA",3,1,15,"no effect"
"ssfOUT_15_1_3_KINGCOBRA.21",13.2929578524655,-1708.63219171141,1735.21810741635,"ssf","mf.ss","gamma","vonmises",5,"ssfOUT_15_1_3_KINGCOBRA","KINGCOBRA",3,1,15,"no effect"
"ssfOUT_15_1_3_KINGCOBRA.22",13.4753527716279,-1948.47830104192,1975.42900658518,"ssf","mf.ss","gamma","vonmises",15,"ssfOUT_15_1_3_KINGCOBRA","KINGCOBRA",3,1,15,"no effect"
"ssfOUT_15_1_3_KINGCOBRA.23",13.37802375172,-1318.58403366831,1345.34008117175,"ssf","mf.ss","gamma","vonmises",50,"ssfOUT_15_1_3_KINGCOBRA","KINGCOBRA",3,1,15,"no effect"
"ssfOUT_15_1_3_KINGCOBRA.24",13.3163457845056,-1443.36951140617,1470.00220297518,"ssf","mf.ss","gamma","vonmises",158,"ssfOUT_15_1_3_KINGCOBRA","KINGCOBRA",3,1,15,"no effect"
"ssfOUT_15_1_3_KINGCOBRA.25",13.3008766478059,-1306.91758414342,1333.51933743903,"ssf","mf.ss","gamma","vonmises",500,"ssfOUT_15_1_3_KINGCOBRA","KINGCOBRA",3,1,15,"no effect"
"ssfOUT_15_1_3_KINGCOBRA.26",14.5839307646317,-2026.54238263404,2055.71024416331,"ssf","mf.ss","gamma","unif",5,"ssfOUT_15_1_3_KINGCOBRA","KINGCOBRA",3,1,15,"no effect"
"ssfOUT_15_1_3_KINGCOBRA.27",14.3120934037127,-2000.1311179254,2028.75530473283,"ssf","mf.ss","gamma","unif",15,"ssfOUT_15_1_3_KINGCOBRA","KINGCOBRA",3,1,15,"no effect"
"ssfOUT_15_1_3_KINGCOBRA.28",13.4376387058009,-1186.73415708656,1213.60943449817,"ssf","mf.ss","gamma","unif",50,"ssfOUT_15_1_3_KINGCOBRA","KINGCOBRA",3,1,15,"no effect"
"ssfOUT_15_1_3_KINGCOBRA.29",13.3558950592268,-1312.97441730554,1339.68620742399,"ssf","mf.ss","gamma","unif",158,"ssfOUT_15_1_3_KINGCOBRA","KINGCOBRA",3,1,15,"no effect"
"ssfOUT_15_1_3_KINGCOBRA.30",13.3305151859213,-1234.67655732153,1261.33758769337,"ssf","mf.ss","gamma","unif",500,"ssfOUT_15_1_3_KINGCOBRA","KINGCOBRA",3,1,15,"no effect"
"ssfOUT_15_1_3_KINGCOBRA.31",0.688012709428,0.477779363651816,0.898246055204183,"ssf","mf.ss","exp","vonmises",5,"ssfOUT_15_1_3_KINGCOBRA","KINGCOBRA",3,1,15,"preference"
"ssfOUT_15_1_3_KINGCOBRA.32",13.5736233755128,-1570.64750050083,1597.79474725185,"ssf","mf.ss","exp","vonmises",15,"ssfOUT_15_1_3_KINGCOBRA","KINGCOBRA",3,1,15,"no effect"
"ssfOUT_15_1_3_KINGCOBRA.33",13.6007553774561,-1692.55807829523,1719.75958905014,"ssf","mf.ss","exp","vonmises",50,"ssfOUT_15_1_3_KINGCOBRA","KINGCOBRA",3,1,15,"no effect"
"ssfOUT_15_1_3_KINGCOBRA.34",12.5110029001288,-1061.30038516411,1086.32239096437,"ssf","mf.ss","exp","vonmises",158,"ssfOUT_15_1_3_KINGCOBRA","KINGCOBRA",3,1,15,"no effect"
"ssfOUT_15_1_3_KINGCOBRA.35",12.5016952475979,-881.016703725632,906.020094220828,"ssf","mf.ss","exp","vonmises",500,"ssfOUT_15_1_3_KINGCOBRA","KINGCOBRA",3,1,15,"no effect"
"ssfOUT_15_1_3_KINGCOBRA.36",13.4306796091867,-1731.79494251156,1758.65630172994,"ssf","mf.ss","exp","unif",5,"ssfOUT_15_1_3_KINGCOBRA","KINGCOBRA",3,1,15,"no effect"
"ssfOUT_15_1_3_KINGCOBRA.37",13.9201867922174,-1960.04935849749,1987.88973208192,"ssf","mf.ss","exp","unif",15,"ssfOUT_15_1_3_KINGCOBRA","KINGCOBRA",3,1,15,"no effect"
"ssfOUT_15_1_3_KINGCOBRA.38",13.4879815652102,-1698.32216680754,1725.29812993796,"ssf","mf.ss","exp","unif",50,"ssfOUT_15_1_3_KINGCOBRA","KINGCOBRA",3,1,15,"no effect"
"ssfOUT_15_1_3_KINGCOBRA.39",12.4569241934683,-981.741025007412,1006.65487339435,"ssf","mf.ss","exp","unif",158,"ssfOUT_15_1_3_KINGCOBRA","KINGCOBRA",3,1,15,"no effect"
"ssfOUT_15_1_3_KINGCOBRA.40",12.5122047869971,-908.046509172185,933.07091874618,"ssf","mf.ss","exp","unif",500,"ssfOUT_15_1_3_KINGCOBRA","KINGCOBRA",3,1,15,"no effect"
"ssfOUT_15_1_4_BADGER.1",0.968756941145809,0.199392052037417,1.7381218302542,"ssf","mf.is","gamma","vonmises",5,"ssfOUT_15_1_4_BADGER","BADGER",4,1,15,"preference"
"ssfOUT_15_1_4_BADGER.2",1.16509792173796,0.41387189390656,1.91632394956937,"ssf","mf.is","gamma","vonmises",15,"ssfOUT_15_1_4_BADGER","BADGER",4,1,15,"preference"
"ssfOUT_15_1_4_BADGER.3",1.25756454771479,0.51697552878702,1.99815356664255,"ssf","mf.is","gamma","vonmises",50,"ssfOUT_15_1_4_BADGER","BADGER",4,1,15,"preference"
"ssfOUT_15_1_4_BADGER.4",1.18880624529253,0.453667830806363,1.9239446597787,"ssf","mf.is","gamma","vonmises",158,"ssfOUT_15_1_4_BADGER","BADGER",4,1,15,"preference"
"ssfOUT_15_1_4_BADGER.5",1.20237674970614,0.471609779768644,1.93314371964364,"ssf","mf.is","gamma","vonmises",500,"ssfOUT_15_1_4_BADGER","BADGER",4,1,15,"preference"
"ssfOUT_15_1_4_BADGER.6",1.44220651065232,0.675272094203639,2.209140927101,"ssf","mf.is","gamma","unif",5,"ssfOUT_15_1_4_BADGER","BADGER",4,1,15,"preference"
"ssfOUT_15_1_4_BADGER.7",1.16273124386366,0.421110795647962,1.90435169207936,"ssf","mf.is","gamma","unif",15,"ssfOUT_15_1_4_BADGER","BADGER",4,1,15,"preference"
"ssfOUT_15_1_4_BADGER.8",1.25753510887654,0.525202071130802,1.98986814662228,"ssf","mf.is","gamma","unif",50,"ssfOUT_15_1_4_BADGER","BADGER",4,1,15,"preference"
"ssfOUT_15_1_4_BADGER.9",1.12326687180384,0.39079359261558,1.85574015099209,"ssf","mf.is","gamma","unif",158,"ssfOUT_15_1_4_BADGER","BADGER",4,1,15,"preference"
"ssfOUT_15_1_4_BADGER.10",1.2190465500351,0.48947724264256,1.94861585742765,"ssf","mf.is","gamma","unif",500,"ssfOUT_15_1_4_BADGER","BADGER",4,1,15,"preference"
"ssfOUT_15_1_4_BADGER.11",1.22998096293593,0.430485456276844,2.02947646959502,"ssf","mf.is","exp","vonmises",5,"ssfOUT_15_1_4_BADGER","BADGER",4,1,15,"preference"
"ssfOUT_15_1_4_BADGER.12",1.14920849361372,0.407847239603632,1.8905697476238,"ssf","mf.is","exp","vonmises",15,"ssfOUT_15_1_4_BADGER","BADGER",4,1,15,"preference"
"ssfOUT_15_1_4_BADGER.13",1.24648977779736,0.514259188825771,1.97872036676894,"ssf","mf.is","exp","vonmises",50,"ssfOUT_15_1_4_BADGER","BADGER",4,1,15,"preference"
"ssfOUT_15_1_4_BADGER.14",1.17027081757339,0.438774450236601,1.90176718491017,"ssf","mf.is","exp","vonmises",158,"ssfOUT_15_1_4_BADGER","BADGER",4,1,15,"preference"
"ssfOUT_15_1_4_BADGER.15",1.22026464373276,0.488757229715574,1.95177205774995,"ssf","mf.is","exp","vonmises",500,"ssfOUT_15_1_4_BADGER","BADGER",4,1,15,"preference"
"ssfOUT_15_1_4_BADGER.16",0.667306780178285,-0.171146669364763,1.50576022972133,"ssf","mf.is","exp","unif",5,"ssfOUT_15_1_4_BADGER","BADGER",4,1,15,"no effect"
"ssfOUT_15_1_4_BADGER.17",1.23527673940917,0.50318999344798,1.96736348537036,"ssf","mf.is","exp","unif",15,"ssfOUT_15_1_4_BADGER","BADGER",4,1,15,"preference"
"ssfOUT_15_1_4_BADGER.18",1.20599447089771,0.474956153492336,1.93703278830309,"ssf","mf.is","exp","unif",50,"ssfOUT_15_1_4_BADGER","BADGER",4,1,15,"preference"
"ssfOUT_15_1_4_BADGER.19",1.16329940208893,0.431595289816358,1.89500351436149,"ssf","mf.is","exp","unif",158,"ssfOUT_15_1_4_BADGER","BADGER",4,1,15,"preference"
"ssfOUT_15_1_4_BADGER.20",1.23267006047697,0.501284363523337,1.9640557574306,"ssf","mf.is","exp","unif",500,"ssfOUT_15_1_4_BADGER","BADGER",4,1,15,"preference"
"ssfOUT_15_1_4_BADGER.21",0.947674551376327,0.178503870425299,1.71684523232735,"ssf","mf.ss","gamma","vonmises",5,"ssfOUT_15_1_4_BADGER","BADGER",4,1,15,"preference"
"ssfOUT_15_1_4_BADGER.22",1.15088908383434,0.397760570280788,1.90401759738789,"ssf","mf.ss","gamma","vonmises",15,"ssfOUT_15_1_4_BADGER","BADGER",4,1,15,"preference"
"ssfOUT_15_1_4_BADGER.23",1.2499771437871,0.508366037779155,1.99158824979504,"ssf","mf.ss","gamma","vonmises",50,"ssfOUT_15_1_4_BADGER","BADGER",4,1,15,"preference"
"ssfOUT_15_1_4_BADGER.24",1.16695691445968,0.430067372581465,1.9038464563379,"ssf","mf.ss","gamma","vonmises",158,"ssfOUT_15_1_4_BADGER","BADGER",4,1,15,"preference"
"ssfOUT_15_1_4_BADGER.25",1.1813040969173,0.449629505595584,1.91297868823902,"ssf","mf.ss","gamma","vonmises",500,"ssfOUT_15_1_4_BADGER","BADGER",4,1,15,"preference"
"ssfOUT_15_1_4_BADGER.26",1.44261627748674,0.671107037708145,2.21412551726533,"ssf","mf.ss","gamma","unif",5,"ssfOUT_15_1_4_BADGER","BADGER",4,1,15,"preference"
"ssfOUT_15_1_4_BADGER.27",1.1373910125272,0.396364623301663,1.87841740175274,"ssf","mf.ss","gamma","unif",15,"ssfOUT_15_1_4_BADGER","BADGER",4,1,15,"preference"
"ssfOUT_15_1_4_BADGER.28",1.23543658671599,0.502582322919256,1.96829085051273,"ssf","mf.ss","gamma","unif",50,"ssfOUT_15_1_4_BADGER","BADGER",4,1,15,"preference"
"ssfOUT_15_1_4_BADGER.29",1.10925089294644,0.375902882258397,1.84259890363449,"ssf","mf.ss","gamma","unif",158,"ssfOUT_15_1_4_BADGER","BADGER",4,1,15,"preference"
"ssfOUT_15_1_4_BADGER.30",1.20001869082221,0.469562470742988,1.93047491090142,"ssf","mf.ss","gamma","unif",500,"ssfOUT_15_1_4_BADGER","BADGER",4,1,15,"preference"
"ssfOUT_15_1_4_BADGER.31",1.07094153154324,0.277550492520578,1.8643325705659,"ssf","mf.ss","exp","vonmises",5,"ssfOUT_15_1_4_BADGER","BADGER",4,1,15,"preference"
"ssfOUT_15_1_4_BADGER.32",1.17544291936801,0.434883719128913,1.91600211960711,"ssf","mf.ss","exp","vonmises",15,"ssfOUT_15_1_4_BADGER","BADGER",4,1,15,"preference"
"ssfOUT_15_1_4_BADGER.33",1.31431107758691,0.580206978704493,2.04841517646933,"ssf","mf.ss","exp","vonmises",50,"ssfOUT_15_1_4_BADGER","BADGER",4,1,15,"preference"
"ssfOUT_15_1_4_BADGER.34",1.2089211876934,0.478476563344759,1.93936581204203,"ssf","mf.ss","exp","vonmises",158,"ssfOUT_15_1_4_BADGER","BADGER",4,1,15,"preference"
"ssfOUT_15_1_4_BADGER.35",1.21282962299046,0.482804037991963,1.94285520798896,"ssf","mf.ss","exp","vonmises",500,"ssfOUT_15_1_4_BADGER","BADGER",4,1,15,"preference"
"ssfOUT_15_1_4_BADGER.36",0.766960559416537,-0.0678923364307987,1.60181345526387,"ssf","mf.ss","exp","unif",5,"ssfOUT_15_1_4_BADGER","BADGER",4,1,15,"no effect"
"ssfOUT_15_1_4_BADGER.37",1.36937872621302,0.636137106152357,2.10262034627368,"ssf","mf.ss","exp","unif",15,"ssfOUT_15_1_4_BADGER","BADGER",4,1,15,"preference"
"ssfOUT_15_1_4_BADGER.38",1.20606414545989,0.476284748222792,1.935843542697,"ssf","mf.ss","exp","unif",50,"ssfOUT_15_1_4_BADGER","BADGER",4,1,15,"preference"
"ssfOUT_15_1_4_BADGER.39",1.20411667933853,0.472170414421899,1.93606294425516,"ssf","mf.ss","exp","unif",158,"ssfOUT_15_1_4_BADGER","BADGER",4,1,15,"preference"
"ssfOUT_15_1_4_BADGER.40",1.23925435886103,0.508450475019692,1.97005824270236,"ssf","mf.ss","exp","unif",500,"ssfOUT_15_1_4_BADGER","BADGER",4,1,15,"preference"
"ssfOUT_15_1_4_VULTURE.1",0.493778231193418,-0.00714075504863382,0.99469721743547,"ssf","mf.is","gamma","vonmises",5,"ssfOUT_15_1_4_VULTURE","VULTURE",4,1,15,"no effect"
"ssfOUT_15_1_4_VULTURE.2",0.510905354008666,0.0356433881359932,0.986167319881338,"ssf","mf.is","gamma","vonmises",15,"ssfOUT_15_1_4_VULTURE","VULTURE",4,1,15,"preference"
"ssfOUT_15_1_4_VULTURE.3",0.542888380583422,0.0744046085763566,1.01137215259049,"ssf","mf.is","gamma","vonmises",50,"ssfOUT_15_1_4_VULTURE","VULTURE",4,1,15,"preference"
"ssfOUT_15_1_4_VULTURE.4",0.491423905325696,0.0241130274976235,0.958734783153768,"ssf","mf.is","gamma","vonmises",158,"ssfOUT_15_1_4_VULTURE","VULTURE",4,1,15,"preference"
"ssfOUT_15_1_4_VULTURE.5",0.495012088764657,0.0286078305079646,0.96141634702135,"ssf","mf.is","gamma","vonmises",500,"ssfOUT_15_1_4_VULTURE","VULTURE",4,1,15,"preference"
"ssfOUT_15_1_4_VULTURE.6",0.590906172328131,0.102091026926273,1.07972131772999,"ssf","mf.is","gamma","unif",5,"ssfOUT_15_1_4_VULTURE","VULTURE",4,1,15,"preference"
"ssfOUT_15_1_4_VULTURE.7",0.519258690718064,0.0444517727644186,0.994065608671709,"ssf","mf.is","gamma","unif",15,"ssfOUT_15_1_4_VULTURE","VULTURE",4,1,15,"preference"
"ssfOUT_15_1_4_VULTURE.8",0.660303796798531,0.191054828324526,1.12955276527254,"ssf","mf.is","gamma","unif",50,"ssfOUT_15_1_4_VULTURE","VULTURE",4,1,15,"preference"
"ssfOUT_15_1_4_VULTURE.9",0.512807098758677,0.0455901817870226,0.980024015730332,"ssf","mf.is","gamma","unif",158,"ssfOUT_15_1_4_VULTURE","VULTURE",4,1,15,"preference"
"ssfOUT_15_1_4_VULTURE.10",0.505935581508008,0.039888439185997,0.971982723830019,"ssf","mf.is","gamma","unif",500,"ssfOUT_15_1_4_VULTURE","VULTURE",4,1,15,"preference"
"ssfOUT_15_1_4_VULTURE.11",0.225938995433262,-0.276077173178677,0.727955164045201,"ssf","mf.is","exp","vonmises",5,"ssfOUT_15_1_4_VULTURE","VULTURE",4,1,15,"no effect"
"ssfOUT_15_1_4_VULTURE.12",0.37346772250679,-0.105866972774425,0.852802417788006,"ssf","mf.is","exp","vonmises",15,"ssfOUT_15_1_4_VULTURE","VULTURE",4,1,15,"no effect"
"ssfOUT_15_1_4_VULTURE.13",0.650595350936967,0.180184674078465,1.12100602779547,"ssf","mf.is","exp","vonmises",50,"ssfOUT_15_1_4_VULTURE","VULTURE",4,1,15,"preference"
"ssfOUT_15_1_4_VULTURE.14",0.519511741827017,0.0532266510439447,0.985796832610089,"ssf","mf.is","exp","vonmises",158,"ssfOUT_15_1_4_VULTURE","VULTURE",4,1,15,"preference"
"ssfOUT_15_1_4_VULTURE.15",0.503670853410095,0.0372140330273371,0.970127673792852,"ssf","mf.is","exp","vonmises",500,"ssfOUT_15_1_4_VULTURE","VULTURE",4,1,15,"preference"
"ssfOUT_15_1_4_VULTURE.16",0.775926916465436,0.266830180312479,1.28502365261839,"ssf","mf.is","exp","unif",5,"ssfOUT_15_1_4_VULTURE","VULTURE",4,1,15,"preference"
"ssfOUT_15_1_4_VULTURE.17",0.412238568987489,-0.0673721094971823,0.89184924747216,"ssf","mf.is","exp","unif",15,"ssfOUT_15_1_4_VULTURE","VULTURE",4,1,15,"no effect"
"ssfOUT_15_1_4_VULTURE.18",0.562370097474528,0.0886987904202445,1.03604140452881,"ssf","mf.is","exp","unif",50,"ssfOUT_15_1_4_VULTURE","VULTURE",4,1,15,"preference"
"ssfOUT_15_1_4_VULTURE.19",0.430376173055326,-0.0372092579795994,0.89796160409025,"ssf","mf.is","exp","unif",158,"ssfOUT_15_1_4_VULTURE","VULTURE",4,1,15,"no effect"
"ssfOUT_15_1_4_VULTURE.20",0.534633108504342,0.0688259892059435,1.00044022780274,"ssf","mf.is","exp","unif",500,"ssfOUT_15_1_4_VULTURE","VULTURE",4,1,15,"preference"
"ssfOUT_15_1_4_VULTURE.21",0.485157705079726,-0.0154454766550096,0.985760886814461,"ssf","mf.ss","gamma","vonmises",5,"ssfOUT_15_1_4_VULTURE","VULTURE",4,1,15,"no effect"
"ssfOUT_15_1_4_VULTURE.22",0.513609026121002,0.0388620481564198,0.988356004085583,"ssf","mf.ss","gamma","vonmises",15,"ssfOUT_15_1_4_VULTURE","VULTURE",4,1,15,"preference"
"ssfOUT_15_1_4_VULTURE.23",0.539868827285248,0.0715687622742729,1.00816889229622,"ssf","mf.ss","gamma","vonmises",50,"ssfOUT_15_1_4_VULTURE","VULTURE",4,1,15,"preference"
"ssfOUT_15_1_4_VULTURE.24",0.491648657659334,0.024432123723534,0.958865191595133,"ssf","mf.ss","gamma","vonmises",158,"ssfOUT_15_1_4_VULTURE","VULTURE",4,1,15,"preference"
"ssfOUT_15_1_4_VULTURE.25",0.492365781291471,0.0260067259037071,0.958724836679234,"ssf","mf.ss","gamma","vonmises",500,"ssfOUT_15_1_4_VULTURE","VULTURE",4,1,15,"preference"
"ssfOUT_15_1_4_VULTURE.26",0.601475755699507,0.1129018303914,1.09004968100761,"ssf","mf.ss","gamma","unif",5,"ssfOUT_15_1_4_VULTURE","VULTURE",4,1,15,"preference"
"ssfOUT_15_1_4_VULTURE.27",0.524716546332815,0.0518721692563967,0.997560923409233,"ssf","mf.ss","gamma","unif",15,"ssfOUT_15_1_4_VULTURE","VULTURE",4,1,15,"preference"
"ssfOUT_15_1_4_VULTURE.28",0.676876901830693,0.208052197109274,1.14570160655211,"ssf","mf.ss","gamma","unif",50,"ssfOUT_15_1_4_VULTURE","VULTURE",4,1,15,"preference"
"ssfOUT_15_1_4_VULTURE.29",0.551423775960475,0.0849064804076412,1.01794107151331,"ssf","mf.ss","gamma","unif",158,"ssfOUT_15_1_4_VULTURE","VULTURE",4,1,15,"preference"
"ssfOUT_15_1_4_VULTURE.30",0.531612592524693,0.0662229934014038,0.997002191647983,"ssf","mf.ss","gamma","unif",500,"ssfOUT_15_1_4_VULTURE","VULTURE",4,1,15,"preference"
"ssfOUT_15_1_4_VULTURE.31",0.269259040365552,-0.228600404939702,0.767118485670806,"ssf","mf.ss","exp","vonmises",5,"ssfOUT_15_1_4_VULTURE","VULTURE",4,1,15,"no effect"
"ssfOUT_15_1_4_VULTURE.32",0.485690870444462,0.0070791366661675,0.964302604222757,"ssf","mf.ss","exp","vonmises",15,"ssfOUT_15_1_4_VULTURE","VULTURE",4,1,15,"preference"
"ssfOUT_15_1_4_VULTURE.33",0.637951775089198,0.165680390136615,1.11022316004178,"ssf","mf.ss","exp","vonmises",50,"ssfOUT_15_1_4_VULTURE","VULTURE",4,1,15,"preference"
"ssfOUT_15_1_4_VULTURE.34",0.515979201124796,0.0474873646119436,0.984471037637649,"ssf","mf.ss","exp","vonmises",158,"ssfOUT_15_1_4_VULTURE","VULTURE",4,1,15,"preference"
"ssfOUT_15_1_4_VULTURE.35",0.519252916767877,0.0501642095464506,0.988341623989302,"ssf","mf.ss","exp","vonmises",500,"ssfOUT_15_1_4_VULTURE","VULTURE",4,1,15,"preference"
"ssfOUT_15_1_4_VULTURE.36",0.577073549072092,0.0814367935463842,1.0727103045978,"ssf","mf.ss","exp","unif",5,"ssfOUT_15_1_4_VULTURE","VULTURE",4,1,15,"preference"
"ssfOUT_15_1_4_VULTURE.37",0.476384910662856,-0.00364700736637869,0.956416828692091,"ssf","mf.ss","exp","unif",15,"ssfOUT_15_1_4_VULTURE","VULTURE",4,1,15,"no effect"
"ssfOUT_15_1_4_VULTURE.38",0.595792899629303,0.121277050948595,1.07030874831001,"ssf","mf.ss","exp","unif",50,"ssfOUT_15_1_4_VULTURE","VULTURE",4,1,15,"preference"
"ssfOUT_15_1_4_VULTURE.39",0.484539835429352,0.0133784109081184,0.955701259950585,"ssf","mf.ss","exp","unif",158,"ssfOUT_15_1_4_VULTURE","VULTURE",4,1,15,"preference"
"ssfOUT_15_1_4_VULTURE.40",0.567272502755755,0.0994213866935377,1.03512361881797,"ssf","mf.ss","exp","unif",500,"ssfOUT_15_1_4_VULTURE","VULTURE",4,1,15,"preference"
"ssfOUT_15_1_4_KINGCOBRA.1",0.475447332107158,-0.166972566342557,1.11786723055687,"ssf","mf.is","gamma","vonmises",5,"ssfOUT_15_1_4_KINGCOBRA","KINGCOBRA",4,1,15,"no effect"
"ssfOUT_15_1_4_KINGCOBRA.2",0.32400636526303,-0.323467726361775,0.971480456887836,"ssf","mf.is","gamma","vonmises",15,"ssfOUT_15_1_4_KINGCOBRA","KINGCOBRA",4,1,15,"no effect"
"ssfOUT_15_1_4_KINGCOBRA.3",0.401775894069468,-0.233056554556488,1.03660834269542,"ssf","mf.is","gamma","vonmises",50,"ssfOUT_15_1_4_KINGCOBRA","KINGCOBRA",4,1,15,"no effect"
"ssfOUT_15_1_4_KINGCOBRA.4",0.12882217843745,-0.501888542166786,0.759532899041685,"ssf","mf.is","gamma","vonmises",158,"ssfOUT_15_1_4_KINGCOBRA","KINGCOBRA",4,1,15,"no effect"
"ssfOUT_15_1_4_KINGCOBRA.5",0.292749762112449,-0.344340015159522,0.92983953938442,"ssf","mf.is","gamma","vonmises",500,"ssfOUT_15_1_4_KINGCOBRA","KINGCOBRA",4,1,15,"no effect"
"ssfOUT_15_1_4_KINGCOBRA.6",0.218768723369275,-0.424216118427399,0.861753565165948,"ssf","mf.is","gamma","unif",5,"ssfOUT_15_1_4_KINGCOBRA","KINGCOBRA",4,1,15,"no effect"
"ssfOUT_15_1_4_KINGCOBRA.7",0.209041858740372,-0.412916400694211,0.831000118174955,"ssf","mf.is","gamma","unif",15,"ssfOUT_15_1_4_KINGCOBRA","KINGCOBRA",4,1,15,"no effect"
"ssfOUT_15_1_4_KINGCOBRA.8",0.228315640387538,-0.421847750650492,0.878479031425568,"ssf","mf.is","gamma","unif",50,"ssfOUT_15_1_4_KINGCOBRA","KINGCOBRA",4,1,15,"no effect"
"ssfOUT_15_1_4_KINGCOBRA.9",0.291324247453895,-0.33340488925147,0.91605338415926,"ssf","mf.is","gamma","unif",158,"ssfOUT_15_1_4_KINGCOBRA","KINGCOBRA",4,1,15,"no effect"
"ssfOUT_15_1_4_KINGCOBRA.10",0.27086850876791,-0.360103952623614,0.901840970159434,"ssf","mf.is","gamma","unif",500,"ssfOUT_15_1_4_KINGCOBRA","KINGCOBRA",4,1,15,"no effect"
"ssfOUT_15_1_4_KINGCOBRA.11",-0.0944050738838258,-0.81473395782004,0.625923810052388,"ssf","mf.is","exp","vonmises",5,"ssfOUT_15_1_4_KINGCOBRA","KINGCOBRA",4,1,15,"no effect"
"ssfOUT_15_1_4_KINGCOBRA.12",0.241669447692735,-0.399843425794651,0.883182321180122,"ssf","mf.is","exp","vonmises",15,"ssfOUT_15_1_4_KINGCOBRA","KINGCOBRA",4,1,15,"no effect"
"ssfOUT_15_1_4_KINGCOBRA.13",0.525881087503499,-0.140406391284095,1.19216856629109,"ssf","mf.is","exp","vonmises",50,"ssfOUT_15_1_4_KINGCOBRA","KINGCOBRA",4,1,15,"no effect"
"ssfOUT_15_1_4_KINGCOBRA.14",0.37137679996281,-0.261226816801414,1.00398041672703,"ssf","mf.is","exp","vonmises",158,"ssfOUT_15_1_4_KINGCOBRA","KINGCOBRA",4,1,15,"no effect"
"ssfOUT_15_1_4_KINGCOBRA.15",0.275652046681257,-0.360168763758739,0.911472857121252,"ssf","mf.is","exp","vonmises",500,"ssfOUT_15_1_4_KINGCOBRA","KINGCOBRA",4,1,15,"no effect"
"ssfOUT_15_1_4_KINGCOBRA.16",0.787854192807889,0.00336653512705254,1.57234185048873,"ssf","mf.is","exp","unif",5,"ssfOUT_15_1_4_KINGCOBRA","KINGCOBRA",4,1,15,"preference"
"ssfOUT_15_1_4_KINGCOBRA.17",-0.0491721826510892,-0.712810975174248,0.614466609872069,"ssf","mf.is","exp","unif",15,"ssfOUT_15_1_4_KINGCOBRA","KINGCOBRA",4,1,15,"no effect"
"ssfOUT_15_1_4_KINGCOBRA.18",0.187518947328349,-0.450263472985676,0.825301367642373,"ssf","mf.is","exp","unif",50,"ssfOUT_15_1_4_KINGCOBRA","KINGCOBRA",4,1,15,"no effect"
"ssfOUT_15_1_4_KINGCOBRA.19",0.201149092706036,-0.434110751506937,0.836408936919009,"ssf","mf.is","exp","unif",158,"ssfOUT_15_1_4_KINGCOBRA","KINGCOBRA",4,1,15,"no effect"
"ssfOUT_15_1_4_KINGCOBRA.20",0.107864718401769,-0.522765847496819,0.738495284300357,"ssf","mf.is","exp","unif",500,"ssfOUT_15_1_4_KINGCOBRA","KINGCOBRA",4,1,15,"no effect"
"ssfOUT_15_1_4_KINGCOBRA.21",0.447411875312046,-0.193655389036795,1.08847913966089,"ssf","mf.ss","gamma","vonmises",5,"ssfOUT_15_1_4_KINGCOBRA","KINGCOBRA",4,1,15,"no effect"
"ssfOUT_15_1_4_KINGCOBRA.22",0.290103542694759,-0.356261476737256,0.936468562126773,"ssf","mf.ss","gamma","vonmises",15,"ssfOUT_15_1_4_KINGCOBRA","KINGCOBRA",4,1,15,"no effect"
"ssfOUT_15_1_4_KINGCOBRA.23",0.389822315030111,-0.244500327299463,1.02414495735969,"ssf","mf.ss","gamma","vonmises",50,"ssfOUT_15_1_4_KINGCOBRA","KINGCOBRA",4,1,15,"no effect"
"ssfOUT_15_1_4_KINGCOBRA.24",0.137161352443897,-0.490744920958559,0.765067625846352,"ssf","mf.ss","gamma","vonmises",158,"ssfOUT_15_1_4_KINGCOBRA","KINGCOBRA",4,1,15,"no effect"
"ssfOUT_15_1_4_KINGCOBRA.25",0.284299453794957,-0.350833368566971,0.919432276156885,"ssf","mf.ss","gamma","vonmises",500,"ssfOUT_15_1_4_KINGCOBRA","KINGCOBRA",4,1,15,"no effect"
"ssfOUT_15_1_4_KINGCOBRA.26",0.200925723662396,-0.445420237570094,0.847271684894886,"ssf","mf.ss","gamma","unif",5,"ssfOUT_15_1_4_KINGCOBRA","KINGCOBRA",4,1,15,"no effect"
"ssfOUT_15_1_4_KINGCOBRA.27",0.201469098394282,-0.420007881366211,0.822946078154776,"ssf","mf.ss","gamma","unif",15,"ssfOUT_15_1_4_KINGCOBRA","KINGCOBRA",4,1,15,"no effect"
"ssfOUT_15_1_4_KINGCOBRA.28",0.227906388749626,-0.420973579369009,0.876786356868262,"ssf","mf.ss","gamma","unif",50,"ssfOUT_15_1_4_KINGCOBRA","KINGCOBRA",4,1,15,"no effect"
"ssfOUT_15_1_4_KINGCOBRA.29",0.290858994038732,-0.332243216650499,0.913961204727963,"ssf","mf.ss","gamma","unif",158,"ssfOUT_15_1_4_KINGCOBRA","KINGCOBRA",4,1,15,"no effect"
"ssfOUT_15_1_4_KINGCOBRA.30",0.267431688887556,-0.362012133866044,0.896875511641156,"ssf","mf.ss","gamma","unif",500,"ssfOUT_15_1_4_KINGCOBRA","KINGCOBRA",4,1,15,"no effect"
"ssfOUT_15_1_4_KINGCOBRA.31",-0.132415621851299,-0.82572199985969,0.560890756157092,"ssf","mf.ss","exp","vonmises",5,"ssfOUT_15_1_4_KINGCOBRA","KINGCOBRA",4,1,15,"no effect"
"ssfOUT_15_1_4_KINGCOBRA.32",0.126426678104272,-0.500765045641409,0.753618401849952,"ssf","mf.ss","exp","vonmises",15,"ssfOUT_15_1_4_KINGCOBRA","KINGCOBRA",4,1,15,"no effect"
"ssfOUT_15_1_4_KINGCOBRA.33",-0.046543070437423,-0.669584085702417,0.576497944827571,"ssf","mf.ss","exp","vonmises",50,"ssfOUT_15_1_4_KINGCOBRA","KINGCOBRA",4,1,15,"no effect"
"ssfOUT_15_1_4_KINGCOBRA.34",0.0735477654790353,-0.53883310135502,0.68592863231309,"ssf","mf.ss","exp","vonmises",158,"ssfOUT_15_1_4_KINGCOBRA","KINGCOBRA",4,1,15,"no effect"
"ssfOUT_15_1_4_KINGCOBRA.35",0.0415309507377721,-0.572555030838747,0.655616932314291,"ssf","mf.ss","exp","vonmises",500,"ssfOUT_15_1_4_KINGCOBRA","KINGCOBRA",4,1,15,"no effect"
"ssfOUT_15_1_4_KINGCOBRA.36",0.111012841150082,-0.629866122251395,0.851891804551559,"ssf","mf.ss","exp","unif",5,"ssfOUT_15_1_4_KINGCOBRA","KINGCOBRA",4,1,15,"no effect"
"ssfOUT_15_1_4_KINGCOBRA.37",-0.0516330113825204,-0.682641358257521,0.57937533549248,"ssf","mf.ss","exp","unif",15,"ssfOUT_15_1_4_KINGCOBRA","KINGCOBRA",4,1,15,"no effect"
"ssfOUT_15_1_4_KINGCOBRA.38",0.100381453296913,-0.513439615861966,0.714202522455792,"ssf","mf.ss","exp","unif",50,"ssfOUT_15_1_4_KINGCOBRA","KINGCOBRA",4,1,15,"no effect"
"ssfOUT_15_1_4_KINGCOBRA.39",0.0547513009404885,-0.559401591666837,0.668904193547814,"ssf","mf.ss","exp","unif",158,"ssfOUT_15_1_4_KINGCOBRA","KINGCOBRA",4,1,15,"no effect"
"ssfOUT_15_1_4_KINGCOBRA.40",0.0538191214436772,-0.560028481425147,0.667666724312502,"ssf","mf.ss","exp","unif",500,"ssfOUT_15_1_4_KINGCOBRA","KINGCOBRA",4,1,15,"no effect"
"ssfOUT_15_2_1_BADGER.1",0.652867891473194,-0.464787567193465,1.77052335013985,"ssf","mf.is","gamma","vonmises",5,"ssfOUT_15_2_1_BADGER","BADGER",1,0.5,15,"no effect"
"ssfOUT_15_2_1_BADGER.2",0.971185967757301,-0.0961604338732528,2.03853236938785,"ssf","mf.is","gamma","vonmises",15,"ssfOUT_15_2_1_BADGER","BADGER",1,0.5,15,"no effect"
"ssfOUT_15_2_1_BADGER.3",1.1556750618168,0.111617255463227,2.19973286817037,"ssf","mf.is","gamma","vonmises",50,"ssfOUT_15_2_1_BADGER","BADGER",1,0.5,15,"preference"
"ssfOUT_15_2_1_BADGER.4",0.645663527765874,-0.395605537348311,1.68693259288006,"ssf","mf.is","gamma","vonmises",158,"ssfOUT_15_2_1_BADGER","BADGER",1,0.5,15,"no effect"
"ssfOUT_15_2_1_BADGER.5",0.841963974295918,-0.201073955374401,1.88500190396624,"ssf","mf.is","gamma","vonmises",500,"ssfOUT_15_2_1_BADGER","BADGER",1,0.5,15,"no effect"
"ssfOUT_15_2_1_BADGER.6",0.707408518273095,-0.43648937317124,1.85130640971743,"ssf","mf.is","gamma","unif",5,"ssfOUT_15_2_1_BADGER","BADGER",1,0.5,15,"no effect"
"ssfOUT_15_2_1_BADGER.7",0.598567048189611,-0.459557913185673,1.6566920095649,"ssf","mf.is","gamma","unif",15,"ssfOUT_15_2_1_BADGER","BADGER",1,0.5,15,"no effect"
"ssfOUT_15_2_1_BADGER.8",0.800594517918584,-0.254765877738921,1.85595491357609,"ssf","mf.is","gamma","unif",50,"ssfOUT_15_2_1_BADGER","BADGER",1,0.5,15,"no effect"
"ssfOUT_15_2_1_BADGER.9",0.819256157115194,-0.21828544676181,1.8567977609922,"ssf","mf.is","gamma","unif",158,"ssfOUT_15_2_1_BADGER","BADGER",1,0.5,15,"no effect"
"ssfOUT_15_2_1_BADGER.10",0.873059590177864,-0.173063423798598,1.91918260415433,"ssf","mf.is","gamma","unif",500,"ssfOUT_15_2_1_BADGER","BADGER",1,0.5,15,"no effect"
"ssfOUT_15_2_1_BADGER.11",1.45145394619429,0.379534199817522,2.52337369257106,"ssf","mf.is","exp","vonmises",5,"ssfOUT_15_2_1_BADGER","BADGER",1,0.5,15,"preference"
"ssfOUT_15_2_1_BADGER.12",0.783519759486057,-0.288607806059912,1.85564732503203,"ssf","mf.is","exp","vonmises",15,"ssfOUT_15_2_1_BADGER","BADGER",1,0.5,15,"no effect"
"ssfOUT_15_2_1_BADGER.13",0.854710916035641,-0.191600326862552,1.90102215893383,"ssf","mf.is","exp","vonmises",50,"ssfOUT_15_2_1_BADGER","BADGER",1,0.5,15,"no effect"
"ssfOUT_15_2_1_BADGER.14",0.878056209862568,-0.158682659834077,1.91479507955921,"ssf","mf.is","exp","vonmises",158,"ssfOUT_15_2_1_BADGER","BADGER",1,0.5,15,"no effect"
"ssfOUT_15_2_1_BADGER.15",0.789237498244605,-0.255311684917831,1.83378668140704,"ssf","mf.is","exp","vonmises",500,"ssfOUT_15_2_1_BADGER","BADGER",1,0.5,15,"no effect"
"ssfOUT_15_2_1_BADGER.16",0.457300942117191,-0.68283472888788,1.59743661312226,"ssf","mf.is","exp","unif",5,"ssfOUT_15_2_1_BADGER","BADGER",1,0.5,15,"no effect"
"ssfOUT_15_2_1_BADGER.17",1.06501182670892,-0.00288109485701127,2.13290474827485,"ssf","mf.is","exp","unif",15,"ssfOUT_15_2_1_BADGER","BADGER",1,0.5,15,"no effect"
"ssfOUT_15_2_1_BADGER.18",0.996765884314281,-0.0427205391534482,2.03625230778201,"ssf","mf.is","exp","unif",50,"ssfOUT_15_2_1_BADGER","BADGER",1,0.5,15,"no effect"
"ssfOUT_15_2_1_BADGER.19",0.880591059044024,-0.158724773142426,1.91990689123047,"ssf","mf.is","exp","unif",158,"ssfOUT_15_2_1_BADGER","BADGER",1,0.5,15,"no effect"
"ssfOUT_15_2_1_BADGER.20",0.862523173351084,-0.179435710740907,1.90448205744308,"ssf","mf.is","exp","unif",500,"ssfOUT_15_2_1_BADGER","BADGER",1,0.5,15,"no effect"
"ssfOUT_15_2_1_BADGER.21",0.690275204524104,-0.412511891122863,1.79306230017107,"ssf","mf.ss","gamma","vonmises",5,"ssfOUT_15_2_1_BADGER","BADGER",1,0.5,15,"no effect"
"ssfOUT_15_2_1_BADGER.22",0.854354168760371,-0.216866476495929,1.92557481401667,"ssf","mf.ss","gamma","vonmises",15,"ssfOUT_15_2_1_BADGER","BADGER",1,0.5,15,"no effect"
"ssfOUT_15_2_1_BADGER.23",0.959256445998776,-0.0830140232613134,2.00152691525887,"ssf","mf.ss","gamma","vonmises",50,"ssfOUT_15_2_1_BADGER","BADGER",1,0.5,15,"no effect"
"ssfOUT_15_2_1_BADGER.24",0.572693987115472,-0.467991727495691,1.61337970172663,"ssf","mf.ss","gamma","vonmises",158,"ssfOUT_15_2_1_BADGER","BADGER",1,0.5,15,"no effect"
"ssfOUT_15_2_1_BADGER.25",0.70762887829371,-0.33502439232343,1.75028214891085,"ssf","mf.ss","gamma","vonmises",500,"ssfOUT_15_2_1_BADGER","BADGER",1,0.5,15,"no effect"
"ssfOUT_15_2_1_BADGER.26",0.641624715920488,-0.485177036712826,1.7684264685538,"ssf","mf.ss","gamma","unif",5,"ssfOUT_15_2_1_BADGER","BADGER",1,0.5,15,"no effect"
"ssfOUT_15_2_1_BADGER.27",0.523768931704773,-0.532275884840978,1.57981374825052,"ssf","mf.ss","gamma","unif",15,"ssfOUT_15_2_1_BADGER","BADGER",1,0.5,15,"no effect"
"ssfOUT_15_2_1_BADGER.28",0.748976741428731,-0.30899397482799,1.80694745768545,"ssf","mf.ss","gamma","unif",50,"ssfOUT_15_2_1_BADGER","BADGER",1,0.5,15,"no effect"
"ssfOUT_15_2_1_BADGER.29",0.766281138106202,-0.271769500011759,1.80433177622416,"ssf","mf.ss","gamma","unif",158,"ssfOUT_15_2_1_BADGER","BADGER",1,0.5,15,"no effect"
"ssfOUT_15_2_1_BADGER.30",0.794299144262474,-0.251488815007705,1.84008710353265,"ssf","mf.ss","gamma","unif",500,"ssfOUT_15_2_1_BADGER","BADGER",1,0.5,15,"no effect"
"ssfOUT_15_2_1_BADGER.31",1.1885466498911,0.12925798500796,2.24783531477424,"ssf","mf.ss","exp","vonmises",5,"ssfOUT_15_2_1_BADGER","BADGER",1,0.5,15,"preference"
"ssfOUT_15_2_1_BADGER.32",0.647802903762079,-0.410539292466389,1.70614509999055,"ssf","mf.ss","exp","vonmises",15,"ssfOUT_15_2_1_BADGER","BADGER",1,0.5,15,"no effect"
"ssfOUT_15_2_1_BADGER.33",0.709624452860359,-0.327666425515529,1.74691533123625,"ssf","mf.ss","exp","vonmises",50,"ssfOUT_15_2_1_BADGER","BADGER",1,0.5,15,"no effect"
"ssfOUT_15_2_1_BADGER.34",0.736217920846842,-0.299187306899119,1.7716231485928,"ssf","mf.ss","exp","vonmises",158,"ssfOUT_15_2_1_BADGER","BADGER",1,0.5,15,"no effect"
"ssfOUT_15_2_1_BADGER.35",0.647772248873614,-0.391452642413197,1.68699714016042,"ssf","mf.ss","exp","vonmises",500,"ssfOUT_15_2_1_BADGER","BADGER",1,0.5,15,"no effect"
"ssfOUT_15_2_1_BADGER.36",0.460167105957286,-0.659141936444207,1.57947614835878,"ssf","mf.ss","exp","unif",5,"ssfOUT_15_2_1_BADGER","BADGER",1,0.5,15,"no effect"
"ssfOUT_15_2_1_BADGER.37",0.786768995694017,-0.265832518699999,1.83937051008803,"ssf","mf.ss","exp","unif",15,"ssfOUT_15_2_1_BADGER","BADGER",1,0.5,15,"no effect"
"ssfOUT_15_2_1_BADGER.38",0.863835261720949,-0.168354170911748,1.89602469435365,"ssf","mf.ss","exp","unif",50,"ssfOUT_15_2_1_BADGER","BADGER",1,0.5,15,"no effect"
"ssfOUT_15_2_1_BADGER.39",0.750435647087485,-0.285453683184976,1.78632497735994,"ssf","mf.ss","exp","unif",158,"ssfOUT_15_2_1_BADGER","BADGER",1,0.5,15,"no effect"
"ssfOUT_15_2_1_BADGER.40",0.753121775686021,-0.28473072504782,1.79097427641986,"ssf","mf.ss","exp","unif",500,"ssfOUT_15_2_1_BADGER","BADGER",1,0.5,15,"no effect"
"ssfOUT_15_2_1_VULTURE.1",-0.252177600033466,-1.06088546227896,0.556530262212031,"ssf","mf.is","gamma","vonmises",5,"ssfOUT_15_2_1_VULTURE","VULTURE",1,0.5,15,"no effect"
"ssfOUT_15_2_1_VULTURE.2",-0.247785374807197,-1.00854953536698,0.512978785752586,"ssf","mf.is","gamma","vonmises",15,"ssfOUT_15_2_1_VULTURE","VULTURE",1,0.5,15,"no effect"
"ssfOUT_15_2_1_VULTURE.3",-0.141571573878575,-0.888469266233691,0.60532611847654,"ssf","mf.is","gamma","vonmises",50,"ssfOUT_15_2_1_VULTURE","VULTURE",1,0.5,15,"no effect"
"ssfOUT_15_2_1_VULTURE.4",-0.0968798094853261,-0.834140472823073,0.640380853852421,"ssf","mf.is","gamma","vonmises",158,"ssfOUT_15_2_1_VULTURE","VULTURE",1,0.5,15,"no effect"
"ssfOUT_15_2_1_VULTURE.5",-0.0426479724039036,-0.782124233161999,0.696828288354192,"ssf","mf.is","gamma","vonmises",500,"ssfOUT_15_2_1_VULTURE","VULTURE",1,0.5,15,"no effect"
"ssfOUT_15_2_1_VULTURE.6",-0.00353849212695924,-0.808685087166635,0.801608102912716,"ssf","mf.is","gamma","unif",5,"ssfOUT_15_2_1_VULTURE","VULTURE",1,0.5,15,"no effect"
"ssfOUT_15_2_1_VULTURE.7",0.18336246080867,-0.572062719767307,0.938787641384648,"ssf","mf.is","gamma","unif",15,"ssfOUT_15_2_1_VULTURE","VULTURE",1,0.5,15,"no effect"
"ssfOUT_15_2_1_VULTURE.8",-0.115255732105604,-0.850706642329605,0.620195178118397,"ssf","mf.is","gamma","unif",50,"ssfOUT_15_2_1_VULTURE","VULTURE",1,0.5,15,"no effect"
"ssfOUT_15_2_1_VULTURE.9",0.0333927190481092,-0.70181968454345,0.768605122639669,"ssf","mf.is","gamma","unif",158,"ssfOUT_15_2_1_VULTURE","VULTURE",1,0.5,15,"no effect"
"ssfOUT_15_2_1_VULTURE.10",-0.0337373533965586,-0.769519233492293,0.702044526699176,"ssf","mf.is","gamma","unif",500,"ssfOUT_15_2_1_VULTURE","VULTURE",1,0.5,15,"no effect"
"ssfOUT_15_2_1_VULTURE.11",-0.27361534229878,-1.16121958362882,0.613988899031262,"ssf","mf.is","exp","vonmises",5,"ssfOUT_15_2_1_VULTURE","VULTURE",1,0.5,15,"no effect"
"ssfOUT_15_2_1_VULTURE.12",0.245088826991452,-0.524220648929966,1.01439830291287,"ssf","mf.is","exp","vonmises",15,"ssfOUT_15_2_1_VULTURE","VULTURE",1,0.5,15,"no effect"
"ssfOUT_15_2_1_VULTURE.13",0.00849771365976774,-0.737915323230601,0.754910750550137,"ssf","mf.is","exp","vonmises",50,"ssfOUT_15_2_1_VULTURE","VULTURE",1,0.5,15,"no effect"
"ssfOUT_15_2_1_VULTURE.14",-0.135952426736043,-0.871466507762709,0.599561654290622,"ssf","mf.is","exp","vonmises",158,"ssfOUT_15_2_1_VULTURE","VULTURE",1,0.5,15,"no effect"
"ssfOUT_15_2_1_VULTURE.15",-0.024696151487713,-0.760833887978545,0.711441585003119,"ssf","mf.is","exp","vonmises",500,"ssfOUT_15_2_1_VULTURE","VULTURE",1,0.5,15,"no effect"
"ssfOUT_15_2_1_VULTURE.16",-0.660525468309957,-1.53336979130046,0.212318854680542,"ssf","mf.is","exp","unif",5,"ssfOUT_15_2_1_VULTURE","VULTURE",1,0.5,15,"no effect"
"ssfOUT_15_2_1_VULTURE.17",-0.184448590179659,-0.973024949404695,0.604127769045377,"ssf","mf.is","exp","unif",15,"ssfOUT_15_2_1_VULTURE","VULTURE",1,0.5,15,"no effect"
"ssfOUT_15_2_1_VULTURE.18",-0.00818762002655566,-0.755579021449922,0.739203781396811,"ssf","mf.is","exp","unif",50,"ssfOUT_15_2_1_VULTURE","VULTURE",1,0.5,15,"no effect"
"ssfOUT_15_2_1_VULTURE.19",-0.019507101215745,-0.762934658224675,0.723920455793185,"ssf","mf.is","exp","unif",158,"ssfOUT_15_2_1_VULTURE","VULTURE",1,0.5,15,"no effect"
"ssfOUT_15_2_1_VULTURE.20",-0.0507405918134168,-0.789097157881859,0.687615974255026,"ssf","mf.is","exp","unif",500,"ssfOUT_15_2_1_VULTURE","VULTURE",1,0.5,15,"no effect"
"ssfOUT_15_2_1_VULTURE.21",-0.243848652144037,-1.05034294590824,0.562645641620169,"ssf","mf.ss","gamma","vonmises",5,"ssfOUT_15_2_1_VULTURE","VULTURE",1,0.5,15,"no effect"
"ssfOUT_15_2_1_VULTURE.22",-0.306466130450189,-1.06660653239252,0.453674271492145,"ssf","mf.ss","gamma","vonmises",15,"ssfOUT_15_2_1_VULTURE","VULTURE",1,0.5,15,"no effect"
"ssfOUT_15_2_1_VULTURE.23",-0.170217024788597,-0.917181081785393,0.576747032208199,"ssf","mf.ss","gamma","vonmises",50,"ssfOUT_15_2_1_VULTURE","VULTURE",1,0.5,15,"no effect"
"ssfOUT_15_2_1_VULTURE.24",-0.133622829477817,-0.870197288042519,0.602951629086886,"ssf","mf.ss","gamma","vonmises",158,"ssfOUT_15_2_1_VULTURE","VULTURE",1,0.5,15,"no effect"
"ssfOUT_15_2_1_VULTURE.25",-0.0597632011155491,-0.798697231501288,0.679170829270189,"ssf","mf.ss","gamma","vonmises",500,"ssfOUT_15_2_1_VULTURE","VULTURE",1,0.5,15,"no effect"
"ssfOUT_15_2_1_VULTURE.26",-0.0104857150770777,-0.811665250968514,0.790693820814359,"ssf","mf.ss","gamma","unif",5,"ssfOUT_15_2_1_VULTURE","VULTURE",1,0.5,15,"no effect"
"ssfOUT_15_2_1_VULTURE.27",0.178181821353147,-0.575892159098476,0.93225580180477,"ssf","mf.ss","gamma","unif",15,"ssfOUT_15_2_1_VULTURE","VULTURE",1,0.5,15,"no effect"
"ssfOUT_15_2_1_VULTURE.28",-0.129478758383614,-0.86478154434089,0.605824027573662,"ssf","mf.ss","gamma","unif",50,"ssfOUT_15_2_1_VULTURE","VULTURE",1,0.5,15,"no effect"
"ssfOUT_15_2_1_VULTURE.29",0.0176899310802544,-0.716685042095138,0.752064904255647,"ssf","mf.ss","gamma","unif",158,"ssfOUT_15_2_1_VULTURE","VULTURE",1,0.5,15,"no effect"
"ssfOUT_15_2_1_VULTURE.30",-0.0415117129808703,-0.776190565250533,0.693167139288792,"ssf","mf.ss","gamma","unif",500,"ssfOUT_15_2_1_VULTURE","VULTURE",1,0.5,15,"no effect"
"ssfOUT_15_2_1_VULTURE.31",-0.023402128191217,-0.841873456982738,0.795069200600304,"ssf","mf.ss","exp","vonmises",5,"ssfOUT_15_2_1_VULTURE","VULTURE",1,0.5,15,"no effect"
"ssfOUT_15_2_1_VULTURE.32",0.134728356497387,-0.625622513149952,0.895079226144727,"ssf","mf.ss","exp","vonmises",15,"ssfOUT_15_2_1_VULTURE","VULTURE",1,0.5,15,"no effect"
"ssfOUT_15_2_1_VULTURE.33",0.0470965631765643,-0.693090062178167,0.787283188531296,"ssf","mf.ss","exp","vonmises",50,"ssfOUT_15_2_1_VULTURE","VULTURE",1,0.5,15,"no effect"
"ssfOUT_15_2_1_VULTURE.34",-0.0926561983073207,-0.824279145232047,0.638966748617406,"ssf","mf.ss","exp","vonmises",158,"ssfOUT_15_2_1_VULTURE","VULTURE",1,0.5,15,"no effect"
"ssfOUT_15_2_1_VULTURE.35",-0.0145072118903665,-0.750339318963593,0.72132489518286,"ssf","mf.ss","exp","vonmises",500,"ssfOUT_15_2_1_VULTURE","VULTURE",1,0.5,15,"no effect"
"ssfOUT_15_2_1_VULTURE.36",-0.586849175862257,-1.43078322199386,0.257084870269347,"ssf","mf.ss","exp","unif",5,"ssfOUT_15_2_1_VULTURE","VULTURE",1,0.5,15,"no effect"
"ssfOUT_15_2_1_VULTURE.37",-0.0334918382951293,-0.800273819348362,0.733290142758103,"ssf","mf.ss","exp","unif",15,"ssfOUT_15_2_1_VULTURE","VULTURE",1,0.5,15,"no effect"
"ssfOUT_15_2_1_VULTURE.38",-0.0964902630449361,-0.843893193565972,0.6509126674761,"ssf","mf.ss","exp","unif",50,"ssfOUT_15_2_1_VULTURE","VULTURE",1,0.5,15,"no effect"
"ssfOUT_15_2_1_VULTURE.39",-0.0281315101296123,-0.768536841261885,0.712273821002661,"ssf","mf.ss","exp","unif",158,"ssfOUT_15_2_1_VULTURE","VULTURE",1,0.5,15,"no effect"
"ssfOUT_15_2_1_VULTURE.40",-0.0536438153921176,-0.79272355482383,0.685435924039595,"ssf","mf.ss","exp","unif",500,"ssfOUT_15_2_1_VULTURE","VULTURE",1,0.5,15,"no effect"
"ssfOUT_15_2_1_KINGCOBRA.1",NA,NA,NA,"ssf","mf.is","gamma","vonmises",5,"ssfOUT_15_2_1_KINGCOBRA","KINGCOBRA",1,0.5,15,NA
"ssfOUT_15_2_1_KINGCOBRA.2",16.1527413910321,-2509.01746619512,2541.32294897718,"ssf","mf.is","gamma","vonmises",15,"ssfOUT_15_2_1_KINGCOBRA","KINGCOBRA",1,0.5,15,"no effect"
"ssfOUT_15_2_1_KINGCOBRA.3",15.4742829871437,-2368.49392594592,2399.44249192021,"ssf","mf.is","gamma","vonmises",50,"ssfOUT_15_2_1_KINGCOBRA","KINGCOBRA",1,0.5,15,"no effect"
"ssfOUT_15_2_1_KINGCOBRA.4",14.3358146822113,-1728.45427462279,1757.12590398721,"ssf","mf.is","gamma","vonmises",158,"ssfOUT_15_2_1_KINGCOBRA","KINGCOBRA",1,0.5,15,"no effect"
"ssfOUT_15_2_1_KINGCOBRA.5",14.3587791681615,-1719.65520245842,1748.37276079474,"ssf","mf.is","gamma","vonmises",500,"ssfOUT_15_2_1_KINGCOBRA","KINGCOBRA",1,0.5,15,"no effect"
"ssfOUT_15_2_1_KINGCOBRA.6",NA,NA,NA,"ssf","mf.is","gamma","unif",5,"ssfOUT_15_2_1_KINGCOBRA","KINGCOBRA",1,0.5,15,NA
"ssfOUT_15_2_1_KINGCOBRA.7",14.3806647854086,-2232.17061413608,2260.9319437069,"ssf","mf.is","gamma","unif",15,"ssfOUT_15_2_1_KINGCOBRA","KINGCOBRA",1,0.5,15,"no effect"
"ssfOUT_15_2_1_KINGCOBRA.8",14.4404795158156,-1947.71682472802,1976.59778375965,"ssf","mf.is","gamma","unif",50,"ssfOUT_15_2_1_KINGCOBRA","KINGCOBRA",1,0.5,15,"no effect"
"ssfOUT_15_2_1_KINGCOBRA.9",14.4050111287803,-1745.70530573491,1774.51532799247,"ssf","mf.is","gamma","unif",158,"ssfOUT_15_2_1_KINGCOBRA","KINGCOBRA",1,0.5,15,"no effect"
"ssfOUT_15_2_1_KINGCOBRA.10",14.4113814742995,-1671.07677850481,1699.89954145341,"ssf","mf.is","gamma","unif",500,"ssfOUT_15_2_1_KINGCOBRA","KINGCOBRA",1,0.5,15,"no effect"
"ssfOUT_15_2_1_KINGCOBRA.11",15.2689591730041,-3394.49652694398,3425.03444528999,"ssf","mf.is","exp","vonmises",5,"ssfOUT_15_2_1_KINGCOBRA","KINGCOBRA",1,0.5,15,"no effect"
"ssfOUT_15_2_1_KINGCOBRA.12",16.5351026736405,-3404.04844166925,3437.11864701653,"ssf","mf.is","exp","vonmises",15,"ssfOUT_15_2_1_KINGCOBRA","KINGCOBRA",1,0.5,15,"no effect"
"ssfOUT_15_2_1_KINGCOBRA.13",15.1697388385466,-2584.98676761862,2615.32624529572,"ssf","mf.is","exp","vonmises",50,"ssfOUT_15_2_1_KINGCOBRA","KINGCOBRA",1,0.5,15,"no effect"
"ssfOUT_15_2_1_KINGCOBRA.14",15.0426663633835,-2441.87992218264,2471.96525490941,"ssf","mf.is","exp","vonmises",158,"ssfOUT_15_2_1_KINGCOBRA","KINGCOBRA",1,0.5,15,"no effect"
"ssfOUT_15_2_1_KINGCOBRA.15",14.7773571428293,-1743.01504078051,1772.56975506617,"ssf","mf.is","exp","vonmises",500,"ssfOUT_15_2_1_KINGCOBRA","KINGCOBRA",1,0.5,15,"no effect"
"ssfOUT_15_2_1_KINGCOBRA.16",14.0139583250978,-3395.34732019217,3423.37523684237,"ssf","mf.is","exp","unif",5,"ssfOUT_15_2_1_KINGCOBRA","KINGCOBRA",1,0.5,15,"no effect"
"ssfOUT_15_2_1_KINGCOBRA.17",14.8923816014703,-3437.99296395043,3467.77772715337,"ssf","mf.is","exp","unif",15,"ssfOUT_15_2_1_KINGCOBRA","KINGCOBRA",1,0.5,15,"no effect"
"ssfOUT_15_2_1_KINGCOBRA.18",15.1546583025865,-2445.14268022276,2475.45199682794,"ssf","mf.is","exp","unif",50,"ssfOUT_15_2_1_KINGCOBRA","KINGCOBRA",1,0.5,15,"no effect"
"ssfOUT_15_2_1_KINGCOBRA.19",14.2060535903709,-2033.77322683053,2062.18533401127,"ssf","mf.is","exp","unif",158,"ssfOUT_15_2_1_KINGCOBRA","KINGCOBRA",1,0.5,15,"no effect"
"ssfOUT_15_2_1_KINGCOBRA.20",14.5188299484757,-2095.17498640488,2124.21264630183,"ssf","mf.is","exp","unif",500,"ssfOUT_15_2_1_KINGCOBRA","KINGCOBRA",1,0.5,15,"no effect"
"ssfOUT_15_2_1_KINGCOBRA.21",16.2059965184311,-3633.96751544001,3666.37950847687,"ssf","mf.ss","gamma","vonmises",5,"ssfOUT_15_2_1_KINGCOBRA","KINGCOBRA",1,0.5,15,"no effect"
"ssfOUT_15_2_1_KINGCOBRA.22",15.8289769025878,-1919.07860454129,1950.73655834647,"ssf","mf.ss","gamma","vonmises",15,"ssfOUT_15_2_1_KINGCOBRA","KINGCOBRA",1,0.5,15,"no effect"
"ssfOUT_15_2_1_KINGCOBRA.23",16.2164155590744,-1839.97358387011,1872.40641498826,"ssf","mf.ss","gamma","vonmises",50,"ssfOUT_15_2_1_KINGCOBRA","KINGCOBRA",1,0.5,15,"no effect"
"ssfOUT_15_2_1_KINGCOBRA.24",16.4634950903478,-1972.02664885588,2004.95363903657,"ssf","mf.ss","gamma","vonmises",158,"ssfOUT_15_2_1_KINGCOBRA","KINGCOBRA",1,0.5,15,"no effect"
"ssfOUT_15_2_1_KINGCOBRA.25",16.3925552969303,-1962.74106797868,1995.52617857254,"ssf","mf.ss","gamma","vonmises",500,"ssfOUT_15_2_1_KINGCOBRA","KINGCOBRA",1,0.5,15,"no effect"
"ssfOUT_15_2_1_KINGCOBRA.26",16.425462652544,-3345.07321690968,3377.92414221477,"ssf","mf.ss","gamma","unif",5,"ssfOUT_15_2_1_KINGCOBRA","KINGCOBRA",1,0.5,15,"no effect"
"ssfOUT_15_2_1_KINGCOBRA.27",16.4936391363538,-2343.30438178738,2376.29166006009,"ssf","mf.ss","gamma","unif",15,"ssfOUT_15_2_1_KINGCOBRA","KINGCOBRA",1,0.5,15,"no effect"
"ssfOUT_15_2_1_KINGCOBRA.28",16.2460103544782,-2185.34630472587,2217.83832543483,"ssf","mf.ss","gamma","unif",50,"ssfOUT_15_2_1_KINGCOBRA","KINGCOBRA",1,0.5,15,"no effect"
"ssfOUT_15_2_1_KINGCOBRA.29",16.4541182567112,-2016.03221206029,2048.94044857372,"ssf","mf.ss","gamma","unif",158,"ssfOUT_15_2_1_KINGCOBRA","KINGCOBRA",1,0.5,15,"no effect"
"ssfOUT_15_2_1_KINGCOBRA.30",16.4643465824544,-1961.51206759763,1994.44076076254,"ssf","mf.ss","gamma","unif",500,"ssfOUT_15_2_1_KINGCOBRA","KINGCOBRA",1,0.5,15,"no effect"
"ssfOUT_15_2_1_KINGCOBRA.31",16.9081758098588,-3594.11050749899,3627.92685911871,"ssf","mf.ss","exp","vonmises",5,"ssfOUT_15_2_1_KINGCOBRA","KINGCOBRA",1,0.5,15,"no effect"
"ssfOUT_15_2_1_KINGCOBRA.32",16.4535660105054,-2257.99913218886,2290.90626420987,"ssf","mf.ss","exp","vonmises",15,"ssfOUT_15_2_1_KINGCOBRA","KINGCOBRA",1,0.5,15,"no effect"
"ssfOUT_15_2_1_KINGCOBRA.33",16.5681076100549,-2209.69355345254,2242.82976867265,"ssf","mf.ss","exp","vonmises",50,"ssfOUT_15_2_1_KINGCOBRA","KINGCOBRA",1,0.5,15,"no effect"
"ssfOUT_15_2_1_KINGCOBRA.34",16.4182370407199,-2132.4661374786,2165.30261156004,"ssf","mf.ss","exp","vonmises",158,"ssfOUT_15_2_1_KINGCOBRA","KINGCOBRA",1,0.5,15,"no effect"
"ssfOUT_15_2_1_KINGCOBRA.35",16.2901104517106,-2028.74678915673,2061.32701006015,"ssf","mf.ss","exp","vonmises",500,"ssfOUT_15_2_1_KINGCOBRA","KINGCOBRA",1,0.5,15,"no effect"
"ssfOUT_15_2_1_KINGCOBRA.36",17.2884594704564,-2407.77300602743,2442.34992496835,"ssf","mf.ss","exp","unif",5,"ssfOUT_15_2_1_KINGCOBRA","KINGCOBRA",1,0.5,15,"no effect"
"ssfOUT_15_2_1_KINGCOBRA.37",17.687367289577,-2893.38789935116,2928.76263393031,"ssf","mf.ss","exp","unif",15,"ssfOUT_15_2_1_KINGCOBRA","KINGCOBRA",1,0.5,15,"no effect"
"ssfOUT_15_2_1_KINGCOBRA.38",16.2839800177535,-2043.7585446625,2076.32650469801,"ssf","mf.ss","exp","unif",50,"ssfOUT_15_2_1_KINGCOBRA","KINGCOBRA",1,0.5,15,"no effect"
"ssfOUT_15_2_1_KINGCOBRA.39",16.2087958846392,-2177.85622703228,2210.27381880156,"ssf","mf.ss","exp","unif",158,"ssfOUT_15_2_1_KINGCOBRA","KINGCOBRA",1,0.5,15,"no effect"
"ssfOUT_15_2_1_KINGCOBRA.40",15.2115518871214,-1309.24497061225,1339.66807438649,"ssf","mf.ss","exp","unif",500,"ssfOUT_15_2_1_KINGCOBRA","KINGCOBRA",1,0.5,15,"no effect"
"ssfOUT_15_2_2_BADGER.1",1.79178067568282,0.721340752854736,2.86222059851089,"ssf","mf.is","gamma","vonmises",5,"ssfOUT_15_2_2_BADGER","BADGER",2,0.5,15,"preference"
"ssfOUT_15_2_2_BADGER.2",1.42001899363244,0.356429959418708,2.48360802784617,"ssf","mf.is","gamma","vonmises",15,"ssfOUT_15_2_2_BADGER","BADGER",2,0.5,15,"preference"
"ssfOUT_15_2_2_BADGER.3",1.56929658723015,0.496334826601211,2.6422583478591,"ssf","mf.is","gamma","vonmises",50,"ssfOUT_15_2_2_BADGER","BADGER",2,0.5,15,"preference"
"ssfOUT_15_2_2_BADGER.4",1.6271254634678,0.569084167311293,2.68516675962432,"ssf","mf.is","gamma","vonmises",158,"ssfOUT_15_2_2_BADGER","BADGER",2,0.5,15,"preference"
"ssfOUT_15_2_2_BADGER.5",1.68954352161591,0.632032861889234,2.74705418134259,"ssf","mf.is","gamma","vonmises",500,"ssfOUT_15_2_2_BADGER","BADGER",2,0.5,15,"preference"
"ssfOUT_15_2_2_BADGER.6",2.27065897684692,1.20398668086502,3.33733127282881,"ssf","mf.is","gamma","unif",5,"ssfOUT_15_2_2_BADGER","BADGER",2,0.5,15,"preference"
"ssfOUT_15_2_2_BADGER.7",1.56898631358038,0.505095560116526,2.63287706704424,"ssf","mf.is","gamma","unif",15,"ssfOUT_15_2_2_BADGER","BADGER",2,0.5,15,"preference"
"ssfOUT_15_2_2_BADGER.8",1.76813706514803,0.713509499201761,2.82276463109431,"ssf","mf.is","gamma","unif",50,"ssfOUT_15_2_2_BADGER","BADGER",2,0.5,15,"preference"
"ssfOUT_15_2_2_BADGER.9",1.67592576240379,0.62292238645972,2.72892913834786,"ssf","mf.is","gamma","unif",158,"ssfOUT_15_2_2_BADGER","BADGER",2,0.5,15,"preference"
"ssfOUT_15_2_2_BADGER.10",1.6285096067379,0.569554582307565,2.68746463116824,"ssf","mf.is","gamma","unif",500,"ssfOUT_15_2_2_BADGER","BADGER",2,0.5,15,"preference"
"ssfOUT_15_2_2_BADGER.11",1.91497045383891,0.853454043497096,2.97648686418073,"ssf","mf.is","exp","vonmises",5,"ssfOUT_15_2_2_BADGER","BADGER",2,0.5,15,"preference"
"ssfOUT_15_2_2_BADGER.12",1.52958566623362,0.465122018778531,2.59404931368871,"ssf","mf.is","exp","vonmises",15,"ssfOUT_15_2_2_BADGER","BADGER",2,0.5,15,"preference"
"ssfOUT_15_2_2_BADGER.13",1.45268396099717,0.398373141788575,2.50699478020577,"ssf","mf.is","exp","vonmises",50,"ssfOUT_15_2_2_BADGER","BADGER",2,0.5,15,"preference"
"ssfOUT_15_2_2_BADGER.14",1.59660580907568,0.532630091881782,2.66058152626959,"ssf","mf.is","exp","vonmises",158,"ssfOUT_15_2_2_BADGER","BADGER",2,0.5,15,"preference"
"ssfOUT_15_2_2_BADGER.15",1.6272197121573,0.564946246108287,2.6894931782063,"ssf","mf.is","exp","vonmises",500,"ssfOUT_15_2_2_BADGER","BADGER",2,0.5,15,"preference"
"ssfOUT_15_2_2_BADGER.16",1.7222311182516,0.652544307674504,2.79191792882869,"ssf","mf.is","exp","unif",5,"ssfOUT_15_2_2_BADGER","BADGER",2,0.5,15,"preference"
"ssfOUT_15_2_2_BADGER.17",1.58572373412584,0.513075570520009,2.65837189773167,"ssf","mf.is","exp","unif",15,"ssfOUT_15_2_2_BADGER","BADGER",2,0.5,15,"preference"
"ssfOUT_15_2_2_BADGER.18",1.35843051217941,0.310343235379244,2.40651778897959,"ssf","mf.is","exp","unif",50,"ssfOUT_15_2_2_BADGER","BADGER",2,0.5,15,"preference"
"ssfOUT_15_2_2_BADGER.19",1.59438489286724,0.531441904835696,2.65732788089879,"ssf","mf.is","exp","unif",158,"ssfOUT_15_2_2_BADGER","BADGER",2,0.5,15,"preference"
"ssfOUT_15_2_2_BADGER.20",1.62863128816757,0.56666786733731,2.69059470899783,"ssf","mf.is","exp","unif",500,"ssfOUT_15_2_2_BADGER","BADGER",2,0.5,15,"preference"
"ssfOUT_15_2_2_BADGER.21",1.74406206198658,0.671443329103932,2.81668079486924,"ssf","mf.ss","gamma","vonmises",5,"ssfOUT_15_2_2_BADGER","BADGER",2,0.5,15,"preference"
"ssfOUT_15_2_2_BADGER.22",1.37045570699236,0.286865957839425,2.4540454561453,"ssf","mf.ss","gamma","vonmises",15,"ssfOUT_15_2_2_BADGER","BADGER",2,0.5,15,"preference"
"ssfOUT_15_2_2_BADGER.23",1.51104885989231,0.432582108219294,2.58951561156533,"ssf","mf.ss","gamma","vonmises",50,"ssfOUT_15_2_2_BADGER","BADGER",2,0.5,15,"preference"
"ssfOUT_15_2_2_BADGER.24",1.61128140661307,0.549678389526936,2.6728844236992,"ssf","mf.ss","gamma","vonmises",158,"ssfOUT_15_2_2_BADGER","BADGER",2,0.5,15,"preference"
"ssfOUT_15_2_2_BADGER.25",1.68246270412339,0.62084199232736,2.74408341591942,"ssf","mf.ss","gamma","vonmises",500,"ssfOUT_15_2_2_BADGER","BADGER",2,0.5,15,"preference"
"ssfOUT_15_2_2_BADGER.26",2.30250780751231,1.22027662740274,3.38473898762188,"ssf","mf.ss","gamma","unif",5,"ssfOUT_15_2_2_BADGER","BADGER",2,0.5,15,"preference"
"ssfOUT_15_2_2_BADGER.27",1.5967345668945,0.533133452099601,2.66033568168939,"ssf","mf.ss","gamma","unif",15,"ssfOUT_15_2_2_BADGER","BADGER",2,0.5,15,"preference"
"ssfOUT_15_2_2_BADGER.28",1.75945394124776,0.700504728671324,2.8184031538242,"ssf","mf.ss","gamma","unif",50,"ssfOUT_15_2_2_BADGER","BADGER",2,0.5,15,"preference"
"ssfOUT_15_2_2_BADGER.29",1.67026820757188,0.611801135867682,2.72873527927609,"ssf","mf.ss","gamma","unif",158,"ssfOUT_15_2_2_BADGER","BADGER",2,0.5,15,"preference"
"ssfOUT_15_2_2_BADGER.30",1.62022037462211,0.557115248752602,2.68332550049162,"ssf","mf.ss","gamma","unif",500,"ssfOUT_15_2_2_BADGER","BADGER",2,0.5,15,"preference"
"ssfOUT_15_2_2_BADGER.31",1.83932755595896,0.776706685395788,2.90194842652213,"ssf","mf.ss","exp","vonmises",5,"ssfOUT_15_2_2_BADGER","BADGER",2,0.5,15,"preference"
"ssfOUT_15_2_2_BADGER.32",1.76443471074189,0.699392618655633,2.82947680282815,"ssf","mf.ss","exp","vonmises",15,"ssfOUT_15_2_2_BADGER","BADGER",2,0.5,15,"preference"
"ssfOUT_15_2_2_BADGER.33",1.52463818876456,0.470637236534983,2.57863914099414,"ssf","mf.ss","exp","vonmises",50,"ssfOUT_15_2_2_BADGER","BADGER",2,0.5,15,"preference"
"ssfOUT_15_2_2_BADGER.34",1.66206661189402,0.596675861529203,2.72745736225884,"ssf","mf.ss","exp","vonmises",158,"ssfOUT_15_2_2_BADGER","BADGER",2,0.5,15,"preference"
"ssfOUT_15_2_2_BADGER.35",1.71461652959448,0.654978749788296,2.77425430940066,"ssf","mf.ss","exp","vonmises",500,"ssfOUT_15_2_2_BADGER","BADGER",2,0.5,15,"preference"
"ssfOUT_15_2_2_BADGER.36",1.66988378867298,0.619496916987265,2.72027066035869,"ssf","mf.ss","exp","unif",5,"ssfOUT_15_2_2_BADGER","BADGER",2,0.5,15,"preference"
"ssfOUT_15_2_2_BADGER.37",1.81737709893883,0.748203951860199,2.88655024601746,"ssf","mf.ss","exp","unif",15,"ssfOUT_15_2_2_BADGER","BADGER",2,0.5,15,"preference"
"ssfOUT_15_2_2_BADGER.38",1.4827621281723,0.433960226897494,2.53156402944712,"ssf","mf.ss","exp","unif",50,"ssfOUT_15_2_2_BADGER","BADGER",2,0.5,15,"preference"
"ssfOUT_15_2_2_BADGER.39",1.68426532236482,0.628811042337772,2.73971960239188,"ssf","mf.ss","exp","unif",158,"ssfOUT_15_2_2_BADGER","BADGER",2,0.5,15,"preference"
"ssfOUT_15_2_2_BADGER.40",1.69562363968931,0.633680028900855,2.75756725047777,"ssf","mf.ss","exp","unif",500,"ssfOUT_15_2_2_BADGER","BADGER",2,0.5,15,"preference"
"ssfOUT_15_2_2_VULTURE.1",-0.0804255244943735,-0.743658069559393,0.582807020570646,"ssf","mf.is","gamma","vonmises",5,"ssfOUT_15_2_2_VULTURE","VULTURE",2,0.5,15,"no effect"
"ssfOUT_15_2_2_VULTURE.2",0.171656462491092,-0.435795153242643,0.779108078224828,"ssf","mf.is","gamma","vonmises",15,"ssfOUT_15_2_2_VULTURE","VULTURE",2,0.5,15,"no effect"
"ssfOUT_15_2_2_VULTURE.3",0.254183833961175,-0.34577627147145,0.8541439393938,"ssf","mf.is","gamma","vonmises",50,"ssfOUT_15_2_2_VULTURE","VULTURE",2,0.5,15,"no effect"
"ssfOUT_15_2_2_VULTURE.4",0.0678727891892565,-0.528573718922212,0.664319297300725,"ssf","mf.is","gamma","vonmises",158,"ssfOUT_15_2_2_VULTURE","VULTURE",2,0.5,15,"no effect"
"ssfOUT_15_2_2_VULTURE.5",0.1057024825852,-0.489088381763265,0.700493346933665,"ssf","mf.is","gamma","vonmises",500,"ssfOUT_15_2_2_VULTURE","VULTURE",2,0.5,15,"no effect"
"ssfOUT_15_2_2_VULTURE.6",0.197307601328638,-0.447283495172502,0.841898697829779,"ssf","mf.is","gamma","unif",5,"ssfOUT_15_2_2_VULTURE","VULTURE",2,0.5,15,"no effect"
"ssfOUT_15_2_2_VULTURE.7",0.19706449352447,-0.410426218738311,0.804555205787251,"ssf","mf.is","gamma","unif",15,"ssfOUT_15_2_2_VULTURE","VULTURE",2,0.5,15,"no effect"
"ssfOUT_15_2_2_VULTURE.8",0.0331246148927093,-0.566628945430077,0.632878175215496,"ssf","mf.is","gamma","unif",50,"ssfOUT_15_2_2_VULTURE","VULTURE",2,0.5,15,"no effect"
"ssfOUT_15_2_2_VULTURE.9",0.197995807849735,-0.39959412890526,0.79558574460473,"ssf","mf.is","gamma","unif",158,"ssfOUT_15_2_2_VULTURE","VULTURE",2,0.5,15,"no effect"
"ssfOUT_15_2_2_VULTURE.10",0.14072357140679,-0.453220597009555,0.734667739823134,"ssf","mf.is","gamma","unif",500,"ssfOUT_15_2_2_VULTURE","VULTURE",2,0.5,15,"no effect"
"ssfOUT_15_2_2_VULTURE.11",0.253441076707846,-0.418334545879368,0.92521669929506,"ssf","mf.is","exp","vonmises",5,"ssfOUT_15_2_2_VULTURE","VULTURE",2,0.5,15,"no effect"
"ssfOUT_15_2_2_VULTURE.12",0.151953354495795,-0.467935991972423,0.771842700964014,"ssf","mf.is","exp","vonmises",15,"ssfOUT_15_2_2_VULTURE","VULTURE",2,0.5,15,"no effect"
"ssfOUT_15_2_2_VULTURE.13",0.0615256564729732,-0.539543252260031,0.662594565205977,"ssf","mf.is","exp","vonmises",50,"ssfOUT_15_2_2_VULTURE","VULTURE",2,0.5,15,"no effect"
"ssfOUT_15_2_2_VULTURE.14",0.00450177470167019,-0.590902958725067,0.599906508128408,"ssf","mf.is","exp","vonmises",158,"ssfOUT_15_2_2_VULTURE","VULTURE",2,0.5,15,"no effect"
"ssfOUT_15_2_2_VULTURE.15",0.155863846227067,-0.439783830825398,0.751511523279533,"ssf","mf.is","exp","vonmises",500,"ssfOUT_15_2_2_VULTURE","VULTURE",2,0.5,15,"no effect"
"ssfOUT_15_2_2_VULTURE.16",0.179938512522955,-0.487919446352706,0.847796471398615,"ssf","mf.is","exp","unif",5,"ssfOUT_15_2_2_VULTURE","VULTURE",2,0.5,15,"no effect"
"ssfOUT_15_2_2_VULTURE.17",-0.229612964081228,-0.847823355712046,0.38859742754959,"ssf","mf.is","exp","unif",15,"ssfOUT_15_2_2_VULTURE","VULTURE",2,0.5,15,"no effect"
"ssfOUT_15_2_2_VULTURE.18",0.0459265711602902,-0.555137731138407,0.646990873458988,"ssf","mf.is","exp","unif",50,"ssfOUT_15_2_2_VULTURE","VULTURE",2,0.5,15,"no effect"
"ssfOUT_15_2_2_VULTURE.19",0.0694848700884926,-0.527821634513639,0.666791374690624,"ssf","mf.is","exp","unif",158,"ssfOUT_15_2_2_VULTURE","VULTURE",2,0.5,15,"no effect"
"ssfOUT_15_2_2_VULTURE.20",0.152292691779446,-0.441627839816171,0.746213223375062,"ssf","mf.is","exp","unif",500,"ssfOUT_15_2_2_VULTURE","VULTURE",2,0.5,15,"no effect"
"ssfOUT_15_2_2_VULTURE.21",-0.0983206480785106,-0.76271596354892,0.566074667391898,"ssf","mf.ss","gamma","vonmises",5,"ssfOUT_15_2_2_VULTURE","VULTURE",2,0.5,15,"no effect"
"ssfOUT_15_2_2_VULTURE.22",0.149282448225787,-0.458029126224051,0.756594022675626,"ssf","mf.ss","gamma","vonmises",15,"ssfOUT_15_2_2_VULTURE","VULTURE",2,0.5,15,"no effect"
"ssfOUT_15_2_2_VULTURE.23",0.247331582679252,-0.352446001006975,0.84710916636548,"ssf","mf.ss","gamma","vonmises",50,"ssfOUT_15_2_2_VULTURE","VULTURE",2,0.5,15,"no effect"
"ssfOUT_15_2_2_VULTURE.24",0.0589307715045823,-0.53730608250406,0.655167625513224,"ssf","mf.ss","gamma","vonmises",158,"ssfOUT_15_2_2_VULTURE","VULTURE",2,0.5,15,"no effect"
"ssfOUT_15_2_2_VULTURE.25",0.0981972762109227,-0.496337977291139,0.692732529712985,"ssf","mf.ss","gamma","vonmises",500,"ssfOUT_15_2_2_VULTURE","VULTURE",2,0.5,15,"no effect"
"ssfOUT_15_2_2_VULTURE.26",0.186763250014622,-0.456558910442101,0.830085410471346,"ssf","mf.ss","gamma","unif",5,"ssfOUT_15_2_2_VULTURE","VULTURE",2,0.5,15,"no effect"
"ssfOUT_15_2_2_VULTURE.27",0.179557900624293,-0.427426935058187,0.786542736306773,"ssf","mf.ss","gamma","unif",15,"ssfOUT_15_2_2_VULTURE","VULTURE",2,0.5,15,"no effect"
"ssfOUT_15_2_2_VULTURE.28",0.0276878405692677,-0.571879618324953,0.627255299463489,"ssf","mf.ss","gamma","unif",50,"ssfOUT_15_2_2_VULTURE","VULTURE",2,0.5,15,"no effect"
"ssfOUT_15_2_2_VULTURE.29",0.190046490602485,-0.407373373819592,0.787466355024563,"ssf","mf.ss","gamma","unif",158,"ssfOUT_15_2_2_VULTURE","VULTURE",2,0.5,15,"no effect"
"ssfOUT_15_2_2_VULTURE.30",0.133360966181862,-0.460310984729707,0.727032917093432,"ssf","mf.ss","gamma","unif",500,"ssfOUT_15_2_2_VULTURE","VULTURE",2,0.5,15,"no effect"
"ssfOUT_15_2_2_VULTURE.31",0.172220501751358,-0.485589289629507,0.830030293132224,"ssf","mf.ss","exp","vonmises",5,"ssfOUT_15_2_2_VULTURE","VULTURE",2,0.5,15,"no effect"
"ssfOUT_15_2_2_VULTURE.32",0.0469684774786523,-0.567419287443949,0.661356242401254,"ssf","mf.ss","exp","vonmises",15,"ssfOUT_15_2_2_VULTURE","VULTURE",2,0.5,15,"no effect"
"ssfOUT_15_2_2_VULTURE.33",0.040077054960036,-0.568012853915621,0.648166963835693,"ssf","mf.ss","exp","vonmises",50,"ssfOUT_15_2_2_VULTURE","VULTURE",2,0.5,15,"no effect"
"ssfOUT_15_2_2_VULTURE.34",0.0419467983160198,-0.557791002110845,0.641684598742885,"ssf","mf.ss","exp","vonmises",158,"ssfOUT_15_2_2_VULTURE","VULTURE",2,0.5,15,"no effect"
"ssfOUT_15_2_2_VULTURE.35",0.166778659177223,-0.433459828014021,0.767017146368467,"ssf","mf.ss","exp","vonmises",500,"ssfOUT_15_2_2_VULTURE","VULTURE",2,0.5,15,"no effect"
"ssfOUT_15_2_2_VULTURE.36",0.0561747304792555,-0.606370547681958,0.718720008640468,"ssf","mf.ss","exp","unif",5,"ssfOUT_15_2_2_VULTURE","VULTURE",2,0.5,15,"no effect"
"ssfOUT_15_2_2_VULTURE.37",-0.0721385603720278,-0.690856408123269,0.546579287379213,"ssf","mf.ss","exp","unif",15,"ssfOUT_15_2_2_VULTURE","VULTURE",2,0.5,15,"no effect"
"ssfOUT_15_2_2_VULTURE.38",0.0460080702420091,-0.558075460730865,0.650091601214883,"ssf","mf.ss","exp","unif",50,"ssfOUT_15_2_2_VULTURE","VULTURE",2,0.5,15,"no effect"
"ssfOUT_15_2_2_VULTURE.39",0.111186349430189,-0.492042150787152,0.714414849647529,"ssf","mf.ss","exp","unif",158,"ssfOUT_15_2_2_VULTURE","VULTURE",2,0.5,15,"no effect"
"ssfOUT_15_2_2_VULTURE.40",0.163954493039809,-0.433588670393684,0.761497656473301,"ssf","mf.ss","exp","unif",500,"ssfOUT_15_2_2_VULTURE","VULTURE",2,0.5,15,"no effect"
"ssfOUT_15_2_2_KINGCOBRA.1",0.657213983269371,-0.446092794555497,1.76052076109424,"ssf","mf.is","gamma","vonmises",5,"ssfOUT_15_2_2_KINGCOBRA","KINGCOBRA",2,0.5,15,"no effect"
"ssfOUT_15_2_2_KINGCOBRA.2",0.640587088202112,-0.436118441782676,1.7172926181869,"ssf","mf.is","gamma","vonmises",15,"ssfOUT_15_2_2_KINGCOBRA","KINGCOBRA",2,0.5,15,"no effect"
"ssfOUT_15_2_2_KINGCOBRA.3",0.74522453751589,-0.390638652427889,1.88108772745967,"ssf","mf.is","gamma","vonmises",50,"ssfOUT_15_2_2_KINGCOBRA","KINGCOBRA",2,0.5,15,"no effect"
"ssfOUT_15_2_2_KINGCOBRA.4",0.587323017990835,-0.529465721201267,1.70411175718294,"ssf","mf.is","gamma","vonmises",158,"ssfOUT_15_2_2_KINGCOBRA","KINGCOBRA",2,0.5,15,"no effect"
"ssfOUT_15_2_2_KINGCOBRA.5",0.671681348833734,-0.412445405107796,1.75580810277526,"ssf","mf.is","gamma","vonmises",500,"ssfOUT_15_2_2_KINGCOBRA","KINGCOBRA",2,0.5,15,"no effect"
"ssfOUT_15_2_2_KINGCOBRA.6",0.578325734855529,-0.713899759977793,1.87055122968885,"ssf","mf.is","gamma","unif",5,"ssfOUT_15_2_2_KINGCOBRA","KINGCOBRA",2,0.5,15,"no effect"
"ssfOUT_15_2_2_KINGCOBRA.7",0.474825491683322,-0.614157873333411,1.56380885670006,"ssf","mf.is","gamma","unif",15,"ssfOUT_15_2_2_KINGCOBRA","KINGCOBRA",2,0.5,15,"no effect"
"ssfOUT_15_2_2_KINGCOBRA.8",0.950575082387261,-0.206595266304746,2.10774543107927,"ssf","mf.is","gamma","unif",50,"ssfOUT_15_2_2_KINGCOBRA","KINGCOBRA",2,0.5,15,"no effect"
"ssfOUT_15_2_2_KINGCOBRA.9",0.600403203612963,-0.517356520540931,1.71816292776686,"ssf","mf.is","gamma","unif",158,"ssfOUT_15_2_2_KINGCOBRA","KINGCOBRA",2,0.5,15,"no effect"
"ssfOUT_15_2_2_KINGCOBRA.10",0.663405319566152,-0.44355085147009,1.77036149060239,"ssf","mf.is","gamma","unif",500,"ssfOUT_15_2_2_KINGCOBRA","KINGCOBRA",2,0.5,15,"no effect"
"ssfOUT_15_2_2_KINGCOBRA.11",0.678886629851172,-0.428726746284642,1.78650000598699,"ssf","mf.is","exp","vonmises",5,"ssfOUT_15_2_2_KINGCOBRA","KINGCOBRA",2,0.5,15,"no effect"
"ssfOUT_15_2_2_KINGCOBRA.12",0.862527731289902,-0.27011738695829,1.99517284953809,"ssf","mf.is","exp","vonmises",15,"ssfOUT_15_2_2_KINGCOBRA","KINGCOBRA",2,0.5,15,"no effect"
"ssfOUT_15_2_2_KINGCOBRA.13",0.0948053378858931,-0.988978259525849,1.17858893529763,"ssf","mf.is","exp","vonmises",50,"ssfOUT_15_2_2_KINGCOBRA","KINGCOBRA",2,0.5,15,"no effect"
"ssfOUT_15_2_2_KINGCOBRA.14",0.114734098413004,-0.972742851822655,1.20221104864866,"ssf","mf.is","exp","vonmises",158,"ssfOUT_15_2_2_KINGCOBRA","KINGCOBRA",2,0.5,15,"no effect"
"ssfOUT_15_2_2_KINGCOBRA.15",1.13981678908839,-0.212170580657228,2.491804158834,"ssf","mf.is","exp","vonmises",500,"ssfOUT_15_2_2_KINGCOBRA","KINGCOBRA",2,0.5,15,"no effect"
"ssfOUT_15_2_2_KINGCOBRA.16",0.195693774915413,-1.00537381945098,1.3967613692818,"ssf","mf.is","exp","unif",5,"ssfOUT_15_2_2_KINGCOBRA","KINGCOBRA",2,0.5,15,"no effect"
"ssfOUT_15_2_2_KINGCOBRA.17",1.17026364921332,-0.0168597702998587,2.3573870687265,"ssf","mf.is","exp","unif",15,"ssfOUT_15_2_2_KINGCOBRA","KINGCOBRA",2,0.5,15,"no effect"
"ssfOUT_15_2_2_KINGCOBRA.18",0.888181226421873,-0.290218996334649,2.06658144917839,"ssf","mf.is","exp","unif",50,"ssfOUT_15_2_2_KINGCOBRA","KINGCOBRA",2,0.5,15,"no effect"
"ssfOUT_15_2_2_KINGCOBRA.19",0.513962937207642,-0.635598535212246,1.66352440962753,"ssf","mf.is","exp","unif",158,"ssfOUT_15_2_2_KINGCOBRA","KINGCOBRA",2,0.5,15,"no effect"
"ssfOUT_15_2_2_KINGCOBRA.20",1.62017213655356,0.252540280612892,2.98780399249423,"ssf","mf.is","exp","unif",500,"ssfOUT_15_2_2_KINGCOBRA","KINGCOBRA",2,0.5,15,"preference"
"ssfOUT_15_2_2_KINGCOBRA.21",0.491767695746705,-0.594780157158122,1.57831554865153,"ssf","mf.ss","gamma","vonmises",5,"ssfOUT_15_2_2_KINGCOBRA","KINGCOBRA",2,0.5,15,"no effect"
"ssfOUT_15_2_2_KINGCOBRA.22",0.638832023451361,-0.41066390712776,1.68832795403048,"ssf","mf.ss","gamma","vonmises",15,"ssfOUT_15_2_2_KINGCOBRA","KINGCOBRA",2,0.5,15,"no effect"
"ssfOUT_15_2_2_KINGCOBRA.23",0.817609485263904,-0.274195175212758,1.90941414574057,"ssf","mf.ss","gamma","vonmises",50,"ssfOUT_15_2_2_KINGCOBRA","KINGCOBRA",2,0.5,15,"no effect"
"ssfOUT_15_2_2_KINGCOBRA.24",0.592030866218493,-0.513669731415448,1.69773146385243,"ssf","mf.ss","gamma","vonmises",158,"ssfOUT_15_2_2_KINGCOBRA","KINGCOBRA",2,0.5,15,"no effect"
"ssfOUT_15_2_2_KINGCOBRA.25",0.671893375312699,-0.400969861592353,1.74475661221775,"ssf","mf.ss","gamma","vonmises",500,"ssfOUT_15_2_2_KINGCOBRA","KINGCOBRA",2,0.5,15,"no effect"
"ssfOUT_15_2_2_KINGCOBRA.26",0.417189759046543,-0.8609652583846,1.69534477647769,"ssf","mf.ss","gamma","unif",5,"ssfOUT_15_2_2_KINGCOBRA","KINGCOBRA",2,0.5,15,"no effect"
"ssfOUT_15_2_2_KINGCOBRA.27",0.453241530359913,-0.639409246039334,1.54589230675916,"ssf","mf.ss","gamma","unif",15,"ssfOUT_15_2_2_KINGCOBRA","KINGCOBRA",2,0.5,15,"no effect"
"ssfOUT_15_2_2_KINGCOBRA.28",0.893239130885728,-0.248413596472667,2.03489185824412,"ssf","mf.ss","gamma","unif",50,"ssfOUT_15_2_2_KINGCOBRA","KINGCOBRA",2,0.5,15,"no effect"
"ssfOUT_15_2_2_KINGCOBRA.29",0.617261436766642,-0.490848089985364,1.72537096351865,"ssf","mf.ss","gamma","unif",158,"ssfOUT_15_2_2_KINGCOBRA","KINGCOBRA",2,0.5,15,"no effect"
"ssfOUT_15_2_2_KINGCOBRA.30",0.668628620295546,-0.430267833195211,1.7675250737863,"ssf","mf.ss","gamma","unif",500,"ssfOUT_15_2_2_KINGCOBRA","KINGCOBRA",2,0.5,15,"no effect"
"ssfOUT_15_2_2_KINGCOBRA.31",0.995698718316853,-0.0573685784242274,2.04876601505793,"ssf","mf.ss","exp","vonmises",5,"ssfOUT_15_2_2_KINGCOBRA","KINGCOBRA",2,0.5,15,"no effect"
"ssfOUT_15_2_2_KINGCOBRA.32",0.657027635438761,-0.376314393351495,1.69036966422902,"ssf","mf.ss","exp","vonmises",15,"ssfOUT_15_2_2_KINGCOBRA","KINGCOBRA",2,0.5,15,"no effect"
"ssfOUT_15_2_2_KINGCOBRA.33",0.564347684896253,-0.46906971720178,1.59776508699429,"ssf","mf.ss","exp","vonmises",50,"ssfOUT_15_2_2_KINGCOBRA","KINGCOBRA",2,0.5,15,"no effect"
"ssfOUT_15_2_2_KINGCOBRA.34",0.663726266520479,-0.362104652493157,1.68955718553412,"ssf","mf.ss","exp","vonmises",158,"ssfOUT_15_2_2_KINGCOBRA","KINGCOBRA",2,0.5,15,"no effect"
"ssfOUT_15_2_2_KINGCOBRA.35",0.74633257052201,-0.275499795792534,1.76816493683655,"ssf","mf.ss","exp","vonmises",500,"ssfOUT_15_2_2_KINGCOBRA","KINGCOBRA",2,0.5,15,"no effect"
"ssfOUT_15_2_2_KINGCOBRA.36",0.187922498366047,-0.934756939742503,1.3106019364746,"ssf","mf.ss","exp","unif",5,"ssfOUT_15_2_2_KINGCOBRA","KINGCOBRA",2,0.5,15,"no effect"
"ssfOUT_15_2_2_KINGCOBRA.37",0.880356518114678,-0.147999465414698,1.90871250164405,"ssf","mf.ss","exp","unif",15,"ssfOUT_15_2_2_KINGCOBRA","KINGCOBRA",2,0.5,15,"no effect"
"ssfOUT_15_2_2_KINGCOBRA.38",0.860714509550599,-0.165653735639124,1.88708275474032,"ssf","mf.ss","exp","unif",50,"ssfOUT_15_2_2_KINGCOBRA","KINGCOBRA",2,0.5,15,"no effect"
"ssfOUT_15_2_2_KINGCOBRA.39",0.694940503413671,-0.333470878124631,1.72335188495197,"ssf","mf.ss","exp","unif",158,"ssfOUT_15_2_2_KINGCOBRA","KINGCOBRA",2,0.5,15,"no effect"
"ssfOUT_15_2_2_KINGCOBRA.40",0.67663337482163,-0.347662942038869,1.70092969168213,"ssf","mf.ss","exp","unif",500,"ssfOUT_15_2_2_KINGCOBRA","KINGCOBRA",2,0.5,15,"no effect"
"ssfOUT_15_2_3_BADGER.1",0.344139926622934,-0.271990589263443,0.960270442509311,"ssf","mf.is","gamma","vonmises",5,"ssfOUT_15_2_3_BADGER","BADGER",3,0.5,15,"no effect"
"ssfOUT_15_2_3_BADGER.2",0.234232840866385,-0.340394088981835,0.808859770714605,"ssf","mf.is","gamma","vonmises",15,"ssfOUT_15_2_3_BADGER","BADGER",3,0.5,15,"no effect"
"ssfOUT_15_2_3_BADGER.3",0.14471025654039,-0.403454367407839,0.69287488048862,"ssf","mf.is","gamma","vonmises",50,"ssfOUT_15_2_3_BADGER","BADGER",3,0.5,15,"no effect"
"ssfOUT_15_2_3_BADGER.4",0.0633864029499028,-0.482385501194553,0.609158307094358,"ssf","mf.is","gamma","vonmises",158,"ssfOUT_15_2_3_BADGER","BADGER",3,0.5,15,"no effect"
"ssfOUT_15_2_3_BADGER.5",0.0750968164729967,-0.471053254409921,0.621246887355914,"ssf","mf.is","gamma","vonmises",500,"ssfOUT_15_2_3_BADGER","BADGER",3,0.5,15,"no effect"
"ssfOUT_15_2_3_BADGER.6",0.383795092056965,-0.191715988291958,0.959306172405889,"ssf","mf.is","gamma","unif",5,"ssfOUT_15_2_3_BADGER","BADGER",3,0.5,15,"no effect"
"ssfOUT_15_2_3_BADGER.7",0.0206951989089881,-0.569930733724196,0.611321131542172,"ssf","mf.is","gamma","unif",15,"ssfOUT_15_2_3_BADGER","BADGER",3,0.5,15,"no effect"
"ssfOUT_15_2_3_BADGER.8",0.0355858179323326,-0.510591396398812,0.581763032263477,"ssf","mf.is","gamma","unif",50,"ssfOUT_15_2_3_BADGER","BADGER",3,0.5,15,"no effect"
"ssfOUT_15_2_3_BADGER.9",0.10440010613945,-0.444131809400058,0.652932021678958,"ssf","mf.is","gamma","unif",158,"ssfOUT_15_2_3_BADGER","BADGER",3,0.5,15,"no effect"
"ssfOUT_15_2_3_BADGER.10",0.10240112428092,-0.438909872688012,0.643712121249852,"ssf","mf.is","gamma","unif",500,"ssfOUT_15_2_3_BADGER","BADGER",3,0.5,15,"no effect"
"ssfOUT_15_2_3_BADGER.11",0.229938168935274,-0.347632070484367,0.807508408354914,"ssf","mf.is","exp","vonmises",5,"ssfOUT_15_2_3_BADGER","BADGER",3,0.5,15,"no effect"
"ssfOUT_15_2_3_BADGER.12",-0.00964067993430591,-0.589463055631571,0.570181695762959,"ssf","mf.is","exp","vonmises",15,"ssfOUT_15_2_3_BADGER","BADGER",3,0.5,15,"no effect"
"ssfOUT_15_2_3_BADGER.13",0.143411308130932,-0.412375122047305,0.699197738309169,"ssf","mf.is","exp","vonmises",50,"ssfOUT_15_2_3_BADGER","BADGER",3,0.5,15,"no effect"
"ssfOUT_15_2_3_BADGER.14",0.0831746872428249,-0.462208452169448,0.628557826655098,"ssf","mf.is","exp","vonmises",158,"ssfOUT_15_2_3_BADGER","BADGER",3,0.5,15,"no effect"
"ssfOUT_15_2_3_BADGER.15",0.053079597614925,-0.493544888655134,0.599704083884984,"ssf","mf.is","exp","vonmises",500,"ssfOUT_15_2_3_BADGER","BADGER",3,0.5,15,"no effect"
"ssfOUT_15_2_3_BADGER.16",-0.0767524629874698,-0.693485473425922,0.539980547450982,"ssf","mf.is","exp","unif",5,"ssfOUT_15_2_3_BADGER","BADGER",3,0.5,15,"no effect"
"ssfOUT_15_2_3_BADGER.17",-0.014479164998424,-0.607682907697427,0.578724577700579,"ssf","mf.is","exp","unif",15,"ssfOUT_15_2_3_BADGER","BADGER",3,0.5,15,"no effect"
"ssfOUT_15_2_3_BADGER.18",-0.0213254884372329,-0.576051750574632,0.533400773700166,"ssf","mf.is","exp","unif",50,"ssfOUT_15_2_3_BADGER","BADGER",3,0.5,15,"no effect"
"ssfOUT_15_2_3_BADGER.19",0.0142367324500261,-0.537813857315345,0.566287322215397,"ssf","mf.is","exp","unif",158,"ssfOUT_15_2_3_BADGER","BADGER",3,0.5,15,"no effect"
"ssfOUT_15_2_3_BADGER.20",0.06992969909181,-0.475685840792256,0.615545238975876,"ssf","mf.is","exp","unif",500,"ssfOUT_15_2_3_BADGER","BADGER",3,0.5,15,"no effect"
"ssfOUT_15_2_3_BADGER.21",0.349753384967439,-0.266412808911137,0.965919578846016,"ssf","mf.ss","gamma","vonmises",5,"ssfOUT_15_2_3_BADGER","BADGER",3,0.5,15,"no effect"
"ssfOUT_15_2_3_BADGER.22",0.233349875181066,-0.342463256333691,0.809163006695823,"ssf","mf.ss","gamma","vonmises",15,"ssfOUT_15_2_3_BADGER","BADGER",3,0.5,15,"no effect"
"ssfOUT_15_2_3_BADGER.23",0.140166679852549,-0.408829877307024,0.689163237012122,"ssf","mf.ss","gamma","vonmises",50,"ssfOUT_15_2_3_BADGER","BADGER",3,0.5,15,"no effect"
"ssfOUT_15_2_3_BADGER.24",0.0690841987167319,-0.476696915257399,0.614865312690863,"ssf","mf.ss","gamma","vonmises",158,"ssfOUT_15_2_3_BADGER","BADGER",3,0.5,15,"no effect"
"ssfOUT_15_2_3_BADGER.25",0.0794861813811553,-0.466741686566578,0.625714049328888,"ssf","mf.ss","gamma","vonmises",500,"ssfOUT_15_2_3_BADGER","BADGER",3,0.5,15,"no effect"
"ssfOUT_15_2_3_BADGER.26",0.372486503689532,-0.201316751537329,0.946289758916393,"ssf","mf.ss","gamma","unif",5,"ssfOUT_15_2_3_BADGER","BADGER",3,0.5,15,"no effect"
"ssfOUT_15_2_3_BADGER.27",0.0537264144072656,-0.534289905724898,0.641742734539429,"ssf","mf.ss","gamma","unif",15,"ssfOUT_15_2_3_BADGER","BADGER",3,0.5,15,"no effect"
"ssfOUT_15_2_3_BADGER.28",0.0437835965583588,-0.500248077443253,0.587815270559971,"ssf","mf.ss","gamma","unif",50,"ssfOUT_15_2_3_BADGER","BADGER",3,0.5,15,"no effect"
"ssfOUT_15_2_3_BADGER.29",0.112751466174218,-0.434838929987575,0.66034186233601,"ssf","mf.ss","gamma","unif",158,"ssfOUT_15_2_3_BADGER","BADGER",3,0.5,15,"no effect"
"ssfOUT_15_2_3_BADGER.30",0.115435041138742,-0.424914204318133,0.655784286595616,"ssf","mf.ss","gamma","unif",500,"ssfOUT_15_2_3_BADGER","BADGER",3,0.5,15,"no effect"
"ssfOUT_15_2_3_BADGER.31",0.240858793072951,-0.337909321223774,0.819626907369677,"ssf","mf.ss","exp","vonmises",5,"ssfOUT_15_2_3_BADGER","BADGER",3,0.5,15,"no effect"
"ssfOUT_15_2_3_BADGER.32",0.00536206810349534,-0.573798312179192,0.584522448386183,"ssf","mf.ss","exp","vonmises",15,"ssfOUT_15_2_3_BADGER","BADGER",3,0.5,15,"no effect"
"ssfOUT_15_2_3_BADGER.33",0.14960854088831,-0.407107634053068,0.706324715829687,"ssf","mf.ss","exp","vonmises",50,"ssfOUT_15_2_3_BADGER","BADGER",3,0.5,15,"no effect"
"ssfOUT_15_2_3_BADGER.34",0.0954700230430266,-0.449899067290218,0.640839113376271,"ssf","mf.ss","exp","vonmises",158,"ssfOUT_15_2_3_BADGER","BADGER",3,0.5,15,"no effect"
"ssfOUT_15_2_3_BADGER.35",0.0635840536481797,-0.483389722912853,0.610557830209213,"ssf","mf.ss","exp","vonmises",500,"ssfOUT_15_2_3_BADGER","BADGER",3,0.5,15,"no effect"
"ssfOUT_15_2_3_BADGER.36",-0.0369247601608865,-0.652419313078287,0.578569792756515,"ssf","mf.ss","exp","unif",5,"ssfOUT_15_2_3_BADGER","BADGER",3,0.5,15,"no effect"
"ssfOUT_15_2_3_BADGER.37",0.00766360383459354,-0.587506104038675,0.602833311707862,"ssf","mf.ss","exp","unif",15,"ssfOUT_15_2_3_BADGER","BADGER",3,0.5,15,"no effect"
"ssfOUT_15_2_3_BADGER.38",-0.0227174324618198,-0.57621048696713,0.530775622043491,"ssf","mf.ss","exp","unif",50,"ssfOUT_15_2_3_BADGER","BADGER",3,0.5,15,"no effect"
"ssfOUT_15_2_3_BADGER.39",0.0304357944658416,-0.521000171226624,0.581871760158307,"ssf","mf.ss","exp","unif",158,"ssfOUT_15_2_3_BADGER","BADGER",3,0.5,15,"no effect"
"ssfOUT_15_2_3_BADGER.40",0.0811538619694374,-0.464276075740416,0.626583799679291,"ssf","mf.ss","exp","unif",500,"ssfOUT_15_2_3_BADGER","BADGER",3,0.5,15,"no effect"
"ssfOUT_15_2_3_VULTURE.1",-0.732277613927227,-1.52885016929393,0.0642949414394752,"ssf","mf.is","gamma","vonmises",5,"ssfOUT_15_2_3_VULTURE","VULTURE",3,0.5,15,"no effect"
"ssfOUT_15_2_3_VULTURE.2",-0.187149505174401,-0.822405437942143,0.448106427593341,"ssf","mf.is","gamma","vonmises",15,"ssfOUT_15_2_3_VULTURE","VULTURE",3,0.5,15,"no effect"
"ssfOUT_15_2_3_VULTURE.3",-0.0997923446299603,-0.714125549279233,0.514540860019312,"ssf","mf.is","gamma","vonmises",50,"ssfOUT_15_2_3_VULTURE","VULTURE",3,0.5,15,"no effect"
"ssfOUT_15_2_3_VULTURE.4",-0.286149056268873,-0.904189896213921,0.331891783676176,"ssf","mf.is","gamma","vonmises",158,"ssfOUT_15_2_3_VULTURE","VULTURE",3,0.5,15,"no effect"
"ssfOUT_15_2_3_VULTURE.5",-0.259217102045402,-0.875258764141229,0.356824560050425,"ssf","mf.is","gamma","vonmises",500,"ssfOUT_15_2_3_VULTURE","VULTURE",3,0.5,15,"no effect"
"ssfOUT_15_2_3_VULTURE.6",-0.436645040969981,-1.11930951371125,0.246019431771291,"ssf","mf.is","gamma","unif",5,"ssfOUT_15_2_3_VULTURE","VULTURE",3,0.5,15,"no effect"
"ssfOUT_15_2_3_VULTURE.7",-0.361986653398045,-0.987937307626244,0.263964000830153,"ssf","mf.is","gamma","unif",15,"ssfOUT_15_2_3_VULTURE","VULTURE",3,0.5,15,"no effect"
"ssfOUT_15_2_3_VULTURE.8",-0.0403961163541886,-0.658183296579743,0.577391063871366,"ssf","mf.is","gamma","unif",50,"ssfOUT_15_2_3_VULTURE","VULTURE",3,0.5,15,"no effect"
"ssfOUT_15_2_3_VULTURE.9",-0.222880532603856,-0.843818676765263,0.398057611557551,"ssf","mf.is","gamma","unif",158,"ssfOUT_15_2_3_VULTURE","VULTURE",3,0.5,15,"no effect"
"ssfOUT_15_2_3_VULTURE.10",-0.203060589882888,-0.819768465832756,0.413647286066981,"ssf","mf.is","gamma","unif",500,"ssfOUT_15_2_3_VULTURE","VULTURE",3,0.5,15,"no effect"
"ssfOUT_15_2_3_VULTURE.11",0.12646131869045,-0.597244211246287,0.850166848627186,"ssf","mf.is","exp","vonmises",5,"ssfOUT_15_2_3_VULTURE","VULTURE",3,0.5,15,"no effect"
"ssfOUT_15_2_3_VULTURE.12",0.00505548283805879,-0.634621174508528,0.644732140184646,"ssf","mf.is","exp","vonmises",15,"ssfOUT_15_2_3_VULTURE","VULTURE",3,0.5,15,"no effect"
"ssfOUT_15_2_3_VULTURE.13",-0.316020855684274,-0.938427115838626,0.306385404470079,"ssf","mf.is","exp","vonmises",50,"ssfOUT_15_2_3_VULTURE","VULTURE",3,0.5,15,"no effect"
"ssfOUT_15_2_3_VULTURE.14",-0.0510031554580188,-0.66584628870737,0.563839977791332,"ssf","mf.is","exp","vonmises",158,"ssfOUT_15_2_3_VULTURE","VULTURE",3,0.5,15,"no effect"
"ssfOUT_15_2_3_VULTURE.15",-0.21093545798119,-0.826859593981507,0.404988678019128,"ssf","mf.is","exp","vonmises",500,"ssfOUT_15_2_3_VULTURE","VULTURE",3,0.5,15,"no effect"
"ssfOUT_15_2_3_VULTURE.16",0.457126719262772,-0.249694880961289,1.16394831948683,"ssf","mf.is","exp","unif",5,"ssfOUT_15_2_3_VULTURE","VULTURE",3,0.5,15,"no effect"
"ssfOUT_15_2_3_VULTURE.17",-0.178226341657651,-0.828458477273394,0.472005793958092,"ssf","mf.is","exp","unif",15,"ssfOUT_15_2_3_VULTURE","VULTURE",3,0.5,15,"no effect"
"ssfOUT_15_2_3_VULTURE.18",-0.33601774023779,-0.972247275227608,0.300211794752027,"ssf","mf.is","exp","unif",50,"ssfOUT_15_2_3_VULTURE","VULTURE",3,0.5,15,"no effect"
"ssfOUT_15_2_3_VULTURE.19",-0.13552471445861,-0.758389116369133,0.487339687451914,"ssf","mf.is","exp","unif",158,"ssfOUT_15_2_3_VULTURE","VULTURE",3,0.5,15,"no effect"
"ssfOUT_15_2_3_VULTURE.20",-0.344684627228801,-0.961057232127443,0.271687977669842,"ssf","mf.is","exp","unif",500,"ssfOUT_15_2_3_VULTURE","VULTURE",3,0.5,15,"no effect"
"ssfOUT_15_2_3_VULTURE.21",-0.848602849257048,-1.64750299330715,-0.0497027052069514,"ssf","mf.ss","gamma","vonmises",5,"ssfOUT_15_2_3_VULTURE","VULTURE",3,0.5,15,"avoidance"
"ssfOUT_15_2_3_VULTURE.22",-0.134513427104122,-0.763492008056425,0.494465153848182,"ssf","mf.ss","gamma","vonmises",15,"ssfOUT_15_2_3_VULTURE","VULTURE",3,0.5,15,"no effect"
"ssfOUT_15_2_3_VULTURE.23",-0.108412247757476,-0.719246180692504,0.502421685177551,"ssf","mf.ss","gamma","vonmises",50,"ssfOUT_15_2_3_VULTURE","VULTURE",3,0.5,15,"no effect"
"ssfOUT_15_2_3_VULTURE.24",-0.319231176890852,-0.932727157599112,0.294264803817409,"ssf","mf.ss","gamma","vonmises",158,"ssfOUT_15_2_3_VULTURE","VULTURE",3,0.5,15,"no effect"
"ssfOUT_15_2_3_VULTURE.25",-0.293087432984467,-0.907166202383789,0.320991336414856,"ssf","mf.ss","gamma","vonmises",500,"ssfOUT_15_2_3_VULTURE","VULTURE",3,0.5,15,"no effect"
"ssfOUT_15_2_3_VULTURE.26",-0.461863403747752,-1.14257853934946,0.218851731853959,"ssf","mf.ss","gamma","unif",5,"ssfOUT_15_2_3_VULTURE","VULTURE",3,0.5,15,"no effect"
"ssfOUT_15_2_3_VULTURE.27",-0.275729090836491,-0.900570003292144,0.349111821619161,"ssf","mf.ss","gamma","unif",15,"ssfOUT_15_2_3_VULTURE","VULTURE",3,0.5,15,"no effect"
"ssfOUT_15_2_3_VULTURE.28",-0.0307114389081116,-0.646402503920907,0.584979626104684,"ssf","mf.ss","gamma","unif",50,"ssfOUT_15_2_3_VULTURE","VULTURE",3,0.5,15,"no effect"
"ssfOUT_15_2_3_VULTURE.29",-0.197365497016044,-0.815875086596979,0.42114409256489,"ssf","mf.ss","gamma","unif",158,"ssfOUT_15_2_3_VULTURE","VULTURE",3,0.5,15,"no effect"
"ssfOUT_15_2_3_VULTURE.30",-0.191749288118608,-0.807021201365232,0.423522625128016,"ssf","mf.ss","gamma","unif",500,"ssfOUT_15_2_3_VULTURE","VULTURE",3,0.5,15,"no effect"
"ssfOUT_15_2_3_VULTURE.31",0.0424207923034343,-0.664013621545073,0.748855206151941,"ssf","mf.ss","exp","vonmises",5,"ssfOUT_15_2_3_VULTURE","VULTURE",3,0.5,15,"no effect"
"ssfOUT_15_2_3_VULTURE.32",-0.109850528314614,-0.746826549733959,0.527125493104731,"ssf","mf.ss","exp","vonmises",15,"ssfOUT_15_2_3_VULTURE","VULTURE",3,0.5,15,"no effect"
"ssfOUT_15_2_3_VULTURE.33",-0.19175217617283,-0.810482071390464,0.426977719044804,"ssf","mf.ss","exp","vonmises",50,"ssfOUT_15_2_3_VULTURE","VULTURE",3,0.5,15,"no effect"
"ssfOUT_15_2_3_VULTURE.34",-0.0458386826753149,-0.662986100145178,0.571308734794548,"ssf","mf.ss","exp","vonmises",158,"ssfOUT_15_2_3_VULTURE","VULTURE",3,0.5,15,"no effect"
"ssfOUT_15_2_3_VULTURE.35",-0.193900137009386,-0.811036444107429,0.423236170088657,"ssf","mf.ss","exp","vonmises",500,"ssfOUT_15_2_3_VULTURE","VULTURE",3,0.5,15,"no effect"
"ssfOUT_15_2_3_VULTURE.36",0.376836833878495,-0.340626161240007,1.094299828997,"ssf","mf.ss","exp","unif",5,"ssfOUT_15_2_3_VULTURE","VULTURE",3,0.5,15,"no effect"
"ssfOUT_15_2_3_VULTURE.37",-0.0520704560894629,-0.706155580351737,0.602014668172811,"ssf","mf.ss","exp","unif",15,"ssfOUT_15_2_3_VULTURE","VULTURE",3,0.5,15,"no effect"
"ssfOUT_15_2_3_VULTURE.38",-0.245231754387408,-0.881463745443159,0.391000236668343,"ssf","mf.ss","exp","unif",50,"ssfOUT_15_2_3_VULTURE","VULTURE",3,0.5,15,"no effect"
"ssfOUT_15_2_3_VULTURE.39",-0.0394152403282508,-0.665181176683852,0.586350696027351,"ssf","mf.ss","exp","unif",158,"ssfOUT_15_2_3_VULTURE","VULTURE",3,0.5,15,"no effect"
"ssfOUT_15_2_3_VULTURE.40",-0.238290100643837,-0.858108821427131,0.381528620139457,"ssf","mf.ss","exp","unif",500,"ssfOUT_15_2_3_VULTURE","VULTURE",3,0.5,15,"no effect"
"ssfOUT_15_2_3_KINGCOBRA.1",14.5298473585257,-2872.26085383438,2901.32054855144,"ssf","mf.is","gamma","vonmises",5,"ssfOUT_15_2_3_KINGCOBRA","KINGCOBRA",3,0.5,15,"no effect"
"ssfOUT_15_2_3_KINGCOBRA.2",14.197982071845,-2240.65048146461,2269.0464456083,"ssf","mf.is","gamma","vonmises",15,"ssfOUT_15_2_3_KINGCOBRA","KINGCOBRA",3,0.5,15,"no effect"
"ssfOUT_15_2_3_KINGCOBRA.3",13.6983342624961,-1611.11222992425,1638.50889844925,"ssf","mf.is","gamma","vonmises",50,"ssfOUT_15_2_3_KINGCOBRA","KINGCOBRA",3,0.5,15,"no effect"
"ssfOUT_15_2_3_KINGCOBRA.4",14.6040694918584,-2156.25437057655,2185.46250956027,"ssf","mf.is","gamma","vonmises",158,"ssfOUT_15_2_3_KINGCOBRA","KINGCOBRA",3,0.5,15,"no effect"
"ssfOUT_15_2_3_KINGCOBRA.5",13.6121658059325,-1414.00547145097,1441.22980306283,"ssf","mf.is","gamma","vonmises",500,"ssfOUT_15_2_3_KINGCOBRA","KINGCOBRA",3,0.5,15,"no effect"
"ssfOUT_15_2_3_KINGCOBRA.6",0.916839184977127,0.596829334999906,1.23684903495435,"ssf","mf.is","gamma","unif",5,"ssfOUT_15_2_3_KINGCOBRA","KINGCOBRA",3,0.5,15,"preference"
"ssfOUT_15_2_3_KINGCOBRA.7",13.736318786112,-1930.78024571268,1958.2528832849,"ssf","mf.is","gamma","unif",15,"ssfOUT_15_2_3_KINGCOBRA","KINGCOBRA",3,0.5,15,"no effect"
"ssfOUT_15_2_3_KINGCOBRA.8",14.712668064591,-1844.95141279785,1874.37674892703,"ssf","mf.is","gamma","unif",50,"ssfOUT_15_2_3_KINGCOBRA","KINGCOBRA",3,0.5,15,"no effect"
"ssfOUT_15_2_3_KINGCOBRA.9",14.5435634333875,-2207.78907394312,2236.87620080989,"ssf","mf.is","gamma","unif",158,"ssfOUT_15_2_3_KINGCOBRA","KINGCOBRA",3,0.5,15,"no effect"
"ssfOUT_15_2_3_KINGCOBRA.10",13.5328765783866,-1350.49435073496,1377.56010389174,"ssf","mf.is","gamma","unif",500,"ssfOUT_15_2_3_KINGCOBRA","KINGCOBRA",3,0.5,15,"no effect"
"ssfOUT_15_2_3_KINGCOBRA.11",14.8144771374245,-2980.86007169746,3010.48902597231,"ssf","mf.is","exp","vonmises",5,"ssfOUT_15_2_3_KINGCOBRA","KINGCOBRA",3,0.5,15,"no effect"
"ssfOUT_15_2_3_KINGCOBRA.12",15.3591378458984,-2873.55181018238,2904.27008587418,"ssf","mf.is","exp","vonmises",15,"ssfOUT_15_2_3_KINGCOBRA","KINGCOBRA",3,0.5,15,"no effect"
"ssfOUT_15_2_3_KINGCOBRA.13",13.7067607534871,-2634.34337362025,2661.75689512723,"ssf","mf.is","exp","vonmises",50,"ssfOUT_15_2_3_KINGCOBRA","KINGCOBRA",3,0.5,15,"no effect"
"ssfOUT_15_2_3_KINGCOBRA.14",14.8295154886585,-2334.29051665502,2363.94954763233,"ssf","mf.is","exp","vonmises",158,"ssfOUT_15_2_3_KINGCOBRA","KINGCOBRA",3,0.5,15,"no effect"
"ssfOUT_15_2_3_KINGCOBRA.15",13.5019778113804,-1593.69467331906,1620.69862894182,"ssf","mf.is","exp","vonmises",500,"ssfOUT_15_2_3_KINGCOBRA","KINGCOBRA",3,0.5,15,"no effect"
"ssfOUT_15_2_3_KINGCOBRA.16",0.562022742902655,0.253646615273129,0.870398870532182,"ssf","mf.is","exp","unif",5,"ssfOUT_15_2_3_KINGCOBRA","KINGCOBRA",3,0.5,15,"preference"
"ssfOUT_15_2_3_KINGCOBRA.17",14.9484836639474,-2390.41971772774,2420.31668505563,"ssf","mf.is","exp","unif",15,"ssfOUT_15_2_3_KINGCOBRA","KINGCOBRA",3,0.5,15,"no effect"
"ssfOUT_15_2_3_KINGCOBRA.18",13.4283650232173,-2583.54581671285,2610.40254675929,"ssf","mf.is","exp","unif",50,"ssfOUT_15_2_3_KINGCOBRA","KINGCOBRA",3,0.5,15,"no effect"
"ssfOUT_15_2_3_KINGCOBRA.19",14.5455356440967,-1764.02832059925,1793.11939188744,"ssf","mf.is","exp","unif",158,"ssfOUT_15_2_3_KINGCOBRA","KINGCOBRA",3,0.5,15,"no effect"
"ssfOUT_15_2_3_KINGCOBRA.20",14.3030602182874,-1874.61730279064,1903.22342322721,"ssf","mf.is","exp","unif",500,"ssfOUT_15_2_3_KINGCOBRA","KINGCOBRA",3,0.5,15,"no effect"
"ssfOUT_15_2_3_KINGCOBRA.21",14.2929582076276,-2824.68155584154,2853.26747225679,"ssf","mf.ss","gamma","vonmises",5,"ssfOUT_15_2_3_KINGCOBRA","KINGCOBRA",3,0.5,15,"no effect"
"ssfOUT_15_2_3_KINGCOBRA.22",14.1441060738955,-2232.17113881782,2260.45935096561,"ssf","mf.ss","gamma","vonmises",15,"ssfOUT_15_2_3_KINGCOBRA","KINGCOBRA",3,0.5,15,"no effect"
"ssfOUT_15_2_3_KINGCOBRA.23",13.3889069613538,-1598.66133838174,1625.43915230445,"ssf","mf.ss","gamma","vonmises",50,"ssfOUT_15_2_3_KINGCOBRA","KINGCOBRA",3,0.5,15,"no effect"
"ssfOUT_15_2_3_KINGCOBRA.24",14.3444436954809,-2149.5605135301,2178.24940092106,"ssf","mf.ss","gamma","vonmises",158,"ssfOUT_15_2_3_KINGCOBRA","KINGCOBRA",3,0.5,15,"no effect"
"ssfOUT_15_2_3_KINGCOBRA.25",13.3810889124747,-1387.48270632482,1414.24488414977,"ssf","mf.ss","gamma","vonmises",500,"ssfOUT_15_2_3_KINGCOBRA","KINGCOBRA",3,0.5,15,"no effect"
"ssfOUT_15_2_3_KINGCOBRA.26",0.93863261366464,0.624243051570647,1.25302217575863,"ssf","mf.ss","gamma","unif",5,"ssfOUT_15_2_3_KINGCOBRA","KINGCOBRA",3,0.5,15,"preference"
"ssfOUT_15_2_3_KINGCOBRA.27",13.5993388127951,-1904.16158238758,1931.36026001317,"ssf","mf.ss","gamma","unif",15,"ssfOUT_15_2_3_KINGCOBRA","KINGCOBRA",3,0.5,15,"no effect"
"ssfOUT_15_2_3_KINGCOBRA.28",14.4121377791516,-1826.69505507965,1855.51933063795,"ssf","mf.ss","gamma","unif",50,"ssfOUT_15_2_3_KINGCOBRA","KINGCOBRA",3,0.5,15,"no effect"
"ssfOUT_15_2_3_KINGCOBRA.29",14.350366122691,-2194.52415381955,2223.22488606494,"ssf","mf.ss","gamma","unif",158,"ssfOUT_15_2_3_KINGCOBRA","KINGCOBRA",3,0.5,15,"no effect"
"ssfOUT_15_2_3_KINGCOBRA.30",13.3353819286245,-1333.18146502064,1359.85222887789,"ssf","mf.ss","gamma","unif",500,"ssfOUT_15_2_3_KINGCOBRA","KINGCOBRA",3,0.5,15,"no effect"
"ssfOUT_15_2_3_KINGCOBRA.31",14.4641126226762,-2880.4145449147,2909.34277016006,"ssf","mf.ss","exp","vonmises",5,"ssfOUT_15_2_3_KINGCOBRA","KINGCOBRA",3,0.5,15,"no effect"
"ssfOUT_15_2_3_KINGCOBRA.32",13.6189835140023,-1887.29440092489,1914.5323679529,"ssf","mf.ss","exp","vonmises",15,"ssfOUT_15_2_3_KINGCOBRA","KINGCOBRA",3,0.5,15,"no effect"
"ssfOUT_15_2_3_KINGCOBRA.33",13.5125004539598,-1616.03521257389,1643.06021348181,"ssf","mf.ss","exp","vonmises",50,"ssfOUT_15_2_3_KINGCOBRA","KINGCOBRA",3,0.5,15,"no effect"
"ssfOUT_15_2_3_KINGCOBRA.34",14.7134516609492,-2256.72351470898,2286.15041803087,"ssf","mf.ss","exp","vonmises",158,"ssfOUT_15_2_3_KINGCOBRA","KINGCOBRA",3,0.5,15,"no effect"
"ssfOUT_15_2_3_KINGCOBRA.35",13.5600860506887,-1528.50389274416,1555.62406484554,"ssf","mf.ss","exp","vonmises",500,"ssfOUT_15_2_3_KINGCOBRA","KINGCOBRA",3,0.5,15,"no effect"
"ssfOUT_15_2_3_KINGCOBRA.36",0.851578033761879,0.56544999890688,1.13770606861688,"ssf","mf.ss","exp","unif",5,"ssfOUT_15_2_3_KINGCOBRA","KINGCOBRA",3,0.5,15,"preference"
"ssfOUT_15_2_3_KINGCOBRA.37",14.6735648782565,-2273.36690465353,2302.71403441005,"ssf","mf.ss","exp","unif",15,"ssfOUT_15_2_3_KINGCOBRA","KINGCOBRA",3,0.5,15,"no effect"
"ssfOUT_15_2_3_KINGCOBRA.38",13.6275152863445,-1944.13183559648,1971.38686616917,"ssf","mf.ss","exp","unif",50,"ssfOUT_15_2_3_KINGCOBRA","KINGCOBRA",3,0.5,15,"no effect"
"ssfOUT_15_2_3_KINGCOBRA.39",14.6666733203978,-2104.34811711478,2133.68146375558,"ssf","mf.ss","exp","unif",158,"ssfOUT_15_2_3_KINGCOBRA","KINGCOBRA",3,0.5,15,"no effect"
"ssfOUT_15_2_3_KINGCOBRA.40",13.6741130875916,-1478.00797302057,1505.35619919575,"ssf","mf.ss","exp","unif",500,"ssfOUT_15_2_3_KINGCOBRA","KINGCOBRA",3,0.5,15,"no effect"
"ssfOUT_15_2_4_BADGER.1",-0.385567978087623,-1.23752129976365,0.466385343588402,"ssf","mf.is","gamma","vonmises",5,"ssfOUT_15_2_4_BADGER","BADGER",4,0.5,15,"no effect"
"ssfOUT_15_2_4_BADGER.2",0.55671531017477,-0.205220789683844,1.31865141003338,"ssf","mf.is","gamma","vonmises",15,"ssfOUT_15_2_4_BADGER","BADGER",4,0.5,15,"no effect"
"ssfOUT_15_2_4_BADGER.3",0.728201141045616,-0.0038312038405377,1.46023348593177,"ssf","mf.is","gamma","vonmises",50,"ssfOUT_15_2_4_BADGER","BADGER",4,0.5,15,"no effect"
"ssfOUT_15_2_4_BADGER.4",0.717931446054368,-0.0202012641541982,1.45606415626293,"ssf","mf.is","gamma","vonmises",158,"ssfOUT_15_2_4_BADGER","BADGER",4,0.5,15,"no effect"
"ssfOUT_15_2_4_BADGER.5",0.780182943773678,0.048608538987944,1.51175734855941,"ssf","mf.is","gamma","vonmises",500,"ssfOUT_15_2_4_BADGER","BADGER",4,0.5,15,"preference"
"ssfOUT_15_2_4_BADGER.6",0.675551410952585,-0.120640643917512,1.47174346582268,"ssf","mf.is","gamma","unif",5,"ssfOUT_15_2_4_BADGER","BADGER",4,0.5,15,"no effect"
"ssfOUT_15_2_4_BADGER.7",0.665991823708723,-0.0866899730390724,1.41867362045652,"ssf","mf.is","gamma","unif",15,"ssfOUT_15_2_4_BADGER","BADGER",4,0.5,15,"no effect"
"ssfOUT_15_2_4_BADGER.8",0.757022196842392,0.0256079518689055,1.48843644181588,"ssf","mf.is","gamma","unif",50,"ssfOUT_15_2_4_BADGER","BADGER",4,0.5,15,"preference"
"ssfOUT_15_2_4_BADGER.9",0.702126902845063,-0.0377472472274133,1.44200105291754,"ssf","mf.is","gamma","unif",158,"ssfOUT_15_2_4_BADGER","BADGER",4,0.5,15,"no effect"
"ssfOUT_15_2_4_BADGER.10",0.75909263982401,0.0259651927941253,1.49222008685389,"ssf","mf.is","gamma","unif",500,"ssfOUT_15_2_4_BADGER","BADGER",4,0.5,15,"preference"
"ssfOUT_15_2_4_BADGER.11",1.03793733012286,0.264648719054364,1.81122594119135,"ssf","mf.is","exp","vonmises",5,"ssfOUT_15_2_4_BADGER","BADGER",4,0.5,15,"preference"
"ssfOUT_15_2_4_BADGER.12",0.719084068765524,-0.0396650702551316,1.47783320778618,"ssf","mf.is","exp","vonmises",15,"ssfOUT_15_2_4_BADGER","BADGER",4,0.5,15,"no effect"
"ssfOUT_15_2_4_BADGER.13",0.589515866524722,-0.143057600270605,1.32208933332005,"ssf","mf.is","exp","vonmises",50,"ssfOUT_15_2_4_BADGER","BADGER",4,0.5,15,"no effect"
"ssfOUT_15_2_4_BADGER.14",0.649291492986797,-0.0847256359114483,1.38330862188504,"ssf","mf.is","exp","vonmises",158,"ssfOUT_15_2_4_BADGER","BADGER",4,0.5,15,"no effect"
"ssfOUT_15_2_4_BADGER.15",0.726993827491685,-0.00696853839880929,1.46095619338218,"ssf","mf.is","exp","vonmises",500,"ssfOUT_15_2_4_BADGER","BADGER",4,0.5,15,"no effect"
"ssfOUT_15_2_4_BADGER.16",0.739111763651308,-0.0475313557056896,1.5257548830083,"ssf","mf.is","exp","unif",5,"ssfOUT_15_2_4_BADGER","BADGER",4,0.5,15,"no effect"
"ssfOUT_15_2_4_BADGER.17",0.597468063614421,-0.160707513077951,1.35564364030679,"ssf","mf.is","exp","unif",15,"ssfOUT_15_2_4_BADGER","BADGER",4,0.5,15,"no effect"
"ssfOUT_15_2_4_BADGER.18",0.840505979858006,0.09988866571572,1.58112329400029,"ssf","mf.is","exp","unif",50,"ssfOUT_15_2_4_BADGER","BADGER",4,0.5,15,"preference"
"ssfOUT_15_2_4_BADGER.19",0.734212051070087,0.00158841948365085,1.46683568265652,"ssf","mf.is","exp","unif",158,"ssfOUT_15_2_4_BADGER","BADGER",4,0.5,15,"preference"
"ssfOUT_15_2_4_BADGER.20",0.721848258308147,-0.0126179925048121,1.45631450912111,"ssf","mf.is","exp","unif",500,"ssfOUT_15_2_4_BADGER","BADGER",4,0.5,15,"no effect"
"ssfOUT_15_2_4_BADGER.21",-0.241276885249501,-1.08661264400418,0.604058873505182,"ssf","mf.ss","gamma","vonmises",5,"ssfOUT_15_2_4_BADGER","BADGER",4,0.5,15,"no effect"
"ssfOUT_15_2_4_BADGER.22",0.542485889721952,-0.216948960858692,1.3019207403026,"ssf","mf.ss","gamma","vonmises",15,"ssfOUT_15_2_4_BADGER","BADGER",4,0.5,15,"no effect"
"ssfOUT_15_2_4_BADGER.23",0.727126106802105,-0.00427790478684786,1.45853011839106,"ssf","mf.ss","gamma","vonmises",50,"ssfOUT_15_2_4_BADGER","BADGER",4,0.5,15,"no effect"
"ssfOUT_15_2_4_BADGER.24",0.692861144455232,-0.0459289461222251,1.43165123503269,"ssf","mf.ss","gamma","vonmises",158,"ssfOUT_15_2_4_BADGER","BADGER",4,0.5,15,"no effect"
"ssfOUT_15_2_4_BADGER.25",0.766905016399061,0.0355616442729247,1.4982483885252,"ssf","mf.ss","gamma","vonmises",500,"ssfOUT_15_2_4_BADGER","BADGER",4,0.5,15,"preference"
"ssfOUT_15_2_4_BADGER.26",0.648943503300962,-0.146384587891206,1.44427159449313,"ssf","mf.ss","gamma","unif",5,"ssfOUT_15_2_4_BADGER","BADGER",4,0.5,15,"no effect"
"ssfOUT_15_2_4_BADGER.27",0.63475470853274,-0.117829690824693,1.38733910789017,"ssf","mf.ss","gamma","unif",15,"ssfOUT_15_2_4_BADGER","BADGER",4,0.5,15,"no effect"
"ssfOUT_15_2_4_BADGER.28",0.726821134453902,-0.00530892278682771,1.45895119169463,"ssf","mf.ss","gamma","unif",50,"ssfOUT_15_2_4_BADGER","BADGER",4,0.5,15,"no effect"
"ssfOUT_15_2_4_BADGER.29",0.687639071493253,-0.0533163453644008,1.42859448835091,"ssf","mf.ss","gamma","unif",158,"ssfOUT_15_2_4_BADGER","BADGER",4,0.5,15,"no effect"
"ssfOUT_15_2_4_BADGER.30",0.742393985180884,0.00889260664264169,1.47589536371913,"ssf","mf.ss","gamma","unif",500,"ssfOUT_15_2_4_BADGER","BADGER",4,0.5,15,"preference"
"ssfOUT_15_2_4_BADGER.31",1.13977237620646,0.37184992572835,1.90769482668457,"ssf","mf.ss","exp","vonmises",5,"ssfOUT_15_2_4_BADGER","BADGER",4,0.5,15,"preference"
"ssfOUT_15_2_4_BADGER.32",0.727275960465386,-0.0268849926486041,1.48143691357938,"ssf","mf.ss","exp","vonmises",15,"ssfOUT_15_2_4_BADGER","BADGER",4,0.5,15,"no effect"
"ssfOUT_15_2_4_BADGER.33",0.640939984035852,-0.0922141506437112,1.37409411871542,"ssf","mf.ss","exp","vonmises",50,"ssfOUT_15_2_4_BADGER","BADGER",4,0.5,15,"no effect"
"ssfOUT_15_2_4_BADGER.34",0.678983980939432,-0.0530326976747895,1.41100065955365,"ssf","mf.ss","exp","vonmises",158,"ssfOUT_15_2_4_BADGER","BADGER",4,0.5,15,"no effect"
"ssfOUT_15_2_4_BADGER.35",0.740883242258636,0.00944230908525912,1.47232417543201,"ssf","mf.ss","exp","vonmises",500,"ssfOUT_15_2_4_BADGER","BADGER",4,0.5,15,"preference"
"ssfOUT_15_2_4_BADGER.36",0.748464208991886,-0.0362593112799791,1.53318772926375,"ssf","mf.ss","exp","unif",5,"ssfOUT_15_2_4_BADGER","BADGER",4,0.5,15,"no effect"
"ssfOUT_15_2_4_BADGER.37",0.560283825156709,-0.191857903953528,1.31242555426695,"ssf","mf.ss","exp","unif",15,"ssfOUT_15_2_4_BADGER","BADGER",4,0.5,15,"no effect"
"ssfOUT_15_2_4_BADGER.38",0.814552829321959,0.0771865860109416,1.55191907263298,"ssf","mf.ss","exp","unif",50,"ssfOUT_15_2_4_BADGER","BADGER",4,0.5,15,"preference"
"ssfOUT_15_2_4_BADGER.39",0.764884216688732,0.034590254884437,1.49517817849303,"ssf","mf.ss","exp","unif",158,"ssfOUT_15_2_4_BADGER","BADGER",4,0.5,15,"preference"
"ssfOUT_15_2_4_BADGER.40",0.752429974841525,0.0201843636621032,1.48467558602095,"ssf","mf.ss","exp","unif",500,"ssfOUT_15_2_4_BADGER","BADGER",4,0.5,15,"preference"
"ssfOUT_15_2_4_VULTURE.1",0.648031031164308,-0.109593989590723,1.40565605191934,"ssf","mf.is","gamma","vonmises",5,"ssfOUT_15_2_4_VULTURE","VULTURE",4,0.5,15,"no effect"
"ssfOUT_15_2_4_VULTURE.2",0.840661805245985,0.10384802540476,1.57747558508721,"ssf","mf.is","gamma","vonmises",15,"ssfOUT_15_2_4_VULTURE","VULTURE",4,0.5,15,"preference"
"ssfOUT_15_2_4_VULTURE.3",0.946869270423807,0.224360407484208,1.66937813336341,"ssf","mf.is","gamma","vonmises",50,"ssfOUT_15_2_4_VULTURE","VULTURE",4,0.5,15,"preference"
"ssfOUT_15_2_4_VULTURE.4",0.885430337206507,0.162721359282064,1.60813931513095,"ssf","mf.is","gamma","vonmises",158,"ssfOUT_15_2_4_VULTURE","VULTURE",4,0.5,15,"preference"
"ssfOUT_15_2_4_VULTURE.5",0.936475933009912,0.215034323540182,1.65791754247964,"ssf","mf.is","gamma","vonmises",500,"ssfOUT_15_2_4_VULTURE","VULTURE",4,0.5,15,"preference"
"ssfOUT_15_2_4_VULTURE.6",0.440999669758202,-0.331534958610394,1.2135342981268,"ssf","mf.is","gamma","unif",5,"ssfOUT_15_2_4_VULTURE","VULTURE",4,0.5,15,"no effect"
"ssfOUT_15_2_4_VULTURE.7",0.665261694074003,-0.0684577499827269,1.39898113813073,"ssf","mf.is","gamma","unif",15,"ssfOUT_15_2_4_VULTURE","VULTURE",4,0.5,15,"no effect"
"ssfOUT_15_2_4_VULTURE.8",0.83820180271757,0.113205384874243,1.5631982205609,"ssf","mf.is","gamma","unif",50,"ssfOUT_15_2_4_VULTURE","VULTURE",4,0.5,15,"preference"
"ssfOUT_15_2_4_VULTURE.9",0.94462440947103,0.222971737024925,1.66627708191714,"ssf","mf.is","gamma","unif",158,"ssfOUT_15_2_4_VULTURE","VULTURE",4,0.5,15,"preference"
"ssfOUT_15_2_4_VULTURE.10",0.923282625873607,0.201081553116145,1.64548369863107,"ssf","mf.is","gamma","unif",500,"ssfOUT_15_2_4_VULTURE","VULTURE",4,0.5,15,"preference"
"ssfOUT_15_2_4_VULTURE.11",1.03069473298814,0.266729592512506,1.79465987346378,"ssf","mf.is","exp","vonmises",5,"ssfOUT_15_2_4_VULTURE","VULTURE",4,0.5,15,"preference"
"ssfOUT_15_2_4_VULTURE.12",0.917266890845824,0.182623627205077,1.65191015448657,"ssf","mf.is","exp","vonmises",15,"ssfOUT_15_2_4_VULTURE","VULTURE",4,0.5,15,"preference"
"ssfOUT_15_2_4_VULTURE.13",0.978227062265911,0.253563432140752,1.70289069239107,"ssf","mf.is","exp","vonmises",50,"ssfOUT_15_2_4_VULTURE","VULTURE",4,0.5,15,"preference"
"ssfOUT_15_2_4_VULTURE.14",0.979744591217372,0.256425571600321,1.70306361083442,"ssf","mf.is","exp","vonmises",158,"ssfOUT_15_2_4_VULTURE","VULTURE",4,0.5,15,"preference"
"ssfOUT_15_2_4_VULTURE.15",0.967353115036402,0.24617889575302,1.68852733431978,"ssf","mf.is","exp","vonmises",500,"ssfOUT_15_2_4_VULTURE","VULTURE",4,0.5,15,"preference"
"ssfOUT_15_2_4_VULTURE.16",0.668659841813232,-0.150724532934357,1.48804421656082,"ssf","mf.is","exp","unif",5,"ssfOUT_15_2_4_VULTURE","VULTURE",4,0.5,15,"no effect"
"ssfOUT_15_2_4_VULTURE.17",0.910014770568159,0.175943425106795,1.64408611602952,"ssf","mf.is","exp","unif",15,"ssfOUT_15_2_4_VULTURE","VULTURE",4,0.5,15,"preference"
"ssfOUT_15_2_4_VULTURE.18",0.91367955168926,0.188126629225071,1.63923247415345,"ssf","mf.is","exp","unif",50,"ssfOUT_15_2_4_VULTURE","VULTURE",4,0.5,15,"preference"
"ssfOUT_15_2_4_VULTURE.19",0.911077163316345,0.189129681711152,1.63302464492154,"ssf","mf.is","exp","unif",158,"ssfOUT_15_2_4_VULTURE","VULTURE",4,0.5,15,"preference"
"ssfOUT_15_2_4_VULTURE.20",0.888841919555944,0.167214832637095,1.61046900647479,"ssf","mf.is","exp","unif",500,"ssfOUT_15_2_4_VULTURE","VULTURE",4,0.5,15,"preference"
"ssfOUT_15_2_4_VULTURE.21",0.635075820155687,-0.121290479022624,1.391442119334,"ssf","mf.ss","gamma","vonmises",5,"ssfOUT_15_2_4_VULTURE","VULTURE",4,0.5,15,"no effect"
"ssfOUT_15_2_4_VULTURE.22",0.864612438306236,0.12861836966721,1.60060650694526,"ssf","mf.ss","gamma","vonmises",15,"ssfOUT_15_2_4_VULTURE","VULTURE",4,0.5,15,"preference"
"ssfOUT_15_2_4_VULTURE.23",0.938338217185933,0.216468893751601,1.66020754062027,"ssf","mf.ss","gamma","vonmises",50,"ssfOUT_15_2_4_VULTURE","VULTURE",4,0.5,15,"preference"
"ssfOUT_15_2_4_VULTURE.24",0.885720464635915,0.163240777706703,1.60820015156513,"ssf","mf.ss","gamma","vonmises",158,"ssfOUT_15_2_4_VULTURE","VULTURE",4,0.5,15,"preference"
"ssfOUT_15_2_4_VULTURE.25",0.927840645534903,0.206782981056973,1.64889831001283,"ssf","mf.ss","gamma","vonmises",500,"ssfOUT_15_2_4_VULTURE","VULTURE",4,0.5,15,"preference"
"ssfOUT_15_2_4_VULTURE.26",0.560072722622278,-0.201119466052382,1.32126491129694,"ssf","mf.ss","gamma","unif",5,"ssfOUT_15_2_4_VULTURE","VULTURE",4,0.5,15,"no effect"
"ssfOUT_15_2_4_VULTURE.27",0.743964136660442,0.0121066048776942,1.47582166844319,"ssf","mf.ss","gamma","unif",15,"ssfOUT_15_2_4_VULTURE","VULTURE",4,0.5,15,"preference"
"ssfOUT_15_2_4_VULTURE.28",0.88706646908781,0.163119443354566,1.61101349482105,"ssf","mf.ss","gamma","unif",50,"ssfOUT_15_2_4_VULTURE","VULTURE",4,0.5,15,"preference"
"ssfOUT_15_2_4_VULTURE.29",0.973056538490396,0.251901379839587,1.69421169714121,"ssf","mf.ss","gamma","unif",158,"ssfOUT_15_2_4_VULTURE","VULTURE",4,0.5,15,"preference"
"ssfOUT_15_2_4_VULTURE.30",0.952248164491854,0.230434481218142,1.67406184776557,"ssf","mf.ss","gamma","unif",500,"ssfOUT_15_2_4_VULTURE","VULTURE",4,0.5,15,"preference"
"ssfOUT_15_2_4_VULTURE.31",0.837412679365057,0.0750357350297787,1.59978962370033,"ssf","mf.ss","exp","vonmises",5,"ssfOUT_15_2_4_VULTURE","VULTURE",4,0.5,15,"preference"
"ssfOUT_15_2_4_VULTURE.32",0.834278606411642,0.10070873796924,1.56784847485404,"ssf","mf.ss","exp","vonmises",15,"ssfOUT_15_2_4_VULTURE","VULTURE",4,0.5,15,"preference"
"ssfOUT_15_2_4_VULTURE.33",0.86526604435351,0.14060321296893,1.58992887573809,"ssf","mf.ss","exp","vonmises",50,"ssfOUT_15_2_4_VULTURE","VULTURE",4,0.5,15,"preference"
"ssfOUT_15_2_4_VULTURE.34",0.932070501187452,0.207272283400111,1.65686871897479,"ssf","mf.ss","exp","vonmises",158,"ssfOUT_15_2_4_VULTURE","VULTURE",4,0.5,15,"preference"
"ssfOUT_15_2_4_VULTURE.35",0.933753204078814,0.210958957752871,1.65654745040476,"ssf","mf.ss","exp","vonmises",500,"ssfOUT_15_2_4_VULTURE","VULTURE",4,0.5,15,"preference"
"ssfOUT_15_2_4_VULTURE.36",0.668628672618888,-0.10749318680383,1.44475053204161,"ssf","mf.ss","exp","unif",5,"ssfOUT_15_2_4_VULTURE","VULTURE",4,0.5,15,"no effect"
"ssfOUT_15_2_4_VULTURE.37",0.84008217955044,0.107799718422967,1.57236464067791,"ssf","mf.ss","exp","unif",15,"ssfOUT_15_2_4_VULTURE","VULTURE",4,0.5,15,"preference"
"ssfOUT_15_2_4_VULTURE.38",0.945459357456151,0.220930120188065,1.66998859472424,"ssf","mf.ss","exp","unif",50,"ssfOUT_15_2_4_VULTURE","VULTURE",4,0.5,15,"preference"
"ssfOUT_15_2_4_VULTURE.39",0.92679688750976,0.202507140578926,1.65108663444059,"ssf","mf.ss","exp","unif",158,"ssfOUT_15_2_4_VULTURE","VULTURE",4,0.5,15,"preference"
"ssfOUT_15_2_4_VULTURE.40",0.897595492078683,0.174325602842441,1.62086538131492,"ssf","mf.ss","exp","unif",500,"ssfOUT_15_2_4_VULTURE","VULTURE",4,0.5,15,"preference"
"ssfOUT_15_2_4_KINGCOBRA.1",0.137700043636754,-0.944194344973515,1.21959443224702,"ssf","mf.is","gamma","vonmises",5,"ssfOUT_15_2_4_KINGCOBRA","KINGCOBRA",4,0.5,15,"no effect"
"ssfOUT_15_2_4_KINGCOBRA.2",0.453550039962025,-0.589022083181791,1.49612216310584,"ssf","mf.is","gamma","vonmises",15,"ssfOUT_15_2_4_KINGCOBRA","KINGCOBRA",4,0.5,15,"no effect"
"ssfOUT_15_2_4_KINGCOBRA.3",0.341718573666929,-0.702710738727714,1.38614788606157,"ssf","mf.is","gamma","vonmises",50,"ssfOUT_15_2_4_KINGCOBRA","KINGCOBRA",4,0.5,15,"no effect"
"ssfOUT_15_2_4_KINGCOBRA.4",0.395855381046827,-0.645435227935327,1.43714599002898,"ssf","mf.is","gamma","vonmises",158,"ssfOUT_15_2_4_KINGCOBRA","KINGCOBRA",4,0.5,15,"no effect"
"ssfOUT_15_2_4_KINGCOBRA.5",0.497279811948536,-0.540055887328691,1.53461551122576,"ssf","mf.is","gamma","vonmises",500,"ssfOUT_15_2_4_KINGCOBRA","KINGCOBRA",4,0.5,15,"no effect"
"ssfOUT_15_2_4_KINGCOBRA.6",0.296761184579698,-0.773493018628068,1.36701538778747,"ssf","mf.is","gamma","unif",5,"ssfOUT_15_2_4_KINGCOBRA","KINGCOBRA",4,0.5,15,"no effect"
"ssfOUT_15_2_4_KINGCOBRA.7",0.551900225458585,-0.499769076952665,1.60356952786984,"ssf","mf.is","gamma","unif",15,"ssfOUT_15_2_4_KINGCOBRA","KINGCOBRA",4,0.5,15,"no effect"
"ssfOUT_15_2_4_KINGCOBRA.8",0.381942103105948,-0.654967412337952,1.41885161854985,"ssf","mf.is","gamma","unif",50,"ssfOUT_15_2_4_KINGCOBRA","KINGCOBRA",4,0.5,15,"no effect"
"ssfOUT_15_2_4_KINGCOBRA.9",0.4054513880348,-0.631961562586567,1.44286433865617,"ssf","mf.is","gamma","unif",158,"ssfOUT_15_2_4_KINGCOBRA","KINGCOBRA",4,0.5,15,"no effect"
"ssfOUT_15_2_4_KINGCOBRA.10",0.408027393039907,-0.624710601057365,1.44076538713718,"ssf","mf.is","gamma","unif",500,"ssfOUT_15_2_4_KINGCOBRA","KINGCOBRA",4,0.5,15,"no effect"
"ssfOUT_15_2_4_KINGCOBRA.11",-0.371172249931771,-1.46200234658032,0.719657846716779,"ssf","mf.is","exp","vonmises",5,"ssfOUT_15_2_4_KINGCOBRA","KINGCOBRA",4,0.5,15,"no effect"
"ssfOUT_15_2_4_KINGCOBRA.12",0.539649731154531,-0.513589366947979,1.59288882925704,"ssf","mf.is","exp","vonmises",15,"ssfOUT_15_2_4_KINGCOBRA","KINGCOBRA",4,0.5,15,"no effect"
"ssfOUT_15_2_4_KINGCOBRA.13",0.602322303573907,-0.442487256335971,1.64713186348379,"ssf","mf.is","exp","vonmises",50,"ssfOUT_15_2_4_KINGCOBRA","KINGCOBRA",4,0.5,15,"no effect"
"ssfOUT_15_2_4_KINGCOBRA.14",0.763281766657638,-0.365353619512855,1.89191715282813,"ssf","mf.is","exp","vonmises",158,"ssfOUT_15_2_4_KINGCOBRA","KINGCOBRA",4,0.5,15,"no effect"
"ssfOUT_15_2_4_KINGCOBRA.15",0.597790753523673,-0.472371276074919,1.66795278312227,"ssf","mf.is","exp","vonmises",500,"ssfOUT_15_2_4_KINGCOBRA","KINGCOBRA",4,0.5,15,"no effect"
"ssfOUT_15_2_4_KINGCOBRA.16",0.199233028339721,-0.877899961726248,1.27636601840569,"ssf","mf.is","exp","unif",5,"ssfOUT_15_2_4_KINGCOBRA","KINGCOBRA",4,0.5,15,"no effect"
"ssfOUT_15_2_4_KINGCOBRA.17",0.188246949109866,-0.87361013946791,1.25010403768764,"ssf","mf.is","exp","unif",15,"ssfOUT_15_2_4_KINGCOBRA","KINGCOBRA",4,0.5,15,"no effect"
"ssfOUT_15_2_4_KINGCOBRA.18",0.252100063068865,-0.783682262803833,1.28788238894156,"ssf","mf.is","exp","unif",50,"ssfOUT_15_2_4_KINGCOBRA","KINGCOBRA",4,0.5,15,"no effect"
"ssfOUT_15_2_4_KINGCOBRA.19",0.324668633574812,-0.714885846094251,1.36422311324388,"ssf","mf.is","exp","unif",158,"ssfOUT_15_2_4_KINGCOBRA","KINGCOBRA",4,0.5,15,"no effect"
"ssfOUT_15_2_4_KINGCOBRA.20",0.306824289668558,-0.728352143853464,1.34200072319058,"ssf","mf.is","exp","unif",500,"ssfOUT_15_2_4_KINGCOBRA","KINGCOBRA",4,0.5,15,"no effect"
"ssfOUT_15_2_4_KINGCOBRA.21",0.182434313635911,-0.891277705177114,1.25614633244894,"ssf","mf.ss","gamma","vonmises",5,"ssfOUT_15_2_4_KINGCOBRA","KINGCOBRA",4,0.5,15,"no effect"
"ssfOUT_15_2_4_KINGCOBRA.22",0.473581561160361,-0.562841177752938,1.51000430007366,"ssf","mf.ss","gamma","vonmises",15,"ssfOUT_15_2_4_KINGCOBRA","KINGCOBRA",4,0.5,15,"no effect"
"ssfOUT_15_2_4_KINGCOBRA.23",0.322482238987275,-0.723348030363328,1.36831250833788,"ssf","mf.ss","gamma","vonmises",50,"ssfOUT_15_2_4_KINGCOBRA","KINGCOBRA",4,0.5,15,"no effect"
"ssfOUT_15_2_4_KINGCOBRA.24",0.457408991845924,-0.580196821702349,1.4950148053942,"ssf","mf.ss","gamma","vonmises",158,"ssfOUT_15_2_4_KINGCOBRA","KINGCOBRA",4,0.5,15,"no effect"
"ssfOUT_15_2_4_KINGCOBRA.25",0.541507532471338,-0.493375796897118,1.57639086183979,"ssf","mf.ss","gamma","vonmises",500,"ssfOUT_15_2_4_KINGCOBRA","KINGCOBRA",4,0.5,15,"no effect"
"ssfOUT_15_2_4_KINGCOBRA.26",0.326495614034226,-0.737752845465929,1.39074407353438,"ssf","mf.ss","gamma","unif",5,"ssfOUT_15_2_4_KINGCOBRA","KINGCOBRA",4,0.5,15,"no effect"
"ssfOUT_15_2_4_KINGCOBRA.27",0.56988971405643,-0.479153247566879,1.61893267567974,"ssf","mf.ss","gamma","unif",15,"ssfOUT_15_2_4_KINGCOBRA","KINGCOBRA",4,0.5,15,"no effect"
"ssfOUT_15_2_4_KINGCOBRA.28",0.407096250596957,-0.6258562464405,1.44004874763441,"ssf","mf.ss","gamma","unif",50,"ssfOUT_15_2_4_KINGCOBRA","KINGCOBRA",4,0.5,15,"no effect"
"ssfOUT_15_2_4_KINGCOBRA.29",0.42171840067014,-0.613551289232707,1.45698809057299,"ssf","mf.ss","gamma","unif",158,"ssfOUT_15_2_4_KINGCOBRA","KINGCOBRA",4,0.5,15,"no effect"
"ssfOUT_15_2_4_KINGCOBRA.30",0.450934534741164,-0.579205554484831,1.48107462396716,"ssf","mf.ss","gamma","unif",500,"ssfOUT_15_2_4_KINGCOBRA","KINGCOBRA",4,0.5,15,"no effect"
"ssfOUT_15_2_4_KINGCOBRA.31",0.239176402332364,-0.825992109829495,1.30434491449422,"ssf","mf.ss","exp","vonmises",5,"ssfOUT_15_2_4_KINGCOBRA","KINGCOBRA",4,0.5,15,"no effect"
"ssfOUT_15_2_4_KINGCOBRA.32",0.608957806699954,-0.436733771839436,1.65464938523934,"ssf","mf.ss","exp","vonmises",15,"ssfOUT_15_2_4_KINGCOBRA","KINGCOBRA",4,0.5,15,"no effect"
"ssfOUT_15_2_4_KINGCOBRA.33",0.565709279365424,-0.456036736693966,1.58745529542481,"ssf","mf.ss","exp","vonmises",50,"ssfOUT_15_2_4_KINGCOBRA","KINGCOBRA",4,0.5,15,"no effect"
"ssfOUT_15_2_4_KINGCOBRA.34",0.345625663865965,-0.67520611321075,1.36645744094268,"ssf","mf.ss","exp","vonmises",158,"ssfOUT_15_2_4_KINGCOBRA","KINGCOBRA",4,0.5,15,"no effect"
"ssfOUT_15_2_4_KINGCOBRA.35",0.513843165931135,-0.504291452734478,1.53197778459675,"ssf","mf.ss","exp","vonmises",500,"ssfOUT_15_2_4_KINGCOBRA","KINGCOBRA",4,0.5,15,"no effect"
"ssfOUT_15_2_4_KINGCOBRA.36",0.452846346890658,-0.602009497455884,1.5077021912372,"ssf","mf.ss","exp","unif",5,"ssfOUT_15_2_4_KINGCOBRA","KINGCOBRA",4,0.5,15,"no effect"
"ssfOUT_15_2_4_KINGCOBRA.37",0.232344681752481,-0.808337968289857,1.27302733179482,"ssf","mf.ss","exp","unif",15,"ssfOUT_15_2_4_KINGCOBRA","KINGCOBRA",4,0.5,15,"no effect"
"ssfOUT_15_2_4_KINGCOBRA.38",0.379566619510162,-0.641690835383246,1.40082407440357,"ssf","mf.ss","exp","unif",50,"ssfOUT_15_2_4_KINGCOBRA","KINGCOBRA",4,0.5,15,"no effect"
"ssfOUT_15_2_4_KINGCOBRA.39",0.40964082060235,-0.60874902529312,1.42803066649782,"ssf","mf.ss","exp","unif",158,"ssfOUT_15_2_4_KINGCOBRA","KINGCOBRA",4,0.5,15,"no effect"
"ssfOUT_15_2_4_KINGCOBRA.40",0.503302114062034,-0.515614695883626,1.52221892400769,"ssf","mf.ss","exp","unif",500,"ssfOUT_15_2_4_KINGCOBRA","KINGCOBRA",4,0.5,15,"no effect"
"ssfOUT_15_6_1_BADGER.1",17.4720147635804,-5099.32981838794,5134.27384791511,"ssf","mf.is","gamma","vonmises",5,"ssfOUT_15_6_1_BADGER","BADGER",1,0.166666666666667,15,"no effect"
"ssfOUT_15_6_1_BADGER.2",16.6208388156552,-4458.84755485757,4492.08923248889,"ssf","mf.is","gamma","vonmises",15,"ssfOUT_15_6_1_BADGER","BADGER",1,0.166666666666667,15,"no effect"
"ssfOUT_15_6_1_BADGER.3",16.1373795180967,-3759.95771482279,3792.23247385898,"ssf","mf.is","gamma","vonmises",50,"ssfOUT_15_6_1_BADGER","BADGER",1,0.166666666666667,15,"no effect"
"ssfOUT_15_6_1_BADGER.4",16.5095544490941,-3320.35848208575,3353.37759098394,"ssf","mf.is","gamma","vonmises",158,"ssfOUT_15_6_1_BADGER","BADGER",1,0.166666666666667,15,"no effect"
"ssfOUT_15_6_1_BADGER.5",16.3481565457457,-3288.09730495787,3320.79361804936,"ssf","mf.is","gamma","vonmises",500,"ssfOUT_15_6_1_BADGER","BADGER",1,0.166666666666667,15,"no effect"
"ssfOUT_15_6_1_BADGER.6",16.4053638160679,-5324.39126761821,5357.20199525034,"ssf","mf.is","gamma","unif",5,"ssfOUT_15_6_1_BADGER","BADGER",1,0.166666666666667,15,"no effect"
"ssfOUT_15_6_1_BADGER.7",16.3289412270546,-3380.56169156868,3413.21957402279,"ssf","mf.is","gamma","unif",15,"ssfOUT_15_6_1_BADGER","BADGER",1,0.166666666666667,15,"no effect"
"ssfOUT_15_6_1_BADGER.8",16.3285049596801,-3146.45467809875,3179.11168801811,"ssf","mf.is","gamma","unif",50,"ssfOUT_15_6_1_BADGER","BADGER",1,0.166666666666667,15,"no effect"
"ssfOUT_15_6_1_BADGER.9",16.3025239791604,-3104.75407269069,3137.35912064901,"ssf","mf.is","gamma","unif",158,"ssfOUT_15_6_1_BADGER","BADGER",1,0.166666666666667,15,"no effect"
"ssfOUT_15_6_1_BADGER.10",16.3382508723335,-3287.44232674397,3320.11882848863,"ssf","mf.is","gamma","unif",500,"ssfOUT_15_6_1_BADGER","BADGER",1,0.166666666666667,15,"no effect"
"ssfOUT_15_6_1_BADGER.11",16.1133408977594,-6161.07094111634,6193.29762291186,"ssf","mf.is","exp","vonmises",5,"ssfOUT_15_6_1_BADGER","BADGER",1,0.166666666666667,15,"no effect"
"ssfOUT_15_6_1_BADGER.12",16.0897471712929,-4080.2929370274,4112.47243136999,"ssf","mf.is","exp","vonmises",15,"ssfOUT_15_6_1_BADGER","BADGER",1,0.166666666666667,15,"no effect"
"ssfOUT_15_6_1_BADGER.13",16.3603572630743,-3547.52748888214,3580.24820340829,"ssf","mf.is","exp","vonmises",50,"ssfOUT_15_6_1_BADGER","BADGER",1,0.166666666666667,15,"no effect"
"ssfOUT_15_6_1_BADGER.14",16.5773641300984,-3831.80532501957,3864.96005327977,"ssf","mf.is","exp","vonmises",158,"ssfOUT_15_6_1_BADGER","BADGER",1,0.166666666666667,15,"no effect"
"ssfOUT_15_6_1_BADGER.15",16.337103313787,-3140.28954785427,3172.96375448184,"ssf","mf.is","exp","vonmises",500,"ssfOUT_15_6_1_BADGER","BADGER",1,0.166666666666667,15,"no effect"
"ssfOUT_15_6_1_BADGER.16",17.6849526385563,-5052.40821591781,5087.77812119492,"ssf","mf.is","exp","unif",5,"ssfOUT_15_6_1_BADGER","BADGER",1,0.166666666666667,15,"no effect"
"ssfOUT_15_6_1_BADGER.17",17.3578569765096,-5467.51877267216,5502.23448662518,"ssf","mf.is","exp","unif",15,"ssfOUT_15_6_1_BADGER","BADGER",1,0.166666666666667,15,"no effect"
"ssfOUT_15_6_1_BADGER.18",16.5176124395009,-3506.78487419003,3539.82009906903,"ssf","mf.is","exp","unif",50,"ssfOUT_15_6_1_BADGER","BADGER",1,0.166666666666667,15,"no effect"
"ssfOUT_15_6_1_BADGER.19",16.3847107684092,-3068.67840902726,3101.44783056408,"ssf","mf.is","exp","unif",158,"ssfOUT_15_6_1_BADGER","BADGER",1,0.166666666666667,15,"no effect"
"ssfOUT_15_6_1_BADGER.20",16.3132036098438,-3249.81620791373,3282.44261513341,"ssf","mf.is","exp","unif",500,"ssfOUT_15_6_1_BADGER","BADGER",1,0.166666666666667,15,"no effect"
"ssfOUT_15_6_1_BADGER.21",15.3939158595217,-4672.60947478371,4703.39730650275,"ssf","mf.ss","gamma","vonmises",5,"ssfOUT_15_6_1_BADGER","BADGER",1,0.166666666666667,15,"no effect"
"ssfOUT_15_6_1_BADGER.22",16.2929626385951,-4611.98362671467,4644.56955199186,"ssf","mf.ss","gamma","vonmises",15,"ssfOUT_15_6_1_BADGER","BADGER",1,0.166666666666667,15,"no effect"
"ssfOUT_15_6_1_BADGER.23",16.2570709124734,-3669.38558325414,3701.89972507909,"ssf","mf.ss","gamma","vonmises",50,"ssfOUT_15_6_1_BADGER","BADGER",1,0.166666666666667,15,"no effect"
"ssfOUT_15_6_1_BADGER.24",16.2408645417108,-3441.34518416618,3473.8269132496,"ssf","mf.ss","gamma","vonmises",158,"ssfOUT_15_6_1_BADGER","BADGER",1,0.166666666666667,15,"no effect"
"ssfOUT_15_6_1_BADGER.25",16.2062550371561,-3358.6713820484,3391.08389212271,"ssf","mf.ss","gamma","vonmises",500,"ssfOUT_15_6_1_BADGER","BADGER",1,0.166666666666667,15,"no effect"
"ssfOUT_15_6_1_BADGER.26",16.4380901537366,-5452.711760784,5485.58794109147,"ssf","mf.ss","gamma","unif",5,"ssfOUT_15_6_1_BADGER","BADGER",1,0.166666666666667,15,"no effect"
"ssfOUT_15_6_1_BADGER.27",16.249436592951,-3382.17582752913,3414.67470071503,"ssf","mf.ss","gamma","unif",15,"ssfOUT_15_6_1_BADGER","BADGER",1,0.166666666666667,15,"no effect"
"ssfOUT_15_6_1_BADGER.28",16.1982319149965,-3157.75338917651,3190.1498530065,"ssf","mf.ss","gamma","unif",50,"ssfOUT_15_6_1_BADGER","BADGER",1,0.166666666666667,15,"no effect"
"ssfOUT_15_6_1_BADGER.29",16.2152016244104,-3110.53129103897,3142.96169428779,"ssf","mf.ss","gamma","unif",158,"ssfOUT_15_6_1_BADGER","BADGER",1,0.166666666666667,15,"no effect"
"ssfOUT_15_6_1_BADGER.30",16.2107176806272,-3264.52595887968,3296.94739424093,"ssf","mf.ss","gamma","unif",500,"ssfOUT_15_6_1_BADGER","BADGER",1,0.166666666666667,15,"no effect"
"ssfOUT_15_6_1_BADGER.31",16.3945842675819,-5444.86554451913,5477.65471305429,"ssf","mf.ss","exp","vonmises",5,"ssfOUT_15_6_1_BADGER","BADGER",1,0.166666666666667,15,"no effect"
"ssfOUT_15_6_1_BADGER.32",16.3106678384646,-4064.49391522388,4097.11525090081,"ssf","mf.ss","exp","vonmises",15,"ssfOUT_15_6_1_BADGER","BADGER",1,0.166666666666667,15,"no effect"
"ssfOUT_15_6_1_BADGER.33",16.145655353987,-3442.22312203412,3474.51443274209,"ssf","mf.ss","exp","vonmises",50,"ssfOUT_15_6_1_BADGER","BADGER",1,0.166666666666667,15,"no effect"
"ssfOUT_15_6_1_BADGER.34",16.2007696356273,-3612.60412742529,3645.00566669655,"ssf","mf.ss","exp","vonmises",158,"ssfOUT_15_6_1_BADGER","BADGER",1,0.166666666666667,15,"no effect"
"ssfOUT_15_6_1_BADGER.35",16.211722707778,-3275.25567265501,3307.67911807056,"ssf","mf.ss","exp","vonmises",500,"ssfOUT_15_6_1_BADGER","BADGER",1,0.166666666666667,15,"no effect"
"ssfOUT_15_6_1_BADGER.36",17.3024696594093,-5177.01411441493,5211.61905373374,"ssf","mf.ss","exp","unif",5,"ssfOUT_15_6_1_BADGER","BADGER",1,0.166666666666667,15,"no effect"
"ssfOUT_15_6_1_BADGER.37",16.2672929115569,-3272.65539957686,3305.18998539998,"ssf","mf.ss","exp","unif",15,"ssfOUT_15_6_1_BADGER","BADGER",1,0.166666666666667,15,"no effect"
"ssfOUT_15_6_1_BADGER.38",16.2510888685439,-3485.54290710025,3518.04508483734,"ssf","mf.ss","exp","unif",50,"ssfOUT_15_6_1_BADGER","BADGER",1,0.166666666666667,15,"no effect"
"ssfOUT_15_6_1_BADGER.39",16.2359946879243,-3064.89727811177,3097.36926748761,"ssf","mf.ss","exp","unif",158,"ssfOUT_15_6_1_BADGER","BADGER",1,0.166666666666667,15,"no effect"
"ssfOUT_15_6_1_BADGER.40",16.1979029992124,-3227.87005956226,3260.26586556068,"ssf","mf.ss","exp","unif",500,"ssfOUT_15_6_1_BADGER","BADGER",1,0.166666666666667,15,"no effect"
"ssfOUT_15_6_1_VULTURE.1",16.4621192590564,-4398.27394853532,4431.19818705343,"ssf","mf.is","gamma","vonmises",5,"ssfOUT_15_6_1_VULTURE","VULTURE",1,0.166666666666667,15,"no effect"
"ssfOUT_15_6_1_VULTURE.2",17.5561733491927,-5107.71690024858,5142.82924694696,"ssf","mf.is","gamma","vonmises",15,"ssfOUT_15_6_1_VULTURE","VULTURE",1,0.166666666666667,15,"no effect"
"ssfOUT_15_6_1_VULTURE.3",16.5840741912828,-3186.11345781787,3219.28160620044,"ssf","mf.is","gamma","vonmises",50,"ssfOUT_15_6_1_VULTURE","VULTURE",1,0.166666666666667,15,"no effect"
"ssfOUT_15_6_1_VULTURE.4",16.5970567322436,-3829.44040886233,3862.63452232682,"ssf","mf.is","gamma","vonmises",158,"ssfOUT_15_6_1_VULTURE","VULTURE",1,0.166666666666667,15,"no effect"
"ssfOUT_15_6_1_VULTURE.5",15.6767082382736,-2260.38432278254,2291.73773925909,"ssf","mf.is","gamma","vonmises",500,"ssfOUT_15_6_1_VULTURE","VULTURE",1,0.166666666666667,15,"no effect"
"ssfOUT_15_6_1_VULTURE.6",15.948483899037,-4788.47253715999,4820.36950495807,"ssf","mf.is","gamma","unif",5,"ssfOUT_15_6_1_VULTURE","VULTURE",1,0.166666666666667,15,"no effect"
"ssfOUT_15_6_1_VULTURE.7",15.6455282708488,-3824.06654059142,3855.35759713311,"ssf","mf.is","gamma","unif",15,"ssfOUT_15_6_1_VULTURE","VULTURE",1,0.166666666666667,15,"no effect"
"ssfOUT_15_6_1_VULTURE.8",16.5142975165761,-3494.47269866858,3527.50129370173,"ssf","mf.is","gamma","unif",50,"ssfOUT_15_6_1_VULTURE","VULTURE",1,0.166666666666667,15,"no effect"
"ssfOUT_15_6_1_VULTURE.9",16.6389712548487,-3757.87764469617,3791.15558720587,"ssf","mf.is","gamma","unif",158,"ssfOUT_15_6_1_VULTURE","VULTURE",1,0.166666666666667,15,"no effect"
"ssfOUT_15_6_1_VULTURE.10",16.5953598362137,-3571.68168358702,3604.87240325945,"ssf","mf.is","gamma","unif",500,"ssfOUT_15_6_1_VULTURE","VULTURE",1,0.166666666666667,15,"no effect"
"ssfOUT_15_6_1_VULTURE.11",15.4325086128842,-4880.12731344354,4910.9923306693,"ssf","mf.is","exp","vonmises",5,"ssfOUT_15_6_1_VULTURE","VULTURE",1,0.166666666666667,15,"no effect"
"ssfOUT_15_6_1_VULTURE.12",16.4602608622521,-3773.14583912086,3806.06636084536,"ssf","mf.is","exp","vonmises",15,"ssfOUT_15_6_1_VULTURE","VULTURE",1,0.166666666666667,15,"no effect"
"ssfOUT_15_6_1_VULTURE.13",16.6427829742023,-3472.98907029355,3506.27463624196,"ssf","mf.is","exp","vonmises",50,"ssfOUT_15_6_1_VULTURE","VULTURE",1,0.166666666666667,15,"no effect"
"ssfOUT_15_6_1_VULTURE.14",16.6788632190731,-3809.93331062119,3843.29103705933,"ssf","mf.is","exp","vonmises",158,"ssfOUT_15_6_1_VULTURE","VULTURE",1,0.166666666666667,15,"no effect"
"ssfOUT_15_6_1_VULTURE.15",15.6636791142859,-2290.01261139949,2321.33996962806,"ssf","mf.is","exp","vonmises",500,"ssfOUT_15_6_1_VULTURE","VULTURE",1,0.166666666666667,15,"no effect"
"ssfOUT_15_6_1_VULTURE.16",16.3292560532122,-4719.34104075287,4751.99955285929,"ssf","mf.is","exp","unif",5,"ssfOUT_15_6_1_VULTURE","VULTURE",1,0.166666666666667,15,"no effect"
"ssfOUT_15_6_1_VULTURE.17",16.5278336436115,-4299.96008666165,4333.01575394888,"ssf","mf.is","exp","unif",15,"ssfOUT_15_6_1_VULTURE","VULTURE",1,0.166666666666667,15,"no effect"
"ssfOUT_15_6_1_VULTURE.18",16.7251353237072,-3682.63079236645,3716.08106301387,"ssf","mf.is","exp","unif",50,"ssfOUT_15_6_1_VULTURE","VULTURE",1,0.166666666666667,15,"no effect"
"ssfOUT_15_6_1_VULTURE.19",16.6084176589296,-3720.20571846926,3753.42255378712,"ssf","mf.is","exp","unif",158,"ssfOUT_15_6_1_VULTURE","VULTURE",1,0.166666666666667,15,"no effect"
"ssfOUT_15_6_1_VULTURE.20",16.6247496905097,-3523.97684036886,3557.22633974988,"ssf","mf.is","exp","unif",500,"ssfOUT_15_6_1_VULTURE","VULTURE",1,0.166666666666667,15,"no effect"
"ssfOUT_15_6_1_VULTURE.21",16.5630226573693,-4566.61756844219,4599.74361375693,"ssf","mf.ss","gamma","vonmises",5,"ssfOUT_15_6_1_VULTURE","VULTURE",1,0.166666666666667,15,"no effect"
"ssfOUT_15_6_1_VULTURE.22",17.5755914681755,-5171.83252795055,5206.98371088691,"ssf","mf.ss","gamma","vonmises",15,"ssfOUT_15_6_1_VULTURE","VULTURE",1,0.166666666666667,15,"no effect"
"ssfOUT_15_6_1_VULTURE.23",16.4795945840991,-3181.12219490957,3214.08138407777,"ssf","mf.ss","gamma","vonmises",50,"ssfOUT_15_6_1_VULTURE","VULTURE",1,0.166666666666667,15,"no effect"
"ssfOUT_15_6_1_VULTURE.24",16.4722880561087,-3825.71348545193,3858.65806156414,"ssf","mf.ss","gamma","vonmises",158,"ssfOUT_15_6_1_VULTURE","VULTURE",1,0.166666666666667,15,"no effect"
"ssfOUT_15_6_1_VULTURE.25",15.4893770251083,-2254.21671670367,2285.19547075389,"ssf","mf.ss","gamma","vonmises",500,"ssfOUT_15_6_1_VULTURE","VULTURE",1,0.166666666666667,15,"no effect"
"ssfOUT_15_6_1_VULTURE.26",15.460905546996,-4763.68072386693,4794.60253496092,"ssf","mf.ss","gamma","unif",5,"ssfOUT_15_6_1_VULTURE","VULTURE",1,0.166666666666667,15,"no effect"
"ssfOUT_15_6_1_VULTURE.27",15.5548015001641,-3816.99924332751,3848.10884632783,"ssf","mf.ss","gamma","unif",15,"ssfOUT_15_6_1_VULTURE","VULTURE",1,0.166666666666667,15,"no effect"
"ssfOUT_15_6_1_VULTURE.28",16.5211161800281,-3445.1439352194,3478.18616757946,"ssf","mf.ss","gamma","unif",50,"ssfOUT_15_6_1_VULTURE","VULTURE",1,0.166666666666667,15,"no effect"
"ssfOUT_15_6_1_VULTURE.29",16.5218822213256,-3733.38967701797,3766.43344146063,"ssf","mf.ss","gamma","unif",158,"ssfOUT_15_6_1_VULTURE","VULTURE",1,0.166666666666667,15,"no effect"
"ssfOUT_15_6_1_VULTURE.30",16.4886669155362,-3552.60992313683,3585.5872569679,"ssf","mf.ss","gamma","unif",500,"ssfOUT_15_6_1_VULTURE","VULTURE",1,0.166666666666667,15,"no effect"
"ssfOUT_15_6_1_VULTURE.31",15.2929583489175,-4665.38468025336,4695.9705969512,"ssf","mf.ss","exp","vonmises",5,"ssfOUT_15_6_1_VULTURE","VULTURE",1,0.166666666666667,15,"no effect"
"ssfOUT_15_6_1_VULTURE.32",16.448679007965,-3769.57987502673,3802.47723304266,"ssf","mf.ss","exp","vonmises",15,"ssfOUT_15_6_1_VULTURE","VULTURE",1,0.166666666666667,15,"no effect"
"ssfOUT_15_6_1_VULTURE.33",16.4459763817552,-3372.82571617161,3405.71766893512,"ssf","mf.ss","exp","vonmises",50,"ssfOUT_15_6_1_VULTURE","VULTURE",1,0.166666666666667,15,"no effect"
"ssfOUT_15_6_1_VULTURE.34",16.484726112923,-3730.5341794845,3763.50363171035,"ssf","mf.ss","exp","vonmises",158,"ssfOUT_15_6_1_VULTURE","VULTURE",1,0.166666666666667,15,"no effect"
"ssfOUT_15_6_1_VULTURE.35",15.4395678622467,-2222.27573773948,2253.15487346397,"ssf","mf.ss","exp","vonmises",500,"ssfOUT_15_6_1_VULTURE","VULTURE",1,0.166666666666667,15,"no effect"
"ssfOUT_15_6_1_VULTURE.36",16.7603742374488,-4564.06853638271,4597.58928485761,"ssf","mf.ss","exp","unif",5,"ssfOUT_15_6_1_VULTURE","VULTURE",1,0.166666666666667,15,"no effect"
"ssfOUT_15_6_1_VULTURE.37",16.6754924684544,-4208.03698786174,4241.38797279865,"ssf","mf.ss","exp","unif",15,"ssfOUT_15_6_1_VULTURE","VULTURE",1,0.166666666666667,15,"no effect"
"ssfOUT_15_6_1_VULTURE.38",16.4605144338394,-3599.46785592954,3632.38888479722,"ssf","mf.ss","exp","unif",50,"ssfOUT_15_6_1_VULTURE","VULTURE",1,0.166666666666667,15,"no effect"
"ssfOUT_15_6_1_VULTURE.39",16.4651360484615,-3689.28644623324,3722.21671833017,"ssf","mf.ss","exp","unif",158,"ssfOUT_15_6_1_VULTURE","VULTURE",1,0.166666666666667,15,"no effect"
"ssfOUT_15_6_1_VULTURE.40",16.4692735894036,-3486.82891064347,3519.76745782228,"ssf","mf.ss","exp","unif",500,"ssfOUT_15_6_1_VULTURE","VULTURE",1,0.166666666666667,15,"no effect"
"ssfOUT_15_6_1_KINGCOBRA.1",16.6826650949193,-7502.38645204374,7535.75178223358,"ssf","mf.is","gamma","vonmises",5,"ssfOUT_15_6_1_KINGCOBRA","KINGCOBRA",1,0.166666666666667,15,"no effect"
"ssfOUT_15_6_1_KINGCOBRA.2",15.1245582890631,-4878.78626380168,4909.03538037981,"ssf","mf.is","gamma","vonmises",15,"ssfOUT_15_6_1_KINGCOBRA","KINGCOBRA",1,0.166666666666667,15,"no effect"
"ssfOUT_15_6_1_KINGCOBRA.3",15.5674060086015,-3455.81058297345,3486.94539499065,"ssf","mf.is","gamma","vonmises",50,"ssfOUT_15_6_1_KINGCOBRA","KINGCOBRA",1,0.166666666666667,15,"no effect"
"ssfOUT_15_6_1_KINGCOBRA.4",14.1732551308189,-2575.43807253522,2603.78458279685,"ssf","mf.is","gamma","vonmises",158,"ssfOUT_15_6_1_KINGCOBRA","KINGCOBRA",1,0.166666666666667,15,"no effect"
"ssfOUT_15_6_1_KINGCOBRA.5",15.7523748665836,-3434.93852257119,3466.44327230436,"ssf","mf.is","gamma","vonmises",500,"ssfOUT_15_6_1_KINGCOBRA","KINGCOBRA",1,0.166666666666667,15,"no effect"
"ssfOUT_15_6_1_KINGCOBRA.6",15.2826918105144,-4676.26153226716,4706.82691588819,"ssf","mf.is","gamma","unif",5,"ssfOUT_15_6_1_KINGCOBRA","KINGCOBRA",1,0.166666666666667,15,"no effect"
"ssfOUT_15_6_1_KINGCOBRA.7",15.3496448633374,-5478.7235576192,5509.42284734587,"ssf","mf.is","gamma","unif",15,"ssfOUT_15_6_1_KINGCOBRA","KINGCOBRA",1,0.166666666666667,15,"no effect"
"ssfOUT_15_6_1_KINGCOBRA.8",15.4613453231609,-3724.23169681381,3755.15438746013,"ssf","mf.is","gamma","unif",50,"ssfOUT_15_6_1_KINGCOBRA","KINGCOBRA",1,0.166666666666667,15,"no effect"
"ssfOUT_15_6_1_KINGCOBRA.9",15.5137671445453,-3761.4773573416,3792.5048916307,"ssf","mf.is","gamma","unif",158,"ssfOUT_15_6_1_KINGCOBRA","KINGCOBRA",1,0.166666666666667,15,"no effect"
"ssfOUT_15_6_1_KINGCOBRA.10",15.4677407079032,-3379.34165323371,3410.27713464951,"ssf","mf.is","gamma","unif",500,"ssfOUT_15_6_1_KINGCOBRA","KINGCOBRA",1,0.166666666666667,15,"no effect"
"ssfOUT_15_6_1_KINGCOBRA.11",NA,NA,NA,"ssf","mf.is","exp","vonmises",5,"ssfOUT_15_6_1_KINGCOBRA","KINGCOBRA",1,0.166666666666667,15,NA
"ssfOUT_15_6_1_KINGCOBRA.12",14.5482225561755,-4420.42526503962,4449.52171015197,"ssf","mf.is","exp","vonmises",15,"ssfOUT_15_6_1_KINGCOBRA","KINGCOBRA",1,0.166666666666667,15,"no effect"
"ssfOUT_15_6_1_KINGCOBRA.13",15.3771611809667,-3469.34111878899,3500.09544115092,"ssf","mf.is","exp","vonmises",50,"ssfOUT_15_6_1_KINGCOBRA","KINGCOBRA",1,0.166666666666667,15,"no effect"
"ssfOUT_15_6_1_KINGCOBRA.14",15.4339828255981,-3150.73553031753,3181.60349596873,"ssf","mf.is","exp","vonmises",158,"ssfOUT_15_6_1_KINGCOBRA","KINGCOBRA",1,0.166666666666667,15,"no effect"
"ssfOUT_15_6_1_KINGCOBRA.15",15.5278599856763,-3722.03191670322,3753.08763667458,"ssf","mf.is","exp","vonmises",500,"ssfOUT_15_6_1_KINGCOBRA","KINGCOBRA",1,0.166666666666667,15,"no effect"
"ssfOUT_15_6_1_KINGCOBRA.16",16.0896500486559,-5012.3169872485,5044.49628734581,"ssf","mf.is","exp","unif",5,"ssfOUT_15_6_1_KINGCOBRA","KINGCOBRA",1,0.166666666666667,15,"no effect"
"ssfOUT_15_6_1_KINGCOBRA.17",17.1817313820721,-5593.38700310636,5627.7504658705,"ssf","mf.is","exp","unif",15,"ssfOUT_15_6_1_KINGCOBRA","KINGCOBRA",1,0.166666666666667,15,"no effect"
"ssfOUT_15_6_1_KINGCOBRA.18",15.950247438922,-4038.85033929441,4070.75083417226,"ssf","mf.is","exp","unif",50,"ssfOUT_15_6_1_KINGCOBRA","KINGCOBRA",1,0.166666666666667,15,"no effect"
"ssfOUT_15_6_1_KINGCOBRA.19",15.4671320883861,-3534.73135703595,3565.66562121272,"ssf","mf.is","exp","unif",158,"ssfOUT_15_6_1_KINGCOBRA","KINGCOBRA",1,0.166666666666667,15,"no effect"
"ssfOUT_15_6_1_KINGCOBRA.20",15.3680717888904,-3292.26728748323,3323.00343106102,"ssf","mf.is","exp","unif",500,"ssfOUT_15_6_1_KINGCOBRA","KINGCOBRA",1,0.166666666666667,15,"no effect"
"ssfOUT_15_6_1_KINGCOBRA.21",17.8503286962257,-4994.74687294864,5030.44753034109,"ssf","mf.ss","gamma","vonmises",5,"ssfOUT_15_6_1_KINGCOBRA","KINGCOBRA",1,0.166666666666667,15,"no effect"
"ssfOUT_15_6_1_KINGCOBRA.22",17.041469351308,-4323.9147618863,4357.99770058891,"ssf","mf.ss","gamma","vonmises",15,"ssfOUT_15_6_1_KINGCOBRA","KINGCOBRA",1,0.166666666666667,15,"no effect"
"ssfOUT_15_6_1_KINGCOBRA.23",17.1702689797897,-3905.82501796058,3940.16555592016,"ssf","mf.ss","gamma","vonmises",50,"ssfOUT_15_6_1_KINGCOBRA","KINGCOBRA",1,0.166666666666667,15,"no effect"
"ssfOUT_15_6_1_KINGCOBRA.24",16.3649427569531,-2465.37658440812,2498.10646992203,"ssf","mf.ss","gamma","vonmises",158,"ssfOUT_15_6_1_KINGCOBRA","KINGCOBRA",1,0.166666666666667,15,"no effect"
"ssfOUT_15_6_1_KINGCOBRA.25",16.3934055329159,-2238.98016480359,2271.76697586942,"ssf","mf.ss","gamma","vonmises",500,"ssfOUT_15_6_1_KINGCOBRA","KINGCOBRA",1,0.166666666666667,15,"no effect"
"ssfOUT_15_6_1_KINGCOBRA.26",16.636831141453,-5535.22038137731,5568.49404366022,"ssf","mf.ss","gamma","unif",5,"ssfOUT_15_6_1_KINGCOBRA","KINGCOBRA",1,0.166666666666667,15,"no effect"
"ssfOUT_15_6_1_KINGCOBRA.27",17.0345502512174,-4893.32451708309,4927.39361758552,"ssf","mf.ss","gamma","unif",15,"ssfOUT_15_6_1_KINGCOBRA","KINGCOBRA",1,0.166666666666667,15,"no effect"
"ssfOUT_15_6_1_KINGCOBRA.28",17.237383352303,-3902.18932106833,3936.66408777293,"ssf","mf.ss","gamma","unif",50,"ssfOUT_15_6_1_KINGCOBRA","KINGCOBRA",1,0.166666666666667,15,"no effect"
"ssfOUT_15_6_1_KINGCOBRA.29",16.27316126435,-2428.78294120188,2461.32926373058,"ssf","mf.ss","gamma","unif",158,"ssfOUT_15_6_1_KINGCOBRA","KINGCOBRA",1,0.166666666666667,15,"no effect"
"ssfOUT_15_6_1_KINGCOBRA.30",16.2468810517359,-2271.4732586377,2303.96702074117,"ssf","mf.ss","gamma","unif",500,"ssfOUT_15_6_1_KINGCOBRA","KINGCOBRA",1,0.166666666666667,15,"no effect"
"ssfOUT_15_6_1_KINGCOBRA.31",17.3146288476819,-6058.07093135465,6092.70018905001,"ssf","mf.ss","exp","vonmises",5,"ssfOUT_15_6_1_KINGCOBRA","KINGCOBRA",1,0.166666666666667,15,"no effect"
"ssfOUT_15_6_1_KINGCOBRA.32",17.363909312839,-4602.5064928094,4637.23431143508,"ssf","mf.ss","exp","vonmises",15,"ssfOUT_15_6_1_KINGCOBRA","KINGCOBRA",1,0.166666666666667,15,"no effect"
"ssfOUT_15_6_1_KINGCOBRA.33",16.9593351777097,-4311.2002133019,4345.11888365732,"ssf","mf.ss","exp","vonmises",50,"ssfOUT_15_6_1_KINGCOBRA","KINGCOBRA",1,0.166666666666667,15,"no effect"
"ssfOUT_15_6_1_KINGCOBRA.34",15.9188933129429,-2500.99279061342,2532.83057723931,"ssf","mf.ss","exp","vonmises",158,"ssfOUT_15_6_1_KINGCOBRA","KINGCOBRA",1,0.166666666666667,15,"no effect"
"ssfOUT_15_6_1_KINGCOBRA.35",16.0534298098323,-2572.10932111394,2604.2161807336,"ssf","mf.ss","exp","vonmises",500,"ssfOUT_15_6_1_KINGCOBRA","KINGCOBRA",1,0.166666666666667,15,"no effect"
"ssfOUT_15_6_1_KINGCOBRA.36",16.7097105414295,-5509.16085131741,5542.58027240027,"ssf","mf.ss","exp","unif",5,"ssfOUT_15_6_1_KINGCOBRA","KINGCOBRA",1,0.166666666666667,15,"no effect"
"ssfOUT_15_6_1_KINGCOBRA.37",15.6704982000415,-3367.34317604901,3398.68417244909,"ssf","mf.ss","exp","unif",15,"ssfOUT_15_6_1_KINGCOBRA","KINGCOBRA",1,0.166666666666667,15,"no effect"
"ssfOUT_15_6_1_KINGCOBRA.38",15.9062815982007,-2854.25474067741,2886.06730387381,"ssf","mf.ss","exp","unif",50,"ssfOUT_15_6_1_KINGCOBRA","KINGCOBRA",1,0.166666666666667,15,"no effect"
"ssfOUT_15_6_1_KINGCOBRA.39",15.9047639977468,-2629.8462989676,2661.6558269631,"ssf","mf.ss","exp","unif",158,"ssfOUT_15_6_1_KINGCOBRA","KINGCOBRA",1,0.166666666666667,15,"no effect"
"ssfOUT_15_6_1_KINGCOBRA.40",15.9536168982913,-2598.03299571037,2629.94022950695,"ssf","mf.ss","exp","unif",500,"ssfOUT_15_6_1_KINGCOBRA","KINGCOBRA",1,0.166666666666667,15,"no effect"
"ssfOUT_15_6_2_BADGER.1",0.515905079421044,-0.617768314410084,1.64957847325217,"ssf","mf.is","gamma","vonmises",5,"ssfOUT_15_6_2_BADGER","BADGER",2,0.166666666666667,15,"no effect"
"ssfOUT_15_6_2_BADGER.2",0.410195089494346,-0.719641109285195,1.54003128827389,"ssf","mf.is","gamma","vonmises",15,"ssfOUT_15_6_2_BADGER","BADGER",2,0.166666666666667,15,"no effect"
"ssfOUT_15_6_2_BADGER.3",1.1486982928824,0.0886783419700008,2.2087182437948,"ssf","mf.is","gamma","vonmises",50,"ssfOUT_15_6_2_BADGER","BADGER",2,0.166666666666667,15,"preference"
"ssfOUT_15_6_2_BADGER.4",1.17160932708723,0.0798802102359408,2.26333844393851,"ssf","mf.is","gamma","vonmises",158,"ssfOUT_15_6_2_BADGER","BADGER",2,0.166666666666667,15,"preference"
"ssfOUT_15_6_2_BADGER.5",1.18530819735294,0.103196737811414,2.26741965689447,"ssf","mf.is","gamma","vonmises",500,"ssfOUT_15_6_2_BADGER","BADGER",2,0.166666666666667,15,"preference"
"ssfOUT_15_6_2_BADGER.6",0.90799689461101,-0.301579095862394,2.11757288508441,"ssf","mf.is","gamma","unif",5,"ssfOUT_15_6_2_BADGER","BADGER",2,0.166666666666667,15,"no effect"
"ssfOUT_15_6_2_BADGER.7",0.862053083026311,-0.218469081149985,1.94257524720261,"ssf","mf.is","gamma","unif",15,"ssfOUT_15_6_2_BADGER","BADGER",2,0.166666666666667,15,"no effect"
"ssfOUT_15_6_2_BADGER.8",1.40908904342371,0.314747479746743,2.50343060710068,"ssf","mf.is","gamma","unif",50,"ssfOUT_15_6_2_BADGER","BADGER",2,0.166666666666667,15,"preference"
"ssfOUT_15_6_2_BADGER.9",1.20493019465141,0.134592100949235,2.27526828835359,"ssf","mf.is","gamma","unif",158,"ssfOUT_15_6_2_BADGER","BADGER",2,0.166666666666667,15,"preference"
"ssfOUT_15_6_2_BADGER.10",1.1831083868297,0.102410246770935,2.26380652688847,"ssf","mf.is","gamma","unif",500,"ssfOUT_15_6_2_BADGER","BADGER",2,0.166666666666667,15,"preference"
"ssfOUT_15_6_2_BADGER.11",0.0952579545252385,-1.1496758861885,1.34019179523897,"ssf","mf.is","exp","vonmises",5,"ssfOUT_15_6_2_BADGER","BADGER",2,0.166666666666667,15,"no effect"
"ssfOUT_15_6_2_BADGER.12",0.687082841712233,-0.387224872056799,1.76139055548126,"ssf","mf.is","exp","vonmises",15,"ssfOUT_15_6_2_BADGER","BADGER",2,0.166666666666667,15,"no effect"
"ssfOUT_15_6_2_BADGER.13",1.03509846801933,-0.0559092788096864,2.12610621484835,"ssf","mf.is","exp","vonmises",50,"ssfOUT_15_6_2_BADGER","BADGER",2,0.166666666666667,15,"no effect"
"ssfOUT_15_6_2_BADGER.14",1.21396151278158,0.124083281021589,2.30383974454158,"ssf","mf.is","exp","vonmises",158,"ssfOUT_15_6_2_BADGER","BADGER",2,0.166666666666667,15,"preference"
"ssfOUT_15_6_2_BADGER.15",1.17955534493499,0.0993635729233198,2.25974711694667,"ssf","mf.is","exp","vonmises",500,"ssfOUT_15_6_2_BADGER","BADGER",2,0.166666666666667,15,"preference"
"ssfOUT_15_6_2_BADGER.16",0.658602809152582,-0.429344670153992,1.74655028845916,"ssf","mf.is","exp","unif",5,"ssfOUT_15_6_2_BADGER","BADGER",2,0.166666666666667,15,"no effect"
"ssfOUT_15_6_2_BADGER.17",1.00741154356336,-0.0949582153593331,2.10978130248605,"ssf","mf.is","exp","unif",15,"ssfOUT_15_6_2_BADGER","BADGER",2,0.166666666666667,15,"no effect"
"ssfOUT_15_6_2_BADGER.18",1.18504186818708,0.116839261438831,2.25324447493532,"ssf","mf.is","exp","unif",50,"ssfOUT_15_6_2_BADGER","BADGER",2,0.166666666666667,15,"preference"
"ssfOUT_15_6_2_BADGER.19",1.19633490543531,0.106791291028386,2.28587851984223,"ssf","mf.is","exp","unif",158,"ssfOUT_15_6_2_BADGER","BADGER",2,0.166666666666667,15,"preference"
"ssfOUT_15_6_2_BADGER.20",1.12013740840979,0.0398087582668576,2.20046605855272,"ssf","mf.is","exp","unif",500,"ssfOUT_15_6_2_BADGER","BADGER",2,0.166666666666667,15,"preference"
"ssfOUT_15_6_2_BADGER.21",1.08162727678357,-0.0733590514683615,2.23661360503551,"ssf","mf.ss","gamma","vonmises",5,"ssfOUT_15_6_2_BADGER","BADGER",2,0.166666666666667,15,"no effect"
"ssfOUT_15_6_2_BADGER.22",0.628723898931505,-0.521598821653894,1.7790466195169,"ssf","mf.ss","gamma","vonmises",15,"ssfOUT_15_6_2_BADGER","BADGER",2,0.166666666666667,15,"no effect"
"ssfOUT_15_6_2_BADGER.23",0.857939103104885,-0.223533795734415,1.93941200194419,"ssf","mf.ss","gamma","vonmises",50,"ssfOUT_15_6_2_BADGER","BADGER",2,0.166666666666667,15,"no effect"
"ssfOUT_15_6_2_BADGER.24",1.00534983211635,-0.0694121625511439,2.08011182678385,"ssf","mf.ss","gamma","vonmises",158,"ssfOUT_15_6_2_BADGER","BADGER",2,0.166666666666667,15,"no effect"
"ssfOUT_15_6_2_BADGER.25",0.966510535477875,-0.112427468219064,2.04544853917481,"ssf","mf.ss","gamma","vonmises",500,"ssfOUT_15_6_2_BADGER","BADGER",2,0.166666666666667,15,"no effect"
"ssfOUT_15_6_2_BADGER.26",1.06105144301771,-0.175717512555257,2.29782039859068,"ssf","mf.ss","gamma","unif",5,"ssfOUT_15_6_2_BADGER","BADGER",2,0.166666666666667,15,"no effect"
"ssfOUT_15_6_2_BADGER.27",0.882826569170966,-0.214716071130716,1.98036920947265,"ssf","mf.ss","gamma","unif",15,"ssfOUT_15_6_2_BADGER","BADGER",2,0.166666666666667,15,"no effect"
"ssfOUT_15_6_2_BADGER.28",1.3135486044604,0.21344892188918,2.41364828703163,"ssf","mf.ss","gamma","unif",50,"ssfOUT_15_6_2_BADGER","BADGER",2,0.166666666666667,15,"preference"
"ssfOUT_15_6_2_BADGER.29",1.15562331172091,0.0852613705798095,2.225985252862,"ssf","mf.ss","gamma","unif",158,"ssfOUT_15_6_2_BADGER","BADGER",2,0.166666666666667,15,"preference"
"ssfOUT_15_6_2_BADGER.30",1.11352800189381,0.0303806109464955,2.19667539284112,"ssf","mf.ss","gamma","unif",500,"ssfOUT_15_6_2_BADGER","BADGER",2,0.166666666666667,15,"preference"
"ssfOUT_15_6_2_BADGER.31",0.196304904667674,-0.928431824603211,1.32104163393856,"ssf","mf.ss","exp","vonmises",5,"ssfOUT_15_6_2_BADGER","BADGER",2,0.166666666666667,15,"no effect"
"ssfOUT_15_6_2_BADGER.32",0.942586148585907,-0.123413887884574,2.00858618505639,"ssf","mf.ss","exp","vonmises",15,"ssfOUT_15_6_2_BADGER","BADGER",2,0.166666666666667,15,"no effect"
"ssfOUT_15_6_2_BADGER.33",1.00092775166786,-0.0523644496363362,2.05421995297205,"ssf","mf.ss","exp","vonmises",50,"ssfOUT_15_6_2_BADGER","BADGER",2,0.166666666666667,15,"no effect"
"ssfOUT_15_6_2_BADGER.34",0.865557776625056,-0.192198346333876,1.92331389958399,"ssf","mf.ss","exp","vonmises",158,"ssfOUT_15_6_2_BADGER","BADGER",2,0.166666666666667,15,"no effect"
"ssfOUT_15_6_2_BADGER.35",0.885707151718596,-0.172775438686448,1.94418974212364,"ssf","mf.ss","exp","vonmises",500,"ssfOUT_15_6_2_BADGER","BADGER",2,0.166666666666667,15,"no effect"
"ssfOUT_15_6_2_BADGER.36",0.961609197230425,-0.112025286333852,2.0352436807947,"ssf","mf.ss","exp","unif",5,"ssfOUT_15_6_2_BADGER","BADGER",2,0.166666666666667,15,"no effect"
"ssfOUT_15_6_2_BADGER.37",0.860839115752972,-0.216647842068043,1.93832607357399,"ssf","mf.ss","exp","unif",15,"ssfOUT_15_6_2_BADGER","BADGER",2,0.166666666666667,15,"no effect"
"ssfOUT_15_6_2_BADGER.38",1.16113597636355,0.105459851766763,2.21681210096034,"ssf","mf.ss","exp","unif",50,"ssfOUT_15_6_2_BADGER","BADGER",2,0.166666666666667,15,"preference"
"ssfOUT_15_6_2_BADGER.39",1.07480392038962,0.00537951770249179,2.14422832307674,"ssf","mf.ss","exp","unif",158,"ssfOUT_15_6_2_BADGER","BADGER",2,0.166666666666667,15,"preference"
"ssfOUT_15_6_2_BADGER.40",1.03930167748654,-0.0223121186951278,2.10091547366821,"ssf","mf.ss","exp","unif",500,"ssfOUT_15_6_2_BADGER","BADGER",2,0.166666666666667,15,"no effect"
"ssfOUT_15_6_2_VULTURE.1",0.628058006146683,-0.466616348328638,1.722732360622,"ssf","mf.is","gamma","vonmises",5,"ssfOUT_15_6_2_VULTURE","VULTURE",2,0.166666666666667,15,"no effect"
"ssfOUT_15_6_2_VULTURE.2",-0.0662661572699177,-1.16612189341135,1.03358957887151,"ssf","mf.is","gamma","vonmises",15,"ssfOUT_15_6_2_VULTURE","VULTURE",2,0.166666666666667,15,"no effect"
"ssfOUT_15_6_2_VULTURE.3",0.27176371170699,-0.757983026996495,1.30151045041047,"ssf","mf.is","gamma","vonmises",50,"ssfOUT_15_6_2_VULTURE","VULTURE",2,0.166666666666667,15,"no effect"
"ssfOUT_15_6_2_VULTURE.4",0.378755427755654,-0.646099766949212,1.40361062246052,"ssf","mf.is","gamma","vonmises",158,"ssfOUT_15_6_2_VULTURE","VULTURE",2,0.166666666666667,15,"no effect"
"ssfOUT_15_6_2_VULTURE.5",0.403743892994633,-0.616105361859986,1.42359314784925,"ssf","mf.is","gamma","vonmises",500,"ssfOUT_15_6_2_VULTURE","VULTURE",2,0.166666666666667,15,"no effect"
"ssfOUT_15_6_2_VULTURE.6",0.828455783913839,-0.25558183809637,1.91249340592405,"ssf","mf.is","gamma","unif",5,"ssfOUT_15_6_2_VULTURE","VULTURE",2,0.166666666666667,15,"no effect"
"ssfOUT_15_6_2_VULTURE.7",0.150887119308929,-0.897649004871614,1.19942324348947,"ssf","mf.is","gamma","unif",15,"ssfOUT_15_6_2_VULTURE","VULTURE",2,0.166666666666667,15,"no effect"
"ssfOUT_15_6_2_VULTURE.8",0.151312886725801,-0.884068118295482,1.18669389174708,"ssf","mf.is","gamma","unif",50,"ssfOUT_15_6_2_VULTURE","VULTURE",2,0.166666666666667,15,"no effect"
"ssfOUT_15_6_2_VULTURE.9",0.223699740328037,-0.799722369007304,1.24712184966338,"ssf","mf.is","gamma","unif",158,"ssfOUT_15_6_2_VULTURE","VULTURE",2,0.166666666666667,15,"no effect"
"ssfOUT_15_6_2_VULTURE.10",0.265076877478924,-0.755090883260329,1.28524463821818,"ssf","mf.is","gamma","unif",500,"ssfOUT_15_6_2_VULTURE","VULTURE",2,0.166666666666667,15,"no effect"
"ssfOUT_15_6_2_VULTURE.11",-1.66872438810869,-3.24174656363776,-0.0957022125796123,"ssf","mf.is","exp","vonmises",5,"ssfOUT_15_6_2_VULTURE","VULTURE",2,0.166666666666667,15,"avoidance"
"ssfOUT_15_6_2_VULTURE.12",0.213348616018959,-0.863316774981677,1.2900140070196,"ssf","mf.is","exp","vonmises",15,"ssfOUT_15_6_2_VULTURE","VULTURE",2,0.166666666666667,15,"no effect"
"ssfOUT_15_6_2_VULTURE.13",0.214531105261488,-0.81661527842742,1.2456774889504,"ssf","mf.is","exp","vonmises",50,"ssfOUT_15_6_2_VULTURE","VULTURE",2,0.166666666666667,15,"no effect"
"ssfOUT_15_6_2_VULTURE.14",0.288671514875512,-0.735441119303323,1.31278414905435,"ssf","mf.is","exp","vonmises",158,"ssfOUT_15_6_2_VULTURE","VULTURE",2,0.166666666666667,15,"no effect"
"ssfOUT_15_6_2_VULTURE.15",0.380924442987691,-0.638914273545195,1.40076315952058,"ssf","mf.is","exp","vonmises",500,"ssfOUT_15_6_2_VULTURE","VULTURE",2,0.166666666666667,15,"no effect"
"ssfOUT_15_6_2_VULTURE.16",-0.677354039924302,-1.88839045341467,0.533682373566072,"ssf","mf.is","exp","unif",5,"ssfOUT_15_6_2_VULTURE","VULTURE",2,0.166666666666667,15,"no effect"
"ssfOUT_15_6_2_VULTURE.17",0.150410805796931,-0.901365875319429,1.20218748691329,"ssf","mf.is","exp","unif",15,"ssfOUT_15_6_2_VULTURE","VULTURE",2,0.166666666666667,15,"no effect"
"ssfOUT_15_6_2_VULTURE.18",0.35099306460057,-0.681233664605639,1.38321979380678,"ssf","mf.is","exp","unif",50,"ssfOUT_15_6_2_VULTURE","VULTURE",2,0.166666666666667,15,"no effect"
"ssfOUT_15_6_2_VULTURE.19",0.203092323031704,-0.821926710900853,1.22811135696426,"ssf","mf.is","exp","unif",158,"ssfOUT_15_6_2_VULTURE","VULTURE",2,0.166666666666667,15,"no effect"
"ssfOUT_15_6_2_VULTURE.20",0.223117902774466,-0.796946767850287,1.24318257339922,"ssf","mf.is","exp","unif",500,"ssfOUT_15_6_2_VULTURE","VULTURE",2,0.166666666666667,15,"no effect"
"ssfOUT_15_6_2_VULTURE.21",0.686998427014723,-0.415323656884862,1.78932051091431,"ssf","mf.ss","gamma","vonmises",5,"ssfOUT_15_6_2_VULTURE","VULTURE",2,0.166666666666667,15,"no effect"
"ssfOUT_15_6_2_VULTURE.22",-0.177568874627266,-1.24285815886519,0.887720409610661,"ssf","mf.ss","gamma","vonmises",15,"ssfOUT_15_6_2_VULTURE","VULTURE",2,0.166666666666667,15,"no effect"
"ssfOUT_15_6_2_VULTURE.23",0.275158680879628,-0.75262648879744,1.3029438505567,"ssf","mf.ss","gamma","vonmises",50,"ssfOUT_15_6_2_VULTURE","VULTURE",2,0.166666666666667,15,"no effect"
"ssfOUT_15_6_2_VULTURE.24",0.384842976215915,-0.636207023056362,1.40589297548819,"ssf","mf.ss","gamma","vonmises",158,"ssfOUT_15_6_2_VULTURE","VULTURE",2,0.166666666666667,15,"no effect"
"ssfOUT_15_6_2_VULTURE.25",0.332349979644121,-0.685059031574685,1.34975899086293,"ssf","mf.ss","gamma","vonmises",500,"ssfOUT_15_6_2_VULTURE","VULTURE",2,0.166666666666667,15,"no effect"
"ssfOUT_15_6_2_VULTURE.26",0.835606841244593,-0.235126000061575,1.90633968255076,"ssf","mf.ss","gamma","unif",5,"ssfOUT_15_6_2_VULTURE","VULTURE",2,0.166666666666667,15,"no effect"
"ssfOUT_15_6_2_VULTURE.27",0.18112326810497,-0.862375543602494,1.22462207981243,"ssf","mf.ss","gamma","unif",15,"ssfOUT_15_6_2_VULTURE","VULTURE",2,0.166666666666667,15,"no effect"
"ssfOUT_15_6_2_VULTURE.28",0.15677641800982,-0.874210197562366,1.18776303358201,"ssf","mf.ss","gamma","unif",50,"ssfOUT_15_6_2_VULTURE","VULTURE",2,0.166666666666667,15,"no effect"
"ssfOUT_15_6_2_VULTURE.29",0.254896007175305,-0.767338953632725,1.27713096798334,"ssf","mf.ss","gamma","unif",158,"ssfOUT_15_6_2_VULTURE","VULTURE",2,0.166666666666667,15,"no effect"
"ssfOUT_15_6_2_VULTURE.30",0.253323423467994,-0.765256815848428,1.27190366278442,"ssf","mf.ss","gamma","unif",500,"ssfOUT_15_6_2_VULTURE","VULTURE",2,0.166666666666667,15,"no effect"
"ssfOUT_15_6_2_VULTURE.31",-1.41430829227758,-2.8332655873014,0.00464900274624513,"ssf","mf.ss","exp","vonmises",5,"ssfOUT_15_6_2_VULTURE","VULTURE",2,0.166666666666667,15,"no effect"
"ssfOUT_15_6_2_VULTURE.32",0.213784117982248,-0.841686312949445,1.26925454891394,"ssf","mf.ss","exp","vonmises",15,"ssfOUT_15_6_2_VULTURE","VULTURE",2,0.166666666666667,15,"no effect"
"ssfOUT_15_6_2_VULTURE.33",0.274271091747561,-0.748481127248898,1.29702331074402,"ssf","mf.ss","exp","vonmises",50,"ssfOUT_15_6_2_VULTURE","VULTURE",2,0.166666666666667,15,"no effect"
"ssfOUT_15_6_2_VULTURE.34",0.197162765047167,-0.823705268146054,1.21803079824039,"ssf","mf.ss","exp","vonmises",158,"ssfOUT_15_6_2_VULTURE","VULTURE",2,0.166666666666667,15,"no effect"
"ssfOUT_15_6_2_VULTURE.35",0.263613147950179,-0.755348033708966,1.28257432960932,"ssf","mf.ss","exp","vonmises",500,"ssfOUT_15_6_2_VULTURE","VULTURE",2,0.166666666666667,15,"no effect"
"ssfOUT_15_6_2_VULTURE.36",-0.0941847570950537,-1.27058120362427,1.08221168943416,"ssf","mf.ss","exp","unif",5,"ssfOUT_15_6_2_VULTURE","VULTURE",2,0.166666666666667,15,"no effect"
"ssfOUT_15_6_2_VULTURE.37",0.317839431745838,-0.722783803517792,1.35846266700947,"ssf","mf.ss","exp","unif",15,"ssfOUT_15_6_2_VULTURE","VULTURE",2,0.166666666666667,15,"no effect"
"ssfOUT_15_6_2_VULTURE.38",0.303974757661252,-0.723998867766504,1.33194838308901,"ssf","mf.ss","exp","unif",50,"ssfOUT_15_6_2_VULTURE","VULTURE",2,0.166666666666667,15,"no effect"
"ssfOUT_15_6_2_VULTURE.39",0.155483637570478,-0.866968503287891,1.17793577842885,"ssf","mf.ss","exp","unif",158,"ssfOUT_15_6_2_VULTURE","VULTURE",2,0.166666666666667,15,"no effect"
"ssfOUT_15_6_2_VULTURE.40",0.179706472559208,-0.838543902963984,1.1979568480824,"ssf","mf.ss","exp","unif",500,"ssfOUT_15_6_2_VULTURE","VULTURE",2,0.166666666666667,15,"no effect"
"ssfOUT_15_6_2_KINGCOBRA.1",-0.273015039944719,-1.60207677655013,1.05604669666069,"ssf","mf.is","gamma","vonmises",5,"ssfOUT_15_6_2_KINGCOBRA","KINGCOBRA",2,0.166666666666667,15,"no effect"
"ssfOUT_15_6_2_KINGCOBRA.2",0.128911587224702,-0.975659984637345,1.23348315908675,"ssf","mf.is","gamma","vonmises",15,"ssfOUT_15_6_2_KINGCOBRA","KINGCOBRA",2,0.166666666666667,15,"no effect"
"ssfOUT_15_6_2_KINGCOBRA.3",0.0276039449187056,-1.08948330215468,1.14469119199209,"ssf","mf.is","gamma","vonmises",50,"ssfOUT_15_6_2_KINGCOBRA","KINGCOBRA",2,0.166666666666667,15,"no effect"
"ssfOUT_15_6_2_KINGCOBRA.4",-0.0855904450821921,-1.22863064345454,1.05744975329016,"ssf","mf.is","gamma","vonmises",158,"ssfOUT_15_6_2_KINGCOBRA","KINGCOBRA",2,0.166666666666667,15,"no effect"
"ssfOUT_15_6_2_KINGCOBRA.5",-0.111373700431707,-1.230840060899,1.00809266003559,"ssf","mf.is","gamma","vonmises",500,"ssfOUT_15_6_2_KINGCOBRA","KINGCOBRA",2,0.166666666666667,15,"no effect"
"ssfOUT_15_6_2_KINGCOBRA.6",-0.19203296108295,-1.31533800496709,0.931272082801186,"ssf","mf.is","gamma","unif",5,"ssfOUT_15_6_2_KINGCOBRA","KINGCOBRA",2,0.166666666666667,15,"no effect"
"ssfOUT_15_6_2_KINGCOBRA.7",-0.291705399359369,-1.4722249542493,0.888814155530563,"ssf","mf.is","gamma","unif",15,"ssfOUT_15_6_2_KINGCOBRA","KINGCOBRA",2,0.166666666666667,15,"no effect"
"ssfOUT_15_6_2_KINGCOBRA.8",-0.0309223880193117,-1.17648343335779,1.11463865731917,"ssf","mf.is","gamma","unif",50,"ssfOUT_15_6_2_KINGCOBRA","KINGCOBRA",2,0.166666666666667,15,"no effect"
"ssfOUT_15_6_2_KINGCOBRA.9",-0.171760251874555,-1.28930110503151,0.9457806012824,"ssf","mf.is","gamma","unif",158,"ssfOUT_15_6_2_KINGCOBRA","KINGCOBRA",2,0.166666666666667,15,"no effect"
"ssfOUT_15_6_2_KINGCOBRA.10",-0.0577826853693442,-1.19312660622409,1.0775612354854,"ssf","mf.is","gamma","unif",500,"ssfOUT_15_6_2_KINGCOBRA","KINGCOBRA",2,0.166666666666667,15,"no effect"
"ssfOUT_15_6_2_KINGCOBRA.11",-2.32660309204097,-3.65558786556203,-0.997618318519918,"ssf","mf.is","exp","vonmises",5,"ssfOUT_15_6_2_KINGCOBRA","KINGCOBRA",2,0.166666666666667,15,"avoidance"
"ssfOUT_15_6_2_KINGCOBRA.12",-0.757382135596947,-1.86361682551174,0.348852554317848,"ssf","mf.is","exp","vonmises",15,"ssfOUT_15_6_2_KINGCOBRA","KINGCOBRA",2,0.166666666666667,15,"no effect"
"ssfOUT_15_6_2_KINGCOBRA.13",-0.117993874850683,-1.50548544939864,1.26949769969728,"ssf","mf.is","exp","vonmises",50,"ssfOUT_15_6_2_KINGCOBRA","KINGCOBRA",2,0.166666666666667,15,"no effect"
"ssfOUT_15_6_2_KINGCOBRA.14",-0.396391499011089,-1.50937489468752,0.71659189666534,"ssf","mf.is","exp","vonmises",158,"ssfOUT_15_6_2_KINGCOBRA","KINGCOBRA",2,0.166666666666667,15,"no effect"
"ssfOUT_15_6_2_KINGCOBRA.15",-0.254768916939673,-1.395649389804,0.88611155592466,"ssf","mf.is","exp","vonmises",500,"ssfOUT_15_6_2_KINGCOBRA","KINGCOBRA",2,0.166666666666667,15,"no effect"
"ssfOUT_15_6_2_KINGCOBRA.16",-0.834773774929641,-2.1524104449036,0.48286289504432,"ssf","mf.is","exp","unif",5,"ssfOUT_15_6_2_KINGCOBRA","KINGCOBRA",2,0.166666666666667,15,"no effect"
"ssfOUT_15_6_2_KINGCOBRA.17",-1.0222948345086,-2.17722359381691,0.132633924799701,"ssf","mf.is","exp","unif",15,"ssfOUT_15_6_2_KINGCOBRA","KINGCOBRA",2,0.166666666666667,15,"no effect"
"ssfOUT_15_6_2_KINGCOBRA.18",-0.0898736352654383,-1.22242983163327,1.04268256110239,"ssf","mf.is","exp","unif",50,"ssfOUT_15_6_2_KINGCOBRA","KINGCOBRA",2,0.166666666666667,15,"no effect"
"ssfOUT_15_6_2_KINGCOBRA.19",-0.286633426068552,-1.40099919201946,0.827732339882354,"ssf","mf.is","exp","unif",158,"ssfOUT_15_6_2_KINGCOBRA","KINGCOBRA",2,0.166666666666667,15,"no effect"
"ssfOUT_15_6_2_KINGCOBRA.20",-0.288561470761238,-1.4078615985456,0.830738657023119,"ssf","mf.is","exp","unif",500,"ssfOUT_15_6_2_KINGCOBRA","KINGCOBRA",2,0.166666666666667,15,"no effect"
"ssfOUT_15_6_2_KINGCOBRA.21",-0.241072969383565,-1.42975880296092,0.94761286419379,"ssf","mf.ss","gamma","vonmises",5,"ssfOUT_15_6_2_KINGCOBRA","KINGCOBRA",2,0.166666666666667,15,"no effect"
"ssfOUT_15_6_2_KINGCOBRA.22",0.266650686828038,-0.808618617152077,1.34191999080815,"ssf","mf.ss","gamma","vonmises",15,"ssfOUT_15_6_2_KINGCOBRA","KINGCOBRA",2,0.166666666666667,15,"no effect"
"ssfOUT_15_6_2_KINGCOBRA.23",-0.141430523061754,-1.2399510392402,0.957089993116692,"ssf","mf.ss","gamma","vonmises",50,"ssfOUT_15_6_2_KINGCOBRA","KINGCOBRA",2,0.166666666666667,15,"no effect"
"ssfOUT_15_6_2_KINGCOBRA.24",-0.249488738143938,-1.35630633633884,0.857328860050965,"ssf","mf.ss","gamma","vonmises",158,"ssfOUT_15_6_2_KINGCOBRA","KINGCOBRA",2,0.166666666666667,15,"no effect"
"ssfOUT_15_6_2_KINGCOBRA.25",-0.171435660300578,-1.27438276589899,0.931511445297835,"ssf","mf.ss","gamma","vonmises",500,"ssfOUT_15_6_2_KINGCOBRA","KINGCOBRA",2,0.166666666666667,15,"no effect"
"ssfOUT_15_6_2_KINGCOBRA.26",-0.0372310676531019,-1.14392131186552,1.06945917655931,"ssf","mf.ss","gamma","unif",5,"ssfOUT_15_6_2_KINGCOBRA","KINGCOBRA",2,0.166666666666667,15,"no effect"
"ssfOUT_15_6_2_KINGCOBRA.27",-0.350305139721593,-1.53037715202206,0.829766872578874,"ssf","mf.ss","gamma","unif",15,"ssfOUT_15_6_2_KINGCOBRA","KINGCOBRA",2,0.166666666666667,15,"no effect"
"ssfOUT_15_6_2_KINGCOBRA.28",-0.218601082540386,-1.33552729685719,0.898325131776418,"ssf","mf.ss","gamma","unif",50,"ssfOUT_15_6_2_KINGCOBRA","KINGCOBRA",2,0.166666666666667,15,"no effect"
"ssfOUT_15_6_2_KINGCOBRA.29",-0.255997173773228,-1.36719962877378,0.855205281227327,"ssf","mf.ss","gamma","unif",158,"ssfOUT_15_6_2_KINGCOBRA","KINGCOBRA",2,0.166666666666667,15,"no effect"
"ssfOUT_15_6_2_KINGCOBRA.30",-0.135146205989769,-1.24927982843366,0.978987416454126,"ssf","mf.ss","gamma","unif",500,"ssfOUT_15_6_2_KINGCOBRA","KINGCOBRA",2,0.166666666666667,15,"no effect"
"ssfOUT_15_6_2_KINGCOBRA.31",-0.8023765828574,-2.03533456356178,0.430581397846981,"ssf","mf.ss","exp","vonmises",5,"ssfOUT_15_6_2_KINGCOBRA","KINGCOBRA",2,0.166666666666667,15,"no effect"
"ssfOUT_15_6_2_KINGCOBRA.32",0.0132039401661654,-1.05047493924737,1.0768828195797,"ssf","mf.ss","exp","vonmises",15,"ssfOUT_15_6_2_KINGCOBRA","KINGCOBRA",2,0.166666666666667,15,"no effect"
"ssfOUT_15_6_2_KINGCOBRA.33",-0.362576631843554,-1.42676284535329,0.70160958166618,"ssf","mf.ss","exp","vonmises",50,"ssfOUT_15_6_2_KINGCOBRA","KINGCOBRA",2,0.166666666666667,15,"no effect"
"ssfOUT_15_6_2_KINGCOBRA.34",-0.231829005503785,-1.28004124969969,0.816383238692118,"ssf","mf.ss","exp","vonmises",158,"ssfOUT_15_6_2_KINGCOBRA","KINGCOBRA",2,0.166666666666667,15,"no effect"
"ssfOUT_15_6_2_KINGCOBRA.35",-0.195863287071801,-1.23571475658758,0.843988182443974,"ssf","mf.ss","exp","vonmises",500,"ssfOUT_15_6_2_KINGCOBRA","KINGCOBRA",2,0.166666666666667,15,"no effect"
"ssfOUT_15_6_2_KINGCOBRA.36",-0.462035547608124,-1.62556666370739,0.701495568491146,"ssf","mf.ss","exp","unif",5,"ssfOUT_15_6_2_KINGCOBRA","KINGCOBRA",2,0.166666666666667,15,"no effect"
"ssfOUT_15_6_2_KINGCOBRA.37",-1.03247578088042,-2.14309242627883,0.0781408645179882,"ssf","mf.ss","exp","unif",15,"ssfOUT_15_6_2_KINGCOBRA","KINGCOBRA",2,0.166666666666667,15,"no effect"
"ssfOUT_15_6_2_KINGCOBRA.38",0.0402610103951119,-1.0062094034312,1.08673142422143,"ssf","mf.ss","exp","unif",50,"ssfOUT_15_6_2_KINGCOBRA","KINGCOBRA",2,0.166666666666667,15,"no effect"
"ssfOUT_15_6_2_KINGCOBRA.39",-0.120688496586842,-1.16658548962998,0.925208496456297,"ssf","mf.ss","exp","unif",158,"ssfOUT_15_6_2_KINGCOBRA","KINGCOBRA",2,0.166666666666667,15,"no effect"
"ssfOUT_15_6_2_KINGCOBRA.40",-0.207955685491646,-1.24344761821394,0.82753624723065,"ssf","mf.ss","exp","unif",500,"ssfOUT_15_6_2_KINGCOBRA","KINGCOBRA",2,0.166666666666667,15,"no effect"
"ssfOUT_15_6_3_BADGER.1",-0.334323692113571,-1.2033821016484,0.534734717421259,"ssf","mf.is","gamma","vonmises",5,"ssfOUT_15_6_3_BADGER","BADGER",3,0.166666666666667,15,"no effect"
"ssfOUT_15_6_3_BADGER.2",-0.607515425429158,-1.38763076352352,0.172599912665204,"ssf","mf.is","gamma","vonmises",15,"ssfOUT_15_6_3_BADGER","BADGER",3,0.166666666666667,15,"no effect"
"ssfOUT_15_6_3_BADGER.3",-0.293770271153809,-1.04282939446315,0.455288852155537,"ssf","mf.is","gamma","vonmises",50,"ssfOUT_15_6_3_BADGER","BADGER",3,0.166666666666667,15,"no effect"
"ssfOUT_15_6_3_BADGER.4",-0.175425966543938,-0.919030943362406,0.56817901027453,"ssf","mf.is","gamma","vonmises",158,"ssfOUT_15_6_3_BADGER","BADGER",3,0.166666666666667,15,"no effect"
"ssfOUT_15_6_3_BADGER.5",-0.150130247517092,-0.895497652658242,0.595237157624058,"ssf","mf.is","gamma","vonmises",500,"ssfOUT_15_6_3_BADGER","BADGER",3,0.166666666666667,15,"no effect"
"ssfOUT_15_6_3_BADGER.6",-0.611837053225798,-1.51594016512766,0.292266058676061,"ssf","mf.is","gamma","unif",5,"ssfOUT_15_6_3_BADGER","BADGER",3,0.166666666666667,15,"no effect"
"ssfOUT_15_6_3_BADGER.7",-0.817679392064518,-1.60802692186374,-0.0273318622652964,"ssf","mf.is","gamma","unif",15,"ssfOUT_15_6_3_BADGER","BADGER",3,0.166666666666667,15,"avoidance"
"ssfOUT_15_6_3_BADGER.8",-0.185394298254563,-0.94094918019157,0.570160583682445,"ssf","mf.is","gamma","unif",50,"ssfOUT_15_6_3_BADGER","BADGER",3,0.166666666666667,15,"no effect"
"ssfOUT_15_6_3_BADGER.9",-0.325595542424692,-1.07260826987608,0.421417185026692,"ssf","mf.is","gamma","unif",158,"ssfOUT_15_6_3_BADGER","BADGER",3,0.166666666666667,15,"no effect"
"ssfOUT_15_6_3_BADGER.10",-0.184845058906288,-0.928151336535828,0.558461218723251,"ssf","mf.is","gamma","unif",500,"ssfOUT_15_6_3_BADGER","BADGER",3,0.166666666666667,15,"no effect"
"ssfOUT_15_6_3_BADGER.11",-0.764581719389219,-1.68121016667276,0.152046727894319,"ssf","mf.is","exp","vonmises",5,"ssfOUT_15_6_3_BADGER","BADGER",3,0.166666666666667,15,"no effect"
"ssfOUT_15_6_3_BADGER.12",-0.0338549753135545,-0.835565168138957,0.767855217511848,"ssf","mf.is","exp","vonmises",15,"ssfOUT_15_6_3_BADGER","BADGER",3,0.166666666666667,15,"no effect"
"ssfOUT_15_6_3_BADGER.13",-0.147470848116549,-0.90610441970171,0.611162723468612,"ssf","mf.is","exp","vonmises",50,"ssfOUT_15_6_3_BADGER","BADGER",3,0.166666666666667,15,"no effect"
"ssfOUT_15_6_3_BADGER.14",-0.163683381634932,-0.912409671194143,0.585042907924279,"ssf","mf.is","exp","vonmises",158,"ssfOUT_15_6_3_BADGER","BADGER",3,0.166666666666667,15,"no effect"
"ssfOUT_15_6_3_BADGER.15",-0.251957466371914,-0.994001140381015,0.490086207637187,"ssf","mf.is","exp","vonmises",500,"ssfOUT_15_6_3_BADGER","BADGER",3,0.166666666666667,15,"no effect"
"ssfOUT_15_6_3_BADGER.16",-0.0987450760397257,-0.936533226958532,0.739043074879081,"ssf","mf.is","exp","unif",5,"ssfOUT_15_6_3_BADGER","BADGER",3,0.166666666666667,15,"no effect"
"ssfOUT_15_6_3_BADGER.17",-0.172528492931415,-0.949758473212168,0.604701487349338,"ssf","mf.is","exp","unif",15,"ssfOUT_15_6_3_BADGER","BADGER",3,0.166666666666667,15,"no effect"
"ssfOUT_15_6_3_BADGER.18",-0.18148635909997,-0.937505221536105,0.574532503336165,"ssf","mf.is","exp","unif",50,"ssfOUT_15_6_3_BADGER","BADGER",3,0.166666666666667,15,"no effect"
"ssfOUT_15_6_3_BADGER.19",0.0159199931749703,-0.724557385485444,0.756397371835384,"ssf","mf.is","exp","unif",158,"ssfOUT_15_6_3_BADGER","BADGER",3,0.166666666666667,15,"no effect"
"ssfOUT_15_6_3_BADGER.20",-0.165433186263151,-0.908642599709631,0.57777622718333,"ssf","mf.is","exp","unif",500,"ssfOUT_15_6_3_BADGER","BADGER",3,0.166666666666667,15,"no effect"
"ssfOUT_15_6_3_BADGER.21",-0.0633238523082576,-0.879675505907791,0.753027801291275,"ssf","mf.ss","gamma","vonmises",5,"ssfOUT_15_6_3_BADGER","BADGER",3,0.166666666666667,15,"no effect"
"ssfOUT_15_6_3_BADGER.22",-0.373512349478229,-1.13558610043912,0.388561401482662,"ssf","mf.ss","gamma","vonmises",15,"ssfOUT_15_6_3_BADGER","BADGER",3,0.166666666666667,15,"no effect"
"ssfOUT_15_6_3_BADGER.23",-0.3074795227674,-1.05455866459428,0.43959961905948,"ssf","mf.ss","gamma","vonmises",50,"ssfOUT_15_6_3_BADGER","BADGER",3,0.166666666666667,15,"no effect"
"ssfOUT_15_6_3_BADGER.24",-0.233943011854663,-0.976992193058692,0.509106169349367,"ssf","mf.ss","gamma","vonmises",158,"ssfOUT_15_6_3_BADGER","BADGER",3,0.166666666666667,15,"no effect"
"ssfOUT_15_6_3_BADGER.25",-0.220235400790159,-0.965484661824125,0.525013860243808,"ssf","mf.ss","gamma","vonmises",500,"ssfOUT_15_6_3_BADGER","BADGER",3,0.166666666666667,15,"no effect"
"ssfOUT_15_6_3_BADGER.26",-0.798305618480963,-1.67314388826692,0.0765326513049951,"ssf","mf.ss","gamma","unif",5,"ssfOUT_15_6_3_BADGER","BADGER",3,0.166666666666667,15,"no effect"
"ssfOUT_15_6_3_BADGER.27",-0.839984022929009,-1.62536158089148,-0.0546064649665363,"ssf","mf.ss","gamma","unif",15,"ssfOUT_15_6_3_BADGER","BADGER",3,0.166666666666667,15,"avoidance"
"ssfOUT_15_6_3_BADGER.28",-0.234654667804058,-0.991915075475585,0.522605739867468,"ssf","mf.ss","gamma","unif",50,"ssfOUT_15_6_3_BADGER","BADGER",3,0.166666666666667,15,"no effect"
"ssfOUT_15_6_3_BADGER.29",-0.345549776239332,-1.09135496464808,0.400255412169415,"ssf","mf.ss","gamma","unif",158,"ssfOUT_15_6_3_BADGER","BADGER",3,0.166666666666667,15,"no effect"
"ssfOUT_15_6_3_BADGER.30",-0.218796240720612,-0.960765562017953,0.52317308057673,"ssf","mf.ss","gamma","unif",500,"ssfOUT_15_6_3_BADGER","BADGER",3,0.166666666666667,15,"no effect"
"ssfOUT_15_6_3_BADGER.31",-0.661047385986304,-1.5502405032982,0.228145731325594,"ssf","mf.ss","exp","vonmises",5,"ssfOUT_15_6_3_BADGER","BADGER",3,0.166666666666667,15,"no effect"
"ssfOUT_15_6_3_BADGER.32",-0.297867263685338,-1.07753568376997,0.481801156399296,"ssf","mf.ss","exp","vonmises",15,"ssfOUT_15_6_3_BADGER","BADGER",3,0.166666666666667,15,"no effect"
"ssfOUT_15_6_3_BADGER.33",-0.242343262806283,-0.994615625555581,0.509929099943016,"ssf","mf.ss","exp","vonmises",50,"ssfOUT_15_6_3_BADGER","BADGER",3,0.166666666666667,15,"no effect"
"ssfOUT_15_6_3_BADGER.34",-0.17710308418318,-0.925356642800424,0.571150474434064,"ssf","mf.ss","exp","vonmises",158,"ssfOUT_15_6_3_BADGER","BADGER",3,0.166666666666667,15,"no effect"
"ssfOUT_15_6_3_BADGER.35",-0.249775269777588,-0.995299532121575,0.4957489925664,"ssf","mf.ss","exp","vonmises",500,"ssfOUT_15_6_3_BADGER","BADGER",3,0.166666666666667,15,"no effect"
"ssfOUT_15_6_3_BADGER.36",0.0168479941678803,-0.833936711005766,0.867632699341527,"ssf","mf.ss","exp","unif",5,"ssfOUT_15_6_3_BADGER","BADGER",3,0.166666666666667,15,"no effect"
"ssfOUT_15_6_3_BADGER.37",-0.305735177921147,-1.08172194680005,0.470251590957757,"ssf","mf.ss","exp","unif",15,"ssfOUT_15_6_3_BADGER","BADGER",3,0.166666666666667,15,"no effect"
"ssfOUT_15_6_3_BADGER.38",-0.25073011349348,-1.01223260894274,0.510772381955776,"ssf","mf.ss","exp","unif",50,"ssfOUT_15_6_3_BADGER","BADGER",3,0.166666666666667,15,"no effect"
"ssfOUT_15_6_3_BADGER.39",-0.0497773980967163,-0.790868614206275,0.691313818012842,"ssf","mf.ss","exp","unif",158,"ssfOUT_15_6_3_BADGER","BADGER",3,0.166666666666667,15,"no effect"
"ssfOUT_15_6_3_BADGER.40",-0.219902735857358,-0.962823746036437,0.52301827432172,"ssf","mf.ss","exp","unif",500,"ssfOUT_15_6_3_BADGER","BADGER",3,0.166666666666667,15,"no effect"
"ssfOUT_15_6_3_VULTURE.1",-0.860093461134279,-2.11085108912898,0.390664166860418,"ssf","mf.is","gamma","vonmises",5,"ssfOUT_15_6_3_VULTURE","VULTURE",3,0.166666666666667,15,"no effect"
"ssfOUT_15_6_3_VULTURE.2",-0.202430488241767,-1.26968266075048,0.864821684266947,"ssf","mf.is","gamma","vonmises",15,"ssfOUT_15_6_3_VULTURE","VULTURE",3,0.166666666666667,15,"no effect"
"ssfOUT_15_6_3_VULTURE.3",-0.135163825844463,-1.17686765332399,0.906540001635069,"ssf","mf.is","gamma","vonmises",50,"ssfOUT_15_6_3_VULTURE","VULTURE",3,0.166666666666667,15,"no effect"
"ssfOUT_15_6_3_VULTURE.4",-0.14832863215083,-1.18161677307024,0.884959508768582,"ssf","mf.is","gamma","vonmises",158,"ssfOUT_15_6_3_VULTURE","VULTURE",3,0.166666666666667,15,"no effect"
"ssfOUT_15_6_3_VULTURE.5",-0.0144330915848183,-1.04708616310117,1.01821997993153,"ssf","mf.is","gamma","vonmises",500,"ssfOUT_15_6_3_VULTURE","VULTURE",3,0.166666666666667,15,"no effect"
"ssfOUT_15_6_3_VULTURE.6",0.605346465397247,-0.470687269674258,1.68138020046875,"ssf","mf.is","gamma","unif",5,"ssfOUT_15_6_3_VULTURE","VULTURE",3,0.166666666666667,15,"no effect"
"ssfOUT_15_6_3_VULTURE.7",0.0193811295065839,-1.07138694926909,1.11014920828226,"ssf","mf.is","gamma","unif",15,"ssfOUT_15_6_3_VULTURE","VULTURE",3,0.166666666666667,15,"no effect"
"ssfOUT_15_6_3_VULTURE.8",0.193731799682105,-0.839024373211517,1.22648797257573,"ssf","mf.is","gamma","unif",50,"ssfOUT_15_6_3_VULTURE","VULTURE",3,0.166666666666667,15,"no effect"
"ssfOUT_15_6_3_VULTURE.9",0.0588319110345223,-0.972838741439608,1.09050256350865,"ssf","mf.is","gamma","unif",158,"ssfOUT_15_6_3_VULTURE","VULTURE",3,0.166666666666667,15,"no effect"
"ssfOUT_15_6_3_VULTURE.10",0.0807436502506496,-0.948204029158852,1.10969132966015,"ssf","mf.is","gamma","unif",500,"ssfOUT_15_6_3_VULTURE","VULTURE",3,0.166666666666667,15,"no effect"
"ssfOUT_15_6_3_VULTURE.11",-0.310051331938413,-1.47122513789823,0.851122474021409,"ssf","mf.is","exp","vonmises",5,"ssfOUT_15_6_3_VULTURE","VULTURE",3,0.166666666666667,15,"no effect"
"ssfOUT_15_6_3_VULTURE.12",-0.204365474571159,-1.2764338551193,0.867702905976982,"ssf","mf.is","exp","vonmises",15,"ssfOUT_15_6_3_VULTURE","VULTURE",3,0.166666666666667,15,"no effect"
"ssfOUT_15_6_3_VULTURE.13",0.265311261085637,-0.776526397844664,1.30714892001594,"ssf","mf.is","exp","vonmises",50,"ssfOUT_15_6_3_VULTURE","VULTURE",3,0.166666666666667,15,"no effect"
"ssfOUT_15_6_3_VULTURE.14",0.0957324545131328,-0.939299862273808,1.13076477130007,"ssf","mf.is","exp","vonmises",158,"ssfOUT_15_6_3_VULTURE","VULTURE",3,0.166666666666667,15,"no effect"
"ssfOUT_15_6_3_VULTURE.15",0.145813026781729,-0.884615138580897,1.17624119214435,"ssf","mf.is","exp","vonmises",500,"ssfOUT_15_6_3_VULTURE","VULTURE",3,0.166666666666667,15,"no effect"
"ssfOUT_15_6_3_VULTURE.16",-0.13587334144029,-1.34387363288393,1.07212695000335,"ssf","mf.is","exp","unif",5,"ssfOUT_15_6_3_VULTURE","VULTURE",3,0.166666666666667,15,"no effect"
"ssfOUT_15_6_3_VULTURE.17",-0.120461761298877,-1.22360698822531,0.982683465627558,"ssf","mf.is","exp","unif",15,"ssfOUT_15_6_3_VULTURE","VULTURE",3,0.166666666666667,15,"no effect"
"ssfOUT_15_6_3_VULTURE.18",0.133261165717799,-0.915604102083673,1.18212643351927,"ssf","mf.is","exp","unif",50,"ssfOUT_15_6_3_VULTURE","VULTURE",3,0.166666666666667,15,"no effect"
"ssfOUT_15_6_3_VULTURE.19",-0.0381830703331803,-1.08899382061521,1.01262767994885,"ssf","mf.is","exp","unif",158,"ssfOUT_15_6_3_VULTURE","VULTURE",3,0.166666666666667,15,"no effect"
"ssfOUT_15_6_3_VULTURE.20",0.127492454082517,-0.900825906882995,1.15581081504803,"ssf","mf.is","exp","unif",500,"ssfOUT_15_6_3_VULTURE","VULTURE",3,0.166666666666667,15,"no effect"
"ssfOUT_15_6_3_VULTURE.21",-0.647429599758521,-1.87882375440918,0.58396455489214,"ssf","mf.ss","gamma","vonmises",5,"ssfOUT_15_6_3_VULTURE","VULTURE",3,0.166666666666667,15,"no effect"
"ssfOUT_15_6_3_VULTURE.22",-0.223900869550736,-1.28438366569595,0.836581926594483,"ssf","mf.ss","gamma","vonmises",15,"ssfOUT_15_6_3_VULTURE","VULTURE",3,0.166666666666667,15,"no effect"
"ssfOUT_15_6_3_VULTURE.23",-0.110051885714538,-1.1433741048653,0.923270333436226,"ssf","mf.ss","gamma","vonmises",50,"ssfOUT_15_6_3_VULTURE","VULTURE",3,0.166666666666667,15,"no effect"
"ssfOUT_15_6_3_VULTURE.24",-0.0855654923750264,-1.1110969854865,0.939966000736444,"ssf","mf.ss","gamma","vonmises",158,"ssfOUT_15_6_3_VULTURE","VULTURE",3,0.166666666666667,15,"no effect"
"ssfOUT_15_6_3_VULTURE.25",0.0139212656266272,-1.01323965099426,1.04108218224751,"ssf","mf.ss","gamma","vonmises",500,"ssfOUT_15_6_3_VULTURE","VULTURE",3,0.166666666666667,15,"no effect"
"ssfOUT_15_6_3_VULTURE.26",0.602275544509093,-0.472744018436332,1.67729510745452,"ssf","mf.ss","gamma","unif",5,"ssfOUT_15_6_3_VULTURE","VULTURE",3,0.166666666666667,15,"no effect"
"ssfOUT_15_6_3_VULTURE.27",0.0641644050538269,-1.0186451577381,1.14697396784575,"ssf","mf.ss","gamma","unif",15,"ssfOUT_15_6_3_VULTURE","VULTURE",3,0.166666666666667,15,"no effect"
"ssfOUT_15_6_3_VULTURE.28",0.290829009994258,-0.735788870775661,1.31744689076418,"ssf","mf.ss","gamma","unif",50,"ssfOUT_15_6_3_VULTURE","VULTURE",3,0.166666666666667,15,"no effect"
"ssfOUT_15_6_3_VULTURE.29",0.115899079147257,-0.906551294055535,1.13834945235005,"ssf","mf.ss","gamma","unif",158,"ssfOUT_15_6_3_VULTURE","VULTURE",3,0.166666666666667,15,"no effect"
"ssfOUT_15_6_3_VULTURE.30",0.129769294989409,-0.893147721663879,1.1526863116427,"ssf","mf.ss","gamma","unif",500,"ssfOUT_15_6_3_VULTURE","VULTURE",3,0.166666666666667,15,"no effect"
"ssfOUT_15_6_3_VULTURE.31",0.277210682669147,-0.824799755775307,1.3792211211136,"ssf","mf.ss","exp","vonmises",5,"ssfOUT_15_6_3_VULTURE","VULTURE",3,0.166666666666667,15,"no effect"
"ssfOUT_15_6_3_VULTURE.32",0.0452325217148467,-1.00457559854799,1.09504064197768,"ssf","mf.ss","exp","vonmises",15,"ssfOUT_15_6_3_VULTURE","VULTURE",3,0.166666666666667,15,"no effect"
"ssfOUT_15_6_3_VULTURE.33",0.187468936040842,-0.851089666638654,1.22602753872034,"ssf","mf.ss","exp","vonmises",50,"ssfOUT_15_6_3_VULTURE","VULTURE",3,0.166666666666667,15,"no effect"
"ssfOUT_15_6_3_VULTURE.34",0.114546614020543,-0.921965608547698,1.15105883658878,"ssf","mf.ss","exp","vonmises",158,"ssfOUT_15_6_3_VULTURE","VULTURE",3,0.166666666666667,15,"no effect"
"ssfOUT_15_6_3_VULTURE.35",0.168210622927806,-0.869697537935151,1.20611878379076,"ssf","mf.ss","exp","vonmises",500,"ssfOUT_15_6_3_VULTURE","VULTURE",3,0.166666666666667,15,"no effect"
"ssfOUT_15_6_3_VULTURE.36",-0.235596290158445,-1.39421930113398,0.923026720817092,"ssf","mf.ss","exp","unif",5,"ssfOUT_15_6_3_VULTURE","VULTURE",3,0.166666666666667,15,"no effect"
"ssfOUT_15_6_3_VULTURE.37",0.141052911645906,-0.918821476318211,1.20092729961002,"ssf","mf.ss","exp","unif",15,"ssfOUT_15_6_3_VULTURE","VULTURE",3,0.166666666666667,15,"no effect"
"ssfOUT_15_6_3_VULTURE.38",0.192887292309047,-0.853314067642337,1.23908865226043,"ssf","mf.ss","exp","unif",50,"ssfOUT_15_6_3_VULTURE","VULTURE",3,0.166666666666667,15,"no effect"
"ssfOUT_15_6_3_VULTURE.39",-0.0144682474614876,-1.06062289864057,1.0316864037176,"ssf","mf.ss","exp","unif",158,"ssfOUT_15_6_3_VULTURE","VULTURE",3,0.166666666666667,15,"no effect"
"ssfOUT_15_6_3_VULTURE.40",0.144574944598609,-0.885583626166788,1.174733515364,"ssf","mf.ss","exp","unif",500,"ssfOUT_15_6_3_VULTURE","VULTURE",3,0.166666666666667,15,"no effect"
"ssfOUT_15_6_3_KINGCOBRA.1",0.746141507557937,0.268606068377411,1.22367694673846,"ssf","mf.is","gamma","vonmises",5,"ssfOUT_15_6_3_KINGCOBRA","KINGCOBRA",3,0.166666666666667,15,"preference"
"ssfOUT_15_6_3_KINGCOBRA.2",14.6414906637437,-4901.97006712874,4931.25304845622,"ssf","mf.is","gamma","vonmises",15,"ssfOUT_15_6_3_KINGCOBRA","KINGCOBRA",3,0.166666666666667,15,"no effect"
"ssfOUT_15_6_3_KINGCOBRA.3",14.2354909641105,-2996.21312409388,3024.6841060221,"ssf","mf.is","gamma","vonmises",50,"ssfOUT_15_6_3_KINGCOBRA","KINGCOBRA",3,0.166666666666667,15,"no effect"
"ssfOUT_15_6_3_KINGCOBRA.4",14.536702232103,-3590.52365054448,3619.59705500869,"ssf","mf.is","gamma","vonmises",158,"ssfOUT_15_6_3_KINGCOBRA","KINGCOBRA",3,0.166666666666667,15,"no effect"
"ssfOUT_15_6_3_KINGCOBRA.5",14.4818442506333,-2864.62594889356,2893.58963739483,"ssf","mf.is","gamma","vonmises",500,"ssfOUT_15_6_3_KINGCOBRA","KINGCOBRA",3,0.166666666666667,15,"no effect"
"ssfOUT_15_6_3_KINGCOBRA.6",14.5626294553287,-4732.70986193645,4761.83512084711,"ssf","mf.is","gamma","unif",5,"ssfOUT_15_6_3_KINGCOBRA","KINGCOBRA",3,0.166666666666667,15,"no effect"
"ssfOUT_15_6_3_KINGCOBRA.7",14.6276832293008,-4537.49692374516,4566.75229020376,"ssf","mf.is","gamma","unif",15,"ssfOUT_15_6_3_KINGCOBRA","KINGCOBRA",3,0.166666666666667,15,"no effect"
"ssfOUT_15_6_3_KINGCOBRA.8",14.2949648111047,-3264.23833157718,3292.82826119939,"ssf","mf.is","gamma","unif",50,"ssfOUT_15_6_3_KINGCOBRA","KINGCOBRA",3,0.166666666666667,15,"no effect"
"ssfOUT_15_6_3_KINGCOBRA.9",14.5342073738564,-2877.37061362915,2906.43902837687,"ssf","mf.is","gamma","unif",158,"ssfOUT_15_6_3_KINGCOBRA","KINGCOBRA",3,0.166666666666667,15,"no effect"
"ssfOUT_15_6_3_KINGCOBRA.10",14.4991196803323,-3084.65883518887,3113.65707454953,"ssf","mf.is","gamma","unif",500,"ssfOUT_15_6_3_KINGCOBRA","KINGCOBRA",3,0.166666666666667,15,"no effect"
"ssfOUT_15_6_3_KINGCOBRA.11",17.0179073967103,-4734.35031065989,4768.38612545331,"ssf","mf.is","exp","vonmises",5,"ssfOUT_15_6_3_KINGCOBRA","KINGCOBRA",3,0.166666666666667,15,"no effect"
"ssfOUT_15_6_3_KINGCOBRA.12",16.3169355321794,-5387.89465619735,5420.52852726171,"ssf","mf.is","exp","vonmises",15,"ssfOUT_15_6_3_KINGCOBRA","KINGCOBRA",3,0.166666666666667,15,"no effect"
"ssfOUT_15_6_3_KINGCOBRA.13",15.5633309449068,-4053.76200243774,4084.88866432755,"ssf","mf.is","exp","vonmises",50,"ssfOUT_15_6_3_KINGCOBRA","KINGCOBRA",3,0.166666666666667,15,"no effect"
"ssfOUT_15_6_3_KINGCOBRA.14",14.2550328398236,-3671.78825183597,3700.29831751562,"ssf","mf.is","exp","vonmises",158,"ssfOUT_15_6_3_KINGCOBRA","KINGCOBRA",3,0.166666666666667,15,"no effect"
"ssfOUT_15_6_3_KINGCOBRA.15",14.7086885130405,-2919.43245709126,2948.84983411734,"ssf","mf.is","exp","vonmises",500,"ssfOUT_15_6_3_KINGCOBRA","KINGCOBRA",3,0.166666666666667,15,"no effect"
"ssfOUT_15_6_3_KINGCOBRA.16",17.4289041137041,-4923.11117066968,4957.96897889709,"ssf","mf.is","exp","unif",5,"ssfOUT_15_6_3_KINGCOBRA","KINGCOBRA",3,0.166666666666667,15,"no effect"
"ssfOUT_15_6_3_KINGCOBRA.17",12.1297991533974,-3921.93585304682,3946.19545135362,"ssf","mf.is","exp","unif",15,"ssfOUT_15_6_3_KINGCOBRA","KINGCOBRA",3,0.166666666666667,15,"no effect"
"ssfOUT_15_6_3_KINGCOBRA.18",15.500379117758,-4784.5968506146,4815.59760885012,"ssf","mf.is","exp","unif",50,"ssfOUT_15_6_3_KINGCOBRA","KINGCOBRA",3,0.166666666666667,15,"no effect"
"ssfOUT_15_6_3_KINGCOBRA.19",14.8587701824075,-3812.65407957113,3842.37161993594,"ssf","mf.is","exp","unif",158,"ssfOUT_15_6_3_KINGCOBRA","KINGCOBRA",3,0.166666666666667,15,"no effect"
"ssfOUT_15_6_3_KINGCOBRA.20",14.5531590531572,-3221.91352011175,3251.01983821807,"ssf","mf.is","exp","unif",500,"ssfOUT_15_6_3_KINGCOBRA","KINGCOBRA",3,0.166666666666667,15,"no effect"
"ssfOUT_15_6_3_KINGCOBRA.21",0.878329665678782,0.414673573143057,1.34198575821451,"ssf","mf.ss","gamma","vonmises",5,"ssfOUT_15_6_3_KINGCOBRA","KINGCOBRA",3,0.166666666666667,15,"preference"
"ssfOUT_15_6_3_KINGCOBRA.22",14.4121127563802,-4606.78258349081,4635.60680900357,"ssf","mf.ss","gamma","vonmises",15,"ssfOUT_15_6_3_KINGCOBRA","KINGCOBRA",3,0.166666666666667,15,"no effect"
"ssfOUT_15_6_3_KINGCOBRA.23",15.2820532025869,-4413.05579757801,4443.61990398319,"ssf","mf.ss","gamma","vonmises",50,"ssfOUT_15_6_3_KINGCOBRA","KINGCOBRA",3,0.166666666666667,15,"no effect"
"ssfOUT_15_6_3_KINGCOBRA.24",14.3547148092072,-3234.99673935274,3263.70616897116,"ssf","mf.ss","gamma","vonmises",158,"ssfOUT_15_6_3_KINGCOBRA","KINGCOBRA",3,0.166666666666667,15,"no effect"
"ssfOUT_15_6_3_KINGCOBRA.25",14.24310650342,-2849.00371382639,2877.48992683323,"ssf","mf.ss","gamma","vonmises",500,"ssfOUT_15_6_3_KINGCOBRA","KINGCOBRA",3,0.166666666666667,15,"no effect"
"ssfOUT_15_6_3_KINGCOBRA.26",15.2929583187794,-4665.38458920279,4695.97050584035,"ssf","mf.ss","gamma","unif",5,"ssfOUT_15_6_3_KINGCOBRA","KINGCOBRA",3,0.166666666666667,15,"no effect"
"ssfOUT_15_6_3_KINGCOBRA.27",14.1576339387042,-4487.19675704786,4515.51202492526,"ssf","mf.ss","gamma","unif",15,"ssfOUT_15_6_3_KINGCOBRA","KINGCOBRA",3,0.166666666666667,15,"no effect"
"ssfOUT_15_6_3_KINGCOBRA.28",14.2276644988166,-3020.49106584882,3048.94639484645,"ssf","mf.ss","gamma","unif",50,"ssfOUT_15_6_3_KINGCOBRA","KINGCOBRA",3,0.166666666666667,15,"no effect"
"ssfOUT_15_6_3_KINGCOBRA.29",14.2429407589894,-2813.16395363655,2841.64983515453,"ssf","mf.ss","gamma","unif",158,"ssfOUT_15_6_3_KINGCOBRA","KINGCOBRA",3,0.166666666666667,15,"no effect"
"ssfOUT_15_6_3_KINGCOBRA.30",14.3159201008076,-3006.09322863752,3034.72506883914,"ssf","mf.ss","gamma","unif",500,"ssfOUT_15_6_3_KINGCOBRA","KINGCOBRA",3,0.166666666666667,15,"no effect"
"ssfOUT_15_6_3_KINGCOBRA.31",15.465770553547,-4758.71546245446,4789.64700356155,"ssf","mf.ss","exp","vonmises",5,"ssfOUT_15_6_3_KINGCOBRA","KINGCOBRA",3,0.166666666666667,15,"no effect"
"ssfOUT_15_6_3_KINGCOBRA.32",15.4018720844242,-5379.93074795478,5410.73449212363,"ssf","mf.ss","exp","vonmises",15,"ssfOUT_15_6_3_KINGCOBRA","KINGCOBRA",3,0.166666666666667,15,"no effect"
"ssfOUT_15_6_3_KINGCOBRA.33",14.321950483818,-3039.08318738748,3067.72708835512,"ssf","mf.ss","exp","vonmises",50,"ssfOUT_15_6_3_KINGCOBRA","KINGCOBRA",3,0.166666666666667,15,"no effect"
"ssfOUT_15_6_3_KINGCOBRA.34",14.4373352402378,-3677.06154943818,3705.93621991866,"ssf","mf.ss","exp","vonmises",158,"ssfOUT_15_6_3_KINGCOBRA","KINGCOBRA",3,0.166666666666667,15,"no effect"
"ssfOUT_15_6_3_KINGCOBRA.35",14.3483884112669,-3496.55258099992,3525.24935782245,"ssf","mf.ss","exp","vonmises",500,"ssfOUT_15_6_3_KINGCOBRA","KINGCOBRA",3,0.166666666666667,15,"no effect"
"ssfOUT_15_6_3_KINGCOBRA.36",15.9216582602145,-4901.23810890488,4933.08142542531,"ssf","mf.ss","exp","unif",5,"ssfOUT_15_6_3_KINGCOBRA","KINGCOBRA",3,0.166666666666667,15,"no effect"
"ssfOUT_15_6_3_KINGCOBRA.37",14.6410734890278,-4728.35254991091,4757.63469688897,"ssf","mf.ss","exp","unif",15,"ssfOUT_15_6_3_KINGCOBRA","KINGCOBRA",3,0.166666666666667,15,"no effect"
"ssfOUT_15_6_3_KINGCOBRA.38",14.5746787495484,-4096.59829634879,4125.74765384788,"ssf","mf.ss","exp","unif",50,"ssfOUT_15_6_3_KINGCOBRA","KINGCOBRA",3,0.166666666666667,15,"no effect"
"ssfOUT_15_6_3_KINGCOBRA.39",14.3766408142012,-3423.78550568356,3452.53878731196,"ssf","mf.ss","exp","unif",158,"ssfOUT_15_6_3_KINGCOBRA","KINGCOBRA",3,0.166666666666667,15,"no effect"
"ssfOUT_15_6_3_KINGCOBRA.40",14.3849538304141,-3291.27634437668,3320.04625203751,"ssf","mf.ss","exp","unif",500,"ssfOUT_15_6_3_KINGCOBRA","KINGCOBRA",3,0.166666666666667,15,"no effect"
"ssfOUT_15_6_4_BADGER.1",-0.561795950943307,-1.82101234807246,0.697420446185848,"ssf","mf.is","gamma","vonmises",5,"ssfOUT_15_6_4_BADGER","BADGER",4,0.166666666666667,15,"no effect"
"ssfOUT_15_6_4_BADGER.2",0.460435411644072,-0.609478220007571,1.53034904329572,"ssf","mf.is","gamma","vonmises",15,"ssfOUT_15_6_4_BADGER","BADGER",4,0.166666666666667,15,"no effect"
"ssfOUT_15_6_4_BADGER.3",0.499576336286438,-0.542478497456996,1.54163117002987,"ssf","mf.is","gamma","vonmises",50,"ssfOUT_15_6_4_BADGER","BADGER",4,0.166666666666667,15,"no effect"
"ssfOUT_15_6_4_BADGER.4",0.485548950354892,-0.54341135620863,1.51450925691842,"ssf","mf.is","gamma","vonmises",158,"ssfOUT_15_6_4_BADGER","BADGER",4,0.166666666666667,15,"no effect"
"ssfOUT_15_6_4_BADGER.5",0.437532616121127,-0.586825994343701,1.46189122658595,"ssf","mf.is","gamma","vonmises",500,"ssfOUT_15_6_4_BADGER","BADGER",4,0.166666666666667,15,"no effect"
"ssfOUT_15_6_4_BADGER.6",-0.799060195380904,-2.08820256986037,0.490082179098561,"ssf","mf.is","gamma","unif",5,"ssfOUT_15_6_4_BADGER","BADGER",4,0.166666666666667,15,"no effect"
"ssfOUT_15_6_4_BADGER.7",0.874913309086205,-0.170278010310684,1.92010462848309,"ssf","mf.is","gamma","unif",15,"ssfOUT_15_6_4_BADGER","BADGER",4,0.166666666666667,15,"no effect"
"ssfOUT_15_6_4_BADGER.8",0.685018054180193,-0.349438656442959,1.71947476480335,"ssf","mf.is","gamma","unif",50,"ssfOUT_15_6_4_BADGER","BADGER",4,0.166666666666667,15,"no effect"
"ssfOUT_15_6_4_BADGER.9",0.562919294296413,-0.469799586988111,1.59563817558094,"ssf","mf.is","gamma","unif",158,"ssfOUT_15_6_4_BADGER","BADGER",4,0.166666666666667,15,"no effect"
"ssfOUT_15_6_4_BADGER.10",0.564425021525396,-0.460508167198148,1.58935821024894,"ssf","mf.is","gamma","unif",500,"ssfOUT_15_6_4_BADGER","BADGER",4,0.166666666666667,15,"no effect"
"ssfOUT_15_6_4_BADGER.11",-0.955177163415731,-2.45347674024828,0.543122413416823,"ssf","mf.is","exp","vonmises",5,"ssfOUT_15_6_4_BADGER","BADGER",4,0.166666666666667,15,"no effect"
"ssfOUT_15_6_4_BADGER.12",-0.0955820786081034,-1.17591709516926,0.984752937953054,"ssf","mf.is","exp","vonmises",15,"ssfOUT_15_6_4_BADGER","BADGER",4,0.166666666666667,15,"no effect"
"ssfOUT_15_6_4_BADGER.13",0.587730693889945,-0.455517443412093,1.63097883119198,"ssf","mf.is","exp","vonmises",50,"ssfOUT_15_6_4_BADGER","BADGER",4,0.166666666666667,15,"no effect"
"ssfOUT_15_6_4_BADGER.14",0.528230739566069,-0.498841613887609,1.55530309301975,"ssf","mf.is","exp","vonmises",158,"ssfOUT_15_6_4_BADGER","BADGER",4,0.166666666666667,15,"no effect"
"ssfOUT_15_6_4_BADGER.15",0.574631131826077,-0.450551284123885,1.59981354777604,"ssf","mf.is","exp","vonmises",500,"ssfOUT_15_6_4_BADGER","BADGER",4,0.166666666666667,15,"no effect"
"ssfOUT_15_6_4_BADGER.16",0.855076541653987,-0.245443328663456,1.95559641197143,"ssf","mf.is","exp","unif",5,"ssfOUT_15_6_4_BADGER","BADGER",4,0.166666666666667,15,"no effect"
"ssfOUT_15_6_4_BADGER.17",0.502998666520979,-0.57624731896851,1.58224465201047,"ssf","mf.is","exp","unif",15,"ssfOUT_15_6_4_BADGER","BADGER",4,0.166666666666667,15,"no effect"
"ssfOUT_15_6_4_BADGER.18",0.455056845220173,-0.576293027254243,1.48640671769459,"ssf","mf.is","exp","unif",50,"ssfOUT_15_6_4_BADGER","BADGER",4,0.166666666666667,15,"no effect"
"ssfOUT_15_6_4_BADGER.19",0.532019282752733,-0.494322164592113,1.55836073009758,"ssf","mf.is","exp","unif",158,"ssfOUT_15_6_4_BADGER","BADGER",4,0.166666666666667,15,"no effect"
"ssfOUT_15_6_4_BADGER.20",0.625478470108275,-0.398458927718512,1.64941586793506,"ssf","mf.is","exp","unif",500,"ssfOUT_15_6_4_BADGER","BADGER",4,0.166666666666667,15,"no effect"
"ssfOUT_15_6_4_BADGER.21",-0.603038193991522,-1.83318691416583,0.627110526182786,"ssf","mf.ss","gamma","vonmises",5,"ssfOUT_15_6_4_BADGER","BADGER",4,0.166666666666667,15,"no effect"
"ssfOUT_15_6_4_BADGER.22",0.503829604402139,-0.538669125645147,1.54632833444943,"ssf","mf.ss","gamma","vonmises",15,"ssfOUT_15_6_4_BADGER","BADGER",4,0.166666666666667,15,"no effect"
"ssfOUT_15_6_4_BADGER.23",0.445775960847413,-0.58226264922395,1.47381457091878,"ssf","mf.ss","gamma","vonmises",50,"ssfOUT_15_6_4_BADGER","BADGER",4,0.166666666666667,15,"no effect"
"ssfOUT_15_6_4_BADGER.24",0.298834406484345,-0.72409811700212,1.32176692997081,"ssf","mf.ss","gamma","vonmises",158,"ssfOUT_15_6_4_BADGER","BADGER",4,0.166666666666667,15,"no effect"
"ssfOUT_15_6_4_BADGER.25",0.374305556208058,-0.64817047235291,1.39678158476903,"ssf","mf.ss","gamma","vonmises",500,"ssfOUT_15_6_4_BADGER","BADGER",4,0.166666666666667,15,"no effect"
"ssfOUT_15_6_4_BADGER.26",-0.695927262672416,-1.92302827569443,0.531173750349597,"ssf","mf.ss","gamma","unif",5,"ssfOUT_15_6_4_BADGER","BADGER",4,0.166666666666667,15,"no effect"
"ssfOUT_15_6_4_BADGER.27",0.737941630248695,-0.300244080587118,1.77612734108451,"ssf","mf.ss","gamma","unif",15,"ssfOUT_15_6_4_BADGER","BADGER",4,0.166666666666667,15,"no effect"
"ssfOUT_15_6_4_BADGER.28",0.604769195055166,-0.428191672028336,1.63773006213867,"ssf","mf.ss","gamma","unif",50,"ssfOUT_15_6_4_BADGER","BADGER",4,0.166666666666667,15,"no effect"
"ssfOUT_15_6_4_BADGER.29",0.450592450610589,-0.574402092769723,1.4755869939909,"ssf","mf.ss","gamma","unif",158,"ssfOUT_15_6_4_BADGER","BADGER",4,0.166666666666667,15,"no effect"
"ssfOUT_15_6_4_BADGER.30",0.467513890852939,-0.55348976968207,1.48851755138795,"ssf","mf.ss","gamma","unif",500,"ssfOUT_15_6_4_BADGER","BADGER",4,0.166666666666667,15,"no effect"
"ssfOUT_15_6_4_BADGER.31",-1.37175913382962,-2.7911064234397,0.0475881557804516,"ssf","mf.ss","exp","vonmises",5,"ssfOUT_15_6_4_BADGER","BADGER",4,0.166666666666667,15,"no effect"
"ssfOUT_15_6_4_BADGER.32",0.331226078000117,-0.718457112613025,1.38090926861326,"ssf","mf.ss","exp","vonmises",15,"ssfOUT_15_6_4_BADGER","BADGER",4,0.166666666666667,15,"no effect"
"ssfOUT_15_6_4_BADGER.33",0.595075951393588,-0.435194171139174,1.62534607392635,"ssf","mf.ss","exp","vonmises",50,"ssfOUT_15_6_4_BADGER","BADGER",4,0.166666666666667,15,"no effect"
"ssfOUT_15_6_4_BADGER.34",0.38787924624705,-0.635582989268808,1.41134148176291,"ssf","mf.ss","exp","vonmises",158,"ssfOUT_15_6_4_BADGER","BADGER",4,0.166666666666667,15,"no effect"
"ssfOUT_15_6_4_BADGER.35",0.405388178926837,-0.617312739234526,1.4280890970882,"ssf","mf.ss","exp","vonmises",500,"ssfOUT_15_6_4_BADGER","BADGER",4,0.166666666666667,15,"no effect"
"ssfOUT_15_6_4_BADGER.36",0.924303420451736,-0.162324173643761,2.01093101454723,"ssf","mf.ss","exp","unif",5,"ssfOUT_15_6_4_BADGER","BADGER",4,0.166666666666667,15,"no effect"
"ssfOUT_15_6_4_BADGER.37",0.484852551458173,-0.57793256408129,1.54763766699764,"ssf","mf.ss","exp","unif",15,"ssfOUT_15_6_4_BADGER","BADGER",4,0.166666666666667,15,"no effect"
"ssfOUT_15_6_4_BADGER.38",0.421972401997916,-0.609048032491782,1.45299283648761,"ssf","mf.ss","exp","unif",50,"ssfOUT_15_6_4_BADGER","BADGER",4,0.166666666666667,15,"no effect"
"ssfOUT_15_6_4_BADGER.39",0.37242614007414,-0.649255659436964,1.39410793958525,"ssf","mf.ss","exp","unif",158,"ssfOUT_15_6_4_BADGER","BADGER",4,0.166666666666667,15,"no effect"
"ssfOUT_15_6_4_BADGER.40",0.479867554964406,-0.540838777056145,1.50057388698496,"ssf","mf.ss","exp","unif",500,"ssfOUT_15_6_4_BADGER","BADGER",4,0.166666666666667,15,"no effect"
"ssfOUT_15_6_4_VULTURE.1",1.33592340457174,0.268235683245845,2.40361112589763,"ssf","mf.is","gamma","vonmises",5,"ssfOUT_15_6_4_VULTURE","VULTURE",4,0.166666666666667,15,"preference"
"ssfOUT_15_6_4_VULTURE.2",0.550555352334097,-0.48598687756235,1.58709758223054,"ssf","mf.is","gamma","vonmises",15,"ssfOUT_15_6_4_VULTURE","VULTURE",4,0.166666666666667,15,"no effect"
"ssfOUT_15_6_4_VULTURE.3",0.408338221857286,-0.620648859256849,1.43732530297142,"ssf","mf.is","gamma","vonmises",50,"ssfOUT_15_6_4_VULTURE","VULTURE",4,0.166666666666667,15,"no effect"
"ssfOUT_15_6_4_VULTURE.4",0.675354109173878,-0.345575598526609,1.69628381687437,"ssf","mf.is","gamma","vonmises",158,"ssfOUT_15_6_4_VULTURE","VULTURE",4,0.166666666666667,15,"no effect"
"ssfOUT_15_6_4_VULTURE.5",0.72751366164603,-0.292796335917172,1.74782365920923,"ssf","mf.is","gamma","vonmises",500,"ssfOUT_15_6_4_VULTURE","VULTURE",4,0.166666666666667,15,"no effect"
"ssfOUT_15_6_4_VULTURE.6",1.06853745540833,-0.00702872215482397,2.14410363297148,"ssf","mf.is","gamma","unif",5,"ssfOUT_15_6_4_VULTURE","VULTURE",4,0.166666666666667,15,"no effect"
"ssfOUT_15_6_4_VULTURE.7",0.51444513425907,-0.530328483780812,1.55921875229895,"ssf","mf.is","gamma","unif",15,"ssfOUT_15_6_4_VULTURE","VULTURE",4,0.166666666666667,15,"no effect"
"ssfOUT_15_6_4_VULTURE.8",0.765260207201084,-0.259773957814125,1.79029437221629,"ssf","mf.is","gamma","unif",50,"ssfOUT_15_6_4_VULTURE","VULTURE",4,0.166666666666667,15,"no effect"
"ssfOUT_15_6_4_VULTURE.9",0.807091878775515,-0.21463667414595,1.82882043169698,"ssf","mf.is","gamma","unif",158,"ssfOUT_15_6_4_VULTURE","VULTURE",4,0.166666666666667,15,"no effect"
"ssfOUT_15_6_4_VULTURE.10",0.727139597540523,-0.29268962761684,1.74696882269789,"ssf","mf.is","gamma","unif",500,"ssfOUT_15_6_4_VULTURE","VULTURE",4,0.166666666666667,15,"no effect"
"ssfOUT_15_6_4_VULTURE.11",0.137976791447905,-0.982902083920991,1.2588556668168,"ssf","mf.is","exp","vonmises",5,"ssfOUT_15_6_4_VULTURE","VULTURE",4,0.166666666666667,15,"no effect"
"ssfOUT_15_6_4_VULTURE.12",0.765947764156211,-0.27545603481096,1.80735156312338,"ssf","mf.is","exp","vonmises",15,"ssfOUT_15_6_4_VULTURE","VULTURE",4,0.166666666666667,15,"no effect"
"ssfOUT_15_6_4_VULTURE.13",0.364261579960409,-0.665534421774483,1.3940575816953,"ssf","mf.is","exp","vonmises",50,"ssfOUT_15_6_4_VULTURE","VULTURE",4,0.166666666666667,15,"no effect"
"ssfOUT_15_6_4_VULTURE.14",0.70926740183727,-0.3121007181619,1.73063552183644,"ssf","mf.is","exp","vonmises",158,"ssfOUT_15_6_4_VULTURE","VULTURE",4,0.166666666666667,15,"no effect"
"ssfOUT_15_6_4_VULTURE.15",0.730017112958767,-0.290686965927002,1.75072119184454,"ssf","mf.is","exp","vonmises",500,"ssfOUT_15_6_4_VULTURE","VULTURE",4,0.166666666666667,15,"no effect"
"ssfOUT_15_6_4_VULTURE.16",0.242071314236543,-0.869437486959139,1.35358011543223,"ssf","mf.is","exp","unif",5,"ssfOUT_15_6_4_VULTURE","VULTURE",4,0.166666666666667,15,"no effect"
"ssfOUT_15_6_4_VULTURE.17",0.671706093163262,-0.37191533600717,1.71532752233369,"ssf","mf.is","exp","unif",15,"ssfOUT_15_6_4_VULTURE","VULTURE",4,0.166666666666667,15,"no effect"
"ssfOUT_15_6_4_VULTURE.18",0.8710912654036,-0.163310447536818,1.90549297834402,"ssf","mf.is","exp","unif",50,"ssfOUT_15_6_4_VULTURE","VULTURE",4,0.166666666666667,15,"no effect"
"ssfOUT_15_6_4_VULTURE.19",0.695760278741346,-0.325354673024672,1.71687523050736,"ssf","mf.is","exp","unif",158,"ssfOUT_15_6_4_VULTURE","VULTURE",4,0.166666666666667,15,"no effect"
"ssfOUT_15_6_4_VULTURE.20",0.711948073535855,-0.30893846847112,1.73283461554283,"ssf","mf.is","exp","unif",500,"ssfOUT_15_6_4_VULTURE","VULTURE",4,0.166666666666667,15,"no effect"
"ssfOUT_15_6_4_VULTURE.21",1.37588221529232,0.313809563485791,2.43795486709886,"ssf","mf.ss","gamma","vonmises",5,"ssfOUT_15_6_4_VULTURE","VULTURE",4,0.166666666666667,15,"preference"
"ssfOUT_15_6_4_VULTURE.22",0.537787371940056,-0.497547450188547,1.57312219406866,"ssf","mf.ss","gamma","vonmises",15,"ssfOUT_15_6_4_VULTURE","VULTURE",4,0.166666666666667,15,"no effect"
"ssfOUT_15_6_4_VULTURE.23",0.465780019021377,-0.561189829061974,1.49274986710473,"ssf","mf.ss","gamma","vonmises",50,"ssfOUT_15_6_4_VULTURE","VULTURE",4,0.166666666666667,15,"no effect"
"ssfOUT_15_6_4_VULTURE.24",0.705360259786313,-0.314549159166771,1.7252696787394,"ssf","mf.ss","gamma","vonmises",158,"ssfOUT_15_6_4_VULTURE","VULTURE",4,0.166666666666667,15,"no effect"
"ssfOUT_15_6_4_VULTURE.25",0.728995992574608,-0.29003624126166,1.74802822641088,"ssf","mf.ss","gamma","vonmises",500,"ssfOUT_15_6_4_VULTURE","VULTURE",4,0.166666666666667,15,"no effect"
"ssfOUT_15_6_4_VULTURE.26",1.02852402455648,-0.0482988210255753,2.10534687013854,"ssf","mf.ss","gamma","unif",5,"ssfOUT_15_6_4_VULTURE","VULTURE",4,0.166666666666667,15,"no effect"
"ssfOUT_15_6_4_VULTURE.27",0.495271457869177,-0.545685229822485,1.53622814556084,"ssf","mf.ss","gamma","unif",15,"ssfOUT_15_6_4_VULTURE","VULTURE",4,0.166666666666667,15,"no effect"
"ssfOUT_15_6_4_VULTURE.28",0.776030819931444,-0.248344248243867,1.80040588810675,"ssf","mf.ss","gamma","unif",50,"ssfOUT_15_6_4_VULTURE","VULTURE",4,0.166666666666667,15,"no effect"
"ssfOUT_15_6_4_VULTURE.29",0.797404760648027,-0.223069429086982,1.81787895038304,"ssf","mf.ss","gamma","unif",158,"ssfOUT_15_6_4_VULTURE","VULTURE",4,0.166666666666667,15,"no effect"
"ssfOUT_15_6_4_VULTURE.30",0.727676471047723,-0.291025256916804,1.74637819901225,"ssf","mf.ss","gamma","unif",500,"ssfOUT_15_6_4_VULTURE","VULTURE",4,0.166666666666667,15,"no effect"
"ssfOUT_15_6_4_VULTURE.31",0.109090633937547,-0.992975534265482,1.21115680214058,"ssf","mf.ss","exp","vonmises",5,"ssfOUT_15_6_4_VULTURE","VULTURE",4,0.166666666666667,15,"no effect"
"ssfOUT_15_6_4_VULTURE.32",0.64605907132609,-0.403642493686607,1.69576063633879,"ssf","mf.ss","exp","vonmises",15,"ssfOUT_15_6_4_VULTURE","VULTURE",4,0.166666666666667,15,"no effect"
"ssfOUT_15_6_4_VULTURE.33",0.33502781561134,-0.692971586489392,1.36302721771207,"ssf","mf.ss","exp","vonmises",50,"ssfOUT_15_6_4_VULTURE","VULTURE",4,0.166666666666667,15,"no effect"
"ssfOUT_15_6_4_VULTURE.34",0.679484983529424,-0.341940517877775,1.70091048493662,"ssf","mf.ss","exp","vonmises",158,"ssfOUT_15_6_4_VULTURE","VULTURE",4,0.166666666666667,15,"no effect"
"ssfOUT_15_6_4_VULTURE.35",0.652052387147584,-0.368474605099628,1.6725793793948,"ssf","mf.ss","exp","vonmises",500,"ssfOUT_15_6_4_VULTURE","VULTURE",4,0.166666666666667,15,"no effect"
"ssfOUT_15_6_4_VULTURE.36",0.453206752066832,-0.639258217937733,1.5456717220714,"ssf","mf.ss","exp","unif",5,"ssfOUT_15_6_4_VULTURE","VULTURE",4,0.166666666666667,15,"no effect"
"ssfOUT_15_6_4_VULTURE.37",0.658879281525416,-0.375965279695832,1.69372384274666,"ssf","mf.ss","exp","unif",15,"ssfOUT_15_6_4_VULTURE","VULTURE",4,0.166666666666667,15,"no effect"
"ssfOUT_15_6_4_VULTURE.38",0.680993027479425,-0.347742442086857,1.70972849704571,"ssf","mf.ss","exp","unif",50,"ssfOUT_15_6_4_VULTURE","VULTURE",4,0.166666666666667,15,"no effect"
"ssfOUT_15_6_4_VULTURE.39",0.63339581991906,-0.387914965023729,1.65470660486185,"ssf","mf.ss","exp","unif",158,"ssfOUT_15_6_4_VULTURE","VULTURE",4,0.166666666666667,15,"no effect"
"ssfOUT_15_6_4_VULTURE.40",0.601196244915676,-0.419101451009863,1.62149394084121,"ssf","mf.ss","exp","unif",500,"ssfOUT_15_6_4_VULTURE","VULTURE",4,0.166666666666667,15,"no effect"
"ssfOUT_15_6_4_KINGCOBRA.1",15.9509429453141,-5951.7845108485,5983.68639673913,"ssf","mf.is","gamma","vonmises",5,"ssfOUT_15_6_4_KINGCOBRA","KINGCOBRA",4,0.166666666666667,15,"no effect"
"ssfOUT_15_6_4_KINGCOBRA.2",15.4769635469541,-5939.2234987874,5970.1774258813,"ssf","mf.is","gamma","vonmises",15,"ssfOUT_15_6_4_KINGCOBRA","KINGCOBRA",4,0.166666666666667,15,"no effect"
"ssfOUT_15_6_4_KINGCOBRA.3",15.9162953800253,-3178.47578048625,3210.3083712463,"ssf","mf.is","gamma","vonmises",50,"ssfOUT_15_6_4_KINGCOBRA","KINGCOBRA",4,0.166666666666667,15,"no effect"
"ssfOUT_15_6_4_KINGCOBRA.4",15.7492572210933,-3548.60605757034,3580.10457201252,"ssf","mf.is","gamma","vonmises",158,"ssfOUT_15_6_4_KINGCOBRA","KINGCOBRA",4,0.166666666666667,15,"no effect"
"ssfOUT_15_6_4_KINGCOBRA.5",15.8282388795032,-3606.14403245039,3637.8005102094,"ssf","mf.is","gamma","vonmises",500,"ssfOUT_15_6_4_KINGCOBRA","KINGCOBRA",4,0.166666666666667,15,"no effect"
"ssfOUT_15_6_4_KINGCOBRA.6",15.9449586956829,-5552.02807198671,5583.91798937808,"ssf","mf.is","gamma","unif",5,"ssfOUT_15_6_4_KINGCOBRA","KINGCOBRA",4,0.166666666666667,15,"no effect"
"ssfOUT_15_6_4_KINGCOBRA.7",15.8465108775334,-5015.4788481326,5047.17186988767,"ssf","mf.is","gamma","unif",15,"ssfOUT_15_6_4_KINGCOBRA","KINGCOBRA",4,0.166666666666667,15,"no effect"
"ssfOUT_15_6_4_KINGCOBRA.8",15.9194070104576,-4164.66007071301,4196.49888473393,"ssf","mf.is","gamma","unif",50,"ssfOUT_15_6_4_KINGCOBRA","KINGCOBRA",4,0.166666666666667,15,"no effect"
"ssfOUT_15_6_4_KINGCOBRA.9",15.8106383737517,-3546.54862279786,3578.16989954536,"ssf","mf.is","gamma","unif",158,"ssfOUT_15_6_4_KINGCOBRA","KINGCOBRA",4,0.166666666666667,15,"no effect"
"ssfOUT_15_6_4_KINGCOBRA.10",14.8317120048194,-2257.91809610641,2287.58152011605,"ssf","mf.is","gamma","unif",500,"ssfOUT_15_6_4_KINGCOBRA","KINGCOBRA",4,0.166666666666667,15,"no effect"
"ssfOUT_15_6_4_KINGCOBRA.11",17.0568485281362,-7051.02138531455,7085.13508237082,"ssf","mf.is","exp","vonmises",5,"ssfOUT_15_6_4_KINGCOBRA","KINGCOBRA",4,0.166666666666667,15,"no effect"
"ssfOUT_15_6_4_KINGCOBRA.12",16.5188040738993,-6242.12017620823,6275.15778435603,"ssf","mf.is","exp","vonmises",15,"ssfOUT_15_6_4_KINGCOBRA","KINGCOBRA",4,0.166666666666667,15,"no effect"
"ssfOUT_15_6_4_KINGCOBRA.13",15.5725176663407,-3327.49721146089,3358.64224679358,"ssf","mf.is","exp","vonmises",50,"ssfOUT_15_6_4_KINGCOBRA","KINGCOBRA",4,0.166666666666667,15,"no effect"
"ssfOUT_15_6_4_KINGCOBRA.14",15.4347999502417,-3190.43231420415,3221.30191410464,"ssf","mf.is","exp","vonmises",158,"ssfOUT_15_6_4_KINGCOBRA","KINGCOBRA",4,0.166666666666667,15,"no effect"
"ssfOUT_15_6_4_KINGCOBRA.15",15.5994994142505,-3731.49133143617,3762.69033026467,"ssf","mf.is","exp","vonmises",500,"ssfOUT_15_6_4_KINGCOBRA","KINGCOBRA",4,0.166666666666667,15,"no effect"
"ssfOUT_15_6_4_KINGCOBRA.16",16.9429284130571,-6320.96513329754,6354.85099012365,"ssf","mf.is","exp","unif",5,"ssfOUT_15_6_4_KINGCOBRA","KINGCOBRA",4,0.166666666666667,15,"no effect"
"ssfOUT_15_6_4_KINGCOBRA.17",16.5237535785485,-5054.89998903216,5087.94749618926,"ssf","mf.is","exp","unif",15,"ssfOUT_15_6_4_KINGCOBRA","KINGCOBRA",4,0.166666666666667,15,"no effect"
"ssfOUT_15_6_4_KINGCOBRA.18",16.3505878421415,-4434.55504112582,4467.25621681011,"ssf","mf.is","exp","unif",50,"ssfOUT_15_6_4_KINGCOBRA","KINGCOBRA",4,0.166666666666667,15,"no effect"
"ssfOUT_15_6_4_KINGCOBRA.19",15.6316631953334,-3556.64255543783,3587.90588182849,"ssf","mf.is","exp","unif",158,"ssfOUT_15_6_4_KINGCOBRA","KINGCOBRA",4,0.166666666666667,15,"no effect"
"ssfOUT_15_6_4_KINGCOBRA.20",14.7126699325981,-2321.05946795276,2350.48480781796,"ssf","mf.is","exp","unif",500,"ssfOUT_15_6_4_KINGCOBRA","KINGCOBRA",4,0.166666666666667,15,"no effect"
"ssfOUT_15_6_4_KINGCOBRA.21",16.1285128941781,-5462.46556021417,5494.72258600253,"ssf","mf.ss","gamma","vonmises",5,"ssfOUT_15_6_4_KINGCOBRA","KINGCOBRA",4,0.166666666666667,15,"no effect"
"ssfOUT_15_6_4_KINGCOBRA.22",15.8955932347481,-5469.10201500784,5500.89320147734,"ssf","mf.ss","gamma","vonmises",15,"ssfOUT_15_6_4_KINGCOBRA","KINGCOBRA",4,0.166666666666667,15,"no effect"
"ssfOUT_15_6_4_KINGCOBRA.23",15.8591201152083,-3218.41947968633,3250.13771991674,"ssf","mf.ss","gamma","vonmises",50,"ssfOUT_15_6_4_KINGCOBRA","KINGCOBRA",4,0.166666666666667,15,"no effect"
"ssfOUT_15_6_4_KINGCOBRA.24",15.8610932182436,-3536.78099407877,3568.50318051526,"ssf","mf.ss","gamma","vonmises",158,"ssfOUT_15_6_4_KINGCOBRA","KINGCOBRA",4,0.166666666666667,15,"no effect"
"ssfOUT_15_6_4_KINGCOBRA.25",14.8386756515637,-2195.79513821652,2225.47248951965,"ssf","mf.ss","gamma","vonmises",500,"ssfOUT_15_6_4_KINGCOBRA","KINGCOBRA",4,0.166666666666667,15,"no effect"
"ssfOUT_15_6_4_KINGCOBRA.26",16.1040275637558,-5548.7336778342,5580.94173296171,"ssf","mf.ss","gamma","unif",5,"ssfOUT_15_6_4_KINGCOBRA","KINGCOBRA",4,0.166666666666667,15,"no effect"
"ssfOUT_15_6_4_KINGCOBRA.27",15.966824148429,-4961.29478319167,4993.22843148853,"ssf","mf.ss","gamma","unif",15,"ssfOUT_15_6_4_KINGCOBRA","KINGCOBRA",4,0.166666666666667,15,"no effect"
"ssfOUT_15_6_4_KINGCOBRA.28",15.8688953635032,-4149.9429646208,4181.68075534781,"ssf","mf.ss","gamma","unif",50,"ssfOUT_15_6_4_KINGCOBRA","KINGCOBRA",4,0.166666666666667,15,"no effect"
"ssfOUT_15_6_4_KINGCOBRA.29",15.8559039375767,-3551.05238527737,3582.76419315253,"ssf","mf.ss","gamma","unif",158,"ssfOUT_15_6_4_KINGCOBRA","KINGCOBRA",4,0.166666666666667,15,"no effect"
"ssfOUT_15_6_4_KINGCOBRA.30",14.8485255477357,-2249.27895147513,2278.97600257061,"ssf","mf.ss","gamma","unif",500,"ssfOUT_15_6_4_KINGCOBRA","KINGCOBRA",4,0.166666666666667,15,"no effect"
"ssfOUT_15_6_4_KINGCOBRA.31",17.1820807119116,-6356.29557088449,6390.65973230832,"ssf","mf.ss","exp","vonmises",5,"ssfOUT_15_6_4_KINGCOBRA","KINGCOBRA",4,0.166666666666667,15,"no effect"
"ssfOUT_15_6_4_KINGCOBRA.32",15.9490833466484,-4612.3328774218,4644.23104411509,"ssf","mf.ss","exp","vonmises",15,"ssfOUT_15_6_4_KINGCOBRA","KINGCOBRA",4,0.166666666666667,15,"no effect"
"ssfOUT_15_6_4_KINGCOBRA.33",15.9046731942287,-3334.11314415398,3365.92249054243,"ssf","mf.ss","exp","vonmises",50,"ssfOUT_15_6_4_KINGCOBRA","KINGCOBRA",4,0.166666666666667,15,"no effect"
"ssfOUT_15_6_4_KINGCOBRA.34",15.9079331619148,-3246.64992871361,3278.46579503744,"ssf","mf.ss","exp","vonmises",158,"ssfOUT_15_6_4_KINGCOBRA","KINGCOBRA",4,0.166666666666667,15,"no effect"
"ssfOUT_15_6_4_KINGCOBRA.35",15.880138443952,-3268.17787369936,3299.93815058726,"ssf","mf.ss","exp","vonmises",500,"ssfOUT_15_6_4_KINGCOBRA","KINGCOBRA",4,0.166666666666667,15,"no effect"
"ssfOUT_15_6_4_KINGCOBRA.36",17.0560098025853,-6389.50226700449,6423.61428660966,"ssf","mf.ss","exp","unif",5,"ssfOUT_15_6_4_KINGCOBRA","KINGCOBRA",4,0.166666666666667,15,"no effect"
"ssfOUT_15_6_4_KINGCOBRA.37",16.9150671673161,-4883.00078582239,4916.83092015702,"ssf","mf.ss","exp","unif",15,"ssfOUT_15_6_4_KINGCOBRA","KINGCOBRA",4,0.166666666666667,15,"no effect"
"ssfOUT_15_6_4_KINGCOBRA.38",15.8666220179217,-3144.66516687574,3176.39841091158,"ssf","mf.ss","exp","unif",50,"ssfOUT_15_6_4_KINGCOBRA","KINGCOBRA",4,0.166666666666667,15,"no effect"
"ssfOUT_15_6_4_KINGCOBRA.39",15.8800853748179,-3354.9687826932,3386.72895344284,"ssf","mf.ss","exp","unif",158,"ssfOUT_15_6_4_KINGCOBRA","KINGCOBRA",4,0.166666666666667,15,"no effect"
"ssfOUT_15_6_4_KINGCOBRA.40",15.875579749344,-3482.89043141072,3514.64159090941,"ssf","mf.ss","exp","unif",500,"ssfOUT_15_6_4_KINGCOBRA","KINGCOBRA",4,0.166666666666667,15,"no effect"
"ssfOUT_30_0.5_1_BADGER.1",-0.0561140095341568,-0.515876288303126,0.403648269234812,"ssf","mf.is","gamma","vonmises",5,"ssfOUT_30_0.5_1_BADGER","BADGER",1,2,30,"no effect"
"ssfOUT_30_0.5_1_BADGER.2",0.177259135563606,-0.229120822934176,0.583639094061387,"ssf","mf.is","gamma","vonmises",15,"ssfOUT_30_0.5_1_BADGER","BADGER",1,2,30,"no effect"
"ssfOUT_30_0.5_1_BADGER.3",0.235218701816385,-0.169689376392571,0.64012678002534,"ssf","mf.is","gamma","vonmises",50,"ssfOUT_30_0.5_1_BADGER","BADGER",1,2,30,"no effect"
"ssfOUT_30_0.5_1_BADGER.4",0.132988910937611,-0.268412891317115,0.534390713192337,"ssf","mf.is","gamma","vonmises",158,"ssfOUT_30_0.5_1_BADGER","BADGER",1,2,30,"no effect"
"ssfOUT_30_0.5_1_BADGER.5",0.115894132668428,-0.286984426124401,0.518772691461256,"ssf","mf.is","gamma","vonmises",500,"ssfOUT_30_0.5_1_BADGER","BADGER",1,2,30,"no effect"
"ssfOUT_30_0.5_1_BADGER.6",0.0806082093264813,-0.342271015416393,0.503487434069355,"ssf","mf.is","gamma","unif",5,"ssfOUT_30_0.5_1_BADGER","BADGER",1,2,30,"no effect"
"ssfOUT_30_0.5_1_BADGER.7",0.175013565141966,-0.233671043995642,0.583698174279575,"ssf","mf.is","gamma","unif",15,"ssfOUT_30_0.5_1_BADGER","BADGER",1,2,30,"no effect"
"ssfOUT_30_0.5_1_BADGER.8",0.139073109360493,-0.266833347408052,0.544979566129038,"ssf","mf.is","gamma","unif",50,"ssfOUT_30_0.5_1_BADGER","BADGER",1,2,30,"no effect"
"ssfOUT_30_0.5_1_BADGER.9",0.102629746786452,-0.30391266298553,0.509172156558434,"ssf","mf.is","gamma","unif",158,"ssfOUT_30_0.5_1_BADGER","BADGER",1,2,30,"no effect"
"ssfOUT_30_0.5_1_BADGER.10",0.0868363358467517,-0.315593637746335,0.489266309439838,"ssf","mf.is","gamma","unif",500,"ssfOUT_30_0.5_1_BADGER","BADGER",1,2,30,"no effect"
"ssfOUT_30_0.5_1_BADGER.11",-0.257035015136488,-0.717181999561956,0.20311196928898,"ssf","mf.is","exp","vonmises",5,"ssfOUT_30_0.5_1_BADGER","BADGER",1,2,30,"no effect"
"ssfOUT_30_0.5_1_BADGER.12",0.116713112073829,-0.30492202162568,0.538348245773339,"ssf","mf.is","exp","vonmises",15,"ssfOUT_30_0.5_1_BADGER","BADGER",1,2,30,"no effect"
"ssfOUT_30_0.5_1_BADGER.13",0.0396883080548476,-0.373686529244129,0.453063145353824,"ssf","mf.is","exp","vonmises",50,"ssfOUT_30_0.5_1_BADGER","BADGER",1,2,30,"no effect"
"ssfOUT_30_0.5_1_BADGER.14",0.125616344427112,-0.283192856928228,0.534425545782451,"ssf","mf.is","exp","vonmises",158,"ssfOUT_30_0.5_1_BADGER","BADGER",1,2,30,"no effect"
"ssfOUT_30_0.5_1_BADGER.15",0.089475348015847,-0.316046941735889,0.494997637767583,"ssf","mf.is","exp","vonmises",500,"ssfOUT_30_0.5_1_BADGER","BADGER",1,2,30,"no effect"
"ssfOUT_30_0.5_1_BADGER.16",-0.0177172711608548,-0.443505503247075,0.408070960925365,"ssf","mf.is","exp","unif",5,"ssfOUT_30_0.5_1_BADGER","BADGER",1,2,30,"no effect"
"ssfOUT_30_0.5_1_BADGER.17",0.142680844949641,-0.280693316067255,0.566055005966537,"ssf","mf.is","exp","unif",15,"ssfOUT_30_0.5_1_BADGER","BADGER",1,2,30,"no effect"
"ssfOUT_30_0.5_1_BADGER.18",0.123791216395415,-0.287396470085651,0.534978902876481,"ssf","mf.is","exp","unif",50,"ssfOUT_30_0.5_1_BADGER","BADGER",1,2,30,"no effect"
"ssfOUT_30_0.5_1_BADGER.19",0.0550139262778474,-0.35098854304768,0.461016395603375,"ssf","mf.is","exp","unif",158,"ssfOUT_30_0.5_1_BADGER","BADGER",1,2,30,"no effect"
"ssfOUT_30_0.5_1_BADGER.20",0.10692223439999,-0.299740447976443,0.513584916776423,"ssf","mf.is","exp","unif",500,"ssfOUT_30_0.5_1_BADGER","BADGER",1,2,30,"no effect"
"ssfOUT_30_0.5_1_BADGER.21",-0.0563470720196326,-0.516051504971542,0.403357360932276,"ssf","mf.ss","gamma","vonmises",5,"ssfOUT_30_0.5_1_BADGER","BADGER",1,2,30,"no effect"
"ssfOUT_30_0.5_1_BADGER.22",0.179739852185838,-0.225983121713275,0.58546282608495,"ssf","mf.ss","gamma","vonmises",15,"ssfOUT_30_0.5_1_BADGER","BADGER",1,2,30,"no effect"
"ssfOUT_30_0.5_1_BADGER.23",0.235810596865914,-0.168658911512691,0.640280105244519,"ssf","mf.ss","gamma","vonmises",50,"ssfOUT_30_0.5_1_BADGER","BADGER",1,2,30,"no effect"
"ssfOUT_30_0.5_1_BADGER.24",0.13190038162245,-0.269554240215503,0.533355003460402,"ssf","mf.ss","gamma","vonmises",158,"ssfOUT_30_0.5_1_BADGER","BADGER",1,2,30,"no effect"
"ssfOUT_30_0.5_1_BADGER.25",0.116589049388558,-0.28630057521857,0.519478673995686,"ssf","mf.ss","gamma","vonmises",500,"ssfOUT_30_0.5_1_BADGER","BADGER",1,2,30,"no effect"
"ssfOUT_30_0.5_1_BADGER.26",0.0930417780302921,-0.329650671122911,0.515734227183495,"ssf","mf.ss","gamma","unif",5,"ssfOUT_30_0.5_1_BADGER","BADGER",1,2,30,"no effect"
"ssfOUT_30_0.5_1_BADGER.27",0.173839459631849,-0.235007633010214,0.582686552273911,"ssf","mf.ss","gamma","unif",15,"ssfOUT_30_0.5_1_BADGER","BADGER",1,2,30,"no effect"
"ssfOUT_30_0.5_1_BADGER.28",0.147874064856535,-0.257838212278186,0.553586341991256,"ssf","mf.ss","gamma","unif",50,"ssfOUT_30_0.5_1_BADGER","BADGER",1,2,30,"no effect"
"ssfOUT_30_0.5_1_BADGER.29",0.110300510467253,-0.295869122173238,0.516470143107744,"ssf","mf.ss","gamma","unif",158,"ssfOUT_30_0.5_1_BADGER","BADGER",1,2,30,"no effect"
"ssfOUT_30_0.5_1_BADGER.30",0.0912499265285034,-0.311003550216626,0.493503403273633,"ssf","mf.ss","gamma","unif",500,"ssfOUT_30_0.5_1_BADGER","BADGER",1,2,30,"no effect"
"ssfOUT_30_0.5_1_BADGER.31",-0.209262130824487,-0.657545929926419,0.239021668277445,"ssf","mf.ss","exp","vonmises",5,"ssfOUT_30_0.5_1_BADGER","BADGER",1,2,30,"no effect"
"ssfOUT_30_0.5_1_BADGER.32",0.0549413226989707,-0.353075235389993,0.462957880787935,"ssf","mf.ss","exp","vonmises",15,"ssfOUT_30_0.5_1_BADGER","BADGER",1,2,30,"no effect"
"ssfOUT_30_0.5_1_BADGER.33",0.0611518914857167,-0.347055984037865,0.469359767009299,"ssf","mf.ss","exp","vonmises",50,"ssfOUT_30_0.5_1_BADGER","BADGER",1,2,30,"no effect"
"ssfOUT_30_0.5_1_BADGER.34",0.0696944841986789,-0.33692886646583,0.476317834863188,"ssf","mf.ss","exp","vonmises",158,"ssfOUT_30_0.5_1_BADGER","BADGER",1,2,30,"no effect"
"ssfOUT_30_0.5_1_BADGER.35",0.0272094633677411,-0.374912188150711,0.429331114886193,"ssf","mf.ss","exp","vonmises",500,"ssfOUT_30_0.5_1_BADGER","BADGER",1,2,30,"no effect"
"ssfOUT_30_0.5_1_BADGER.36",0.103868311490223,-0.308703687117693,0.516440310098138,"ssf","mf.ss","exp","unif",5,"ssfOUT_30_0.5_1_BADGER","BADGER",1,2,30,"no effect"
"ssfOUT_30_0.5_1_BADGER.37",0.0423503735948142,-0.364307546882716,0.449008294072345,"ssf","mf.ss","exp","unif",15,"ssfOUT_30_0.5_1_BADGER","BADGER",1,2,30,"no effect"
"ssfOUT_30_0.5_1_BADGER.38",0.0903899956273746,-0.314045263259854,0.494825254514603,"ssf","mf.ss","exp","unif",50,"ssfOUT_30_0.5_1_BADGER","BADGER",1,2,30,"no effect"
"ssfOUT_30_0.5_1_BADGER.39",0.0496517950826131,-0.3495071576475,0.448810747812726,"ssf","mf.ss","exp","unif",158,"ssfOUT_30_0.5_1_BADGER","BADGER",1,2,30,"no effect"
"ssfOUT_30_0.5_1_BADGER.40",0.00328444649139396,-0.399154384247366,0.405723277230154,"ssf","mf.ss","exp","unif",500,"ssfOUT_30_0.5_1_BADGER","BADGER",1,2,30,"no effect"
"ssfOUT_30_0.5_1_VULTURE.1",0.538595837478108,0.119919259524463,0.957272415431753,"ssf","mf.is","gamma","vonmises",5,"ssfOUT_30_0.5_1_VULTURE","VULTURE",1,2,30,"preference"
"ssfOUT_30_0.5_1_VULTURE.2",0.416291197464183,0.0144077187069996,0.818174676221366,"ssf","mf.is","gamma","vonmises",15,"ssfOUT_30_0.5_1_VULTURE","VULTURE",1,2,30,"preference"
"ssfOUT_30_0.5_1_VULTURE.3",0.493812149747695,0.09264921696477,0.894975082530621,"ssf","mf.is","gamma","vonmises",50,"ssfOUT_30_0.5_1_VULTURE","VULTURE",1,2,30,"preference"
"ssfOUT_30_0.5_1_VULTURE.4",0.593120976589874,0.194637766073914,0.991604187105834,"ssf","mf.is","gamma","vonmises",158,"ssfOUT_30_0.5_1_VULTURE","VULTURE",1,2,30,"preference"
"ssfOUT_30_0.5_1_VULTURE.5",0.559496561281544,0.161418329394088,0.957574793169001,"ssf","mf.is","gamma","vonmises",500,"ssfOUT_30_0.5_1_VULTURE","VULTURE",1,2,30,"preference"
"ssfOUT_30_0.5_1_VULTURE.6",0.641052974891942,0.207596756375148,1.07450919340874,"ssf","mf.is","gamma","unif",5,"ssfOUT_30_0.5_1_VULTURE","VULTURE",1,2,30,"preference"
"ssfOUT_30_0.5_1_VULTURE.7",0.29898991011011,-0.113152459866554,0.711132280086774,"ssf","mf.is","gamma","unif",15,"ssfOUT_30_0.5_1_VULTURE","VULTURE",1,2,30,"no effect"
"ssfOUT_30_0.5_1_VULTURE.8",0.523932579416475,0.124653617118865,0.923211541714086,"ssf","mf.is","gamma","unif",50,"ssfOUT_30_0.5_1_VULTURE","VULTURE",1,2,30,"preference"
"ssfOUT_30_0.5_1_VULTURE.9",0.552588751523793,0.155037918328171,0.950139584719416,"ssf","mf.is","gamma","unif",158,"ssfOUT_30_0.5_1_VULTURE","VULTURE",1,2,30,"preference"
"ssfOUT_30_0.5_1_VULTURE.10",0.566757843070929,0.169048805228129,0.96446688091373,"ssf","mf.is","gamma","unif",500,"ssfOUT_30_0.5_1_VULTURE","VULTURE",1,2,30,"preference"
"ssfOUT_30_0.5_1_VULTURE.11",0.703992584068338,0.278399780608158,1.12958538752852,"ssf","mf.is","exp","vonmises",5,"ssfOUT_30_0.5_1_VULTURE","VULTURE",1,2,30,"preference"
"ssfOUT_30_0.5_1_VULTURE.12",0.503790207905537,0.097010332103487,0.910570083707587,"ssf","mf.is","exp","vonmises",15,"ssfOUT_30_0.5_1_VULTURE","VULTURE",1,2,30,"preference"
"ssfOUT_30_0.5_1_VULTURE.13",0.607229897031186,0.204465607869101,1.00999418619327,"ssf","mf.is","exp","vonmises",50,"ssfOUT_30_0.5_1_VULTURE","VULTURE",1,2,30,"preference"
"ssfOUT_30_0.5_1_VULTURE.14",0.524728972124126,0.125958173446877,0.923499770801375,"ssf","mf.is","exp","vonmises",158,"ssfOUT_30_0.5_1_VULTURE","VULTURE",1,2,30,"preference"
"ssfOUT_30_0.5_1_VULTURE.15",0.548100222003053,0.151387643259615,0.944812800746491,"ssf","mf.is","exp","vonmises",500,"ssfOUT_30_0.5_1_VULTURE","VULTURE",1,2,30,"preference"
"ssfOUT_30_0.5_1_VULTURE.16",0.734039697143682,0.294904101020604,1.17317529326676,"ssf","mf.is","exp","unif",5,"ssfOUT_30_0.5_1_VULTURE","VULTURE",1,2,30,"preference"
"ssfOUT_30_0.5_1_VULTURE.17",0.50051114607605,0.0933579636599119,0.907664328492188,"ssf","mf.is","exp","unif",15,"ssfOUT_30_0.5_1_VULTURE","VULTURE",1,2,30,"preference"
"ssfOUT_30_0.5_1_VULTURE.18",0.585578431815222,0.18827827864506,0.982878584985384,"ssf","mf.is","exp","unif",50,"ssfOUT_30_0.5_1_VULTURE","VULTURE",1,2,30,"preference"
"ssfOUT_30_0.5_1_VULTURE.19",0.574142888602739,0.172845626778689,0.97544015042679,"ssf","mf.is","exp","unif",158,"ssfOUT_30_0.5_1_VULTURE","VULTURE",1,2,30,"preference"
"ssfOUT_30_0.5_1_VULTURE.20",0.535171647704274,0.138315600061625,0.932027695346923,"ssf","mf.is","exp","unif",500,"ssfOUT_30_0.5_1_VULTURE","VULTURE",1,2,30,"preference"
"ssfOUT_30_0.5_1_VULTURE.21",0.533414199961197,0.114336074757107,0.952492325165287,"ssf","mf.ss","gamma","vonmises",5,"ssfOUT_30_0.5_1_VULTURE","VULTURE",1,2,30,"preference"
"ssfOUT_30_0.5_1_VULTURE.22",0.414041456102945,0.011603134193108,0.816479778012782,"ssf","mf.ss","gamma","vonmises",15,"ssfOUT_30_0.5_1_VULTURE","VULTURE",1,2,30,"preference"
"ssfOUT_30_0.5_1_VULTURE.23",0.466572420835076,0.0653352781206613,0.867809563549492,"ssf","mf.ss","gamma","vonmises",50,"ssfOUT_30_0.5_1_VULTURE","VULTURE",1,2,30,"preference"
"ssfOUT_30_0.5_1_VULTURE.24",0.572612580149151,0.173999086985395,0.971226073312907,"ssf","mf.ss","gamma","vonmises",158,"ssfOUT_30_0.5_1_VULTURE","VULTURE",1,2,30,"preference"
"ssfOUT_30_0.5_1_VULTURE.25",0.539671650861791,0.141711986434227,0.937631315289356,"ssf","mf.ss","gamma","vonmises",500,"ssfOUT_30_0.5_1_VULTURE","VULTURE",1,2,30,"preference"
"ssfOUT_30_0.5_1_VULTURE.26",0.632093541733036,0.199507896271902,1.06467918719417,"ssf","mf.ss","gamma","unif",5,"ssfOUT_30_0.5_1_VULTURE","VULTURE",1,2,30,"preference"
"ssfOUT_30_0.5_1_VULTURE.27",0.280772657100582,-0.131190219903805,0.69273553410497,"ssf","mf.ss","gamma","unif",15,"ssfOUT_30_0.5_1_VULTURE","VULTURE",1,2,30,"no effect"
"ssfOUT_30_0.5_1_VULTURE.28",0.512278531848873,0.112885935960974,0.911671127736773,"ssf","mf.ss","gamma","unif",50,"ssfOUT_30_0.5_1_VULTURE","VULTURE",1,2,30,"preference"
"ssfOUT_30_0.5_1_VULTURE.29",0.545738159197142,0.148042461281059,0.943433857113226,"ssf","mf.ss","gamma","unif",158,"ssfOUT_30_0.5_1_VULTURE","VULTURE",1,2,30,"preference"
"ssfOUT_30_0.5_1_VULTURE.30",0.556576219975787,0.158759834186885,0.954392605764689,"ssf","mf.ss","gamma","unif",500,"ssfOUT_30_0.5_1_VULTURE","VULTURE",1,2,30,"preference"
"ssfOUT_30_0.5_1_VULTURE.31",0.648526054065719,0.224379732294168,1.07267237583727,"ssf","mf.ss","exp","vonmises",5,"ssfOUT_30_0.5_1_VULTURE","VULTURE",1,2,30,"preference"
"ssfOUT_30_0.5_1_VULTURE.32",0.460791914335824,0.0505297345330776,0.87105409413857,"ssf","mf.ss","exp","vonmises",15,"ssfOUT_30_0.5_1_VULTURE","VULTURE",1,2,30,"preference"
"ssfOUT_30_0.5_1_VULTURE.33",0.542338400374194,0.136935747755405,0.947741052992983,"ssf","mf.ss","exp","vonmises",50,"ssfOUT_30_0.5_1_VULTURE","VULTURE",1,2,30,"preference"
"ssfOUT_30_0.5_1_VULTURE.34",0.516501474241849,0.114797977285123,0.918204971198576,"ssf","mf.ss","exp","vonmises",158,"ssfOUT_30_0.5_1_VULTURE","VULTURE",1,2,30,"preference"
"ssfOUT_30_0.5_1_VULTURE.35",0.535567347667969,0.13585742721179,0.935277268124148,"ssf","mf.ss","exp","vonmises",500,"ssfOUT_30_0.5_1_VULTURE","VULTURE",1,2,30,"preference"
"ssfOUT_30_0.5_1_VULTURE.36",0.753465267789657,0.316583721394582,1.19034681418473,"ssf","mf.ss","exp","unif",5,"ssfOUT_30_0.5_1_VULTURE","VULTURE",1,2,30,"preference"
"ssfOUT_30_0.5_1_VULTURE.37",0.518724308186066,0.111791642384085,0.925656973988047,"ssf","mf.ss","exp","unif",15,"ssfOUT_30_0.5_1_VULTURE","VULTURE",1,2,30,"preference"
"ssfOUT_30_0.5_1_VULTURE.38",0.557769239241682,0.158782320046275,0.956756158437089,"ssf","mf.ss","exp","unif",50,"ssfOUT_30_0.5_1_VULTURE","VULTURE",1,2,30,"preference"
"ssfOUT_30_0.5_1_VULTURE.39",0.547460303203422,0.144041628670286,0.950878977736557,"ssf","mf.ss","exp","unif",158,"ssfOUT_30_0.5_1_VULTURE","VULTURE",1,2,30,"preference"
"ssfOUT_30_0.5_1_VULTURE.40",0.517238449657407,0.117209808815413,0.917267090499402,"ssf","mf.ss","exp","unif",500,"ssfOUT_30_0.5_1_VULTURE","VULTURE",1,2,30,"preference"
"ssfOUT_30_0.5_1_KINGCOBRA.1",1.10870239311152,0.427150947787954,1.79025383843509,"ssf","mf.is","gamma","vonmises",5,"ssfOUT_30_0.5_1_KINGCOBRA","KINGCOBRA",1,2,30,"preference"
"ssfOUT_30_0.5_1_KINGCOBRA.2",1.25924619932302,0.573199669751261,1.94529272889478,"ssf","mf.is","gamma","vonmises",15,"ssfOUT_30_0.5_1_KINGCOBRA","KINGCOBRA",1,2,30,"preference"
"ssfOUT_30_0.5_1_KINGCOBRA.3",1.24292082790429,0.541582633660419,1.94425902214816,"ssf","mf.is","gamma","vonmises",50,"ssfOUT_30_0.5_1_KINGCOBRA","KINGCOBRA",1,2,30,"preference"
"ssfOUT_30_0.5_1_KINGCOBRA.4",1.31658223010255,0.631334541138572,2.00182991906654,"ssf","mf.is","gamma","vonmises",158,"ssfOUT_30_0.5_1_KINGCOBRA","KINGCOBRA",1,2,30,"preference"
"ssfOUT_30_0.5_1_KINGCOBRA.5",1.18716060923907,0.509799115770969,1.86452210270718,"ssf","mf.is","gamma","vonmises",500,"ssfOUT_30_0.5_1_KINGCOBRA","KINGCOBRA",1,2,30,"preference"
"ssfOUT_30_0.5_1_KINGCOBRA.6",1.20377042456712,0.481466014888633,1.92607483424561,"ssf","mf.is","gamma","unif",5,"ssfOUT_30_0.5_1_KINGCOBRA","KINGCOBRA",1,2,30,"preference"
"ssfOUT_30_0.5_1_KINGCOBRA.7",1.25653111017436,0.577068562266442,1.93599365808228,"ssf","mf.is","gamma","unif",15,"ssfOUT_30_0.5_1_KINGCOBRA","KINGCOBRA",1,2,30,"preference"
"ssfOUT_30_0.5_1_KINGCOBRA.8",1.17414113089287,0.473550870163234,1.8747313916225,"ssf","mf.is","gamma","unif",50,"ssfOUT_30_0.5_1_KINGCOBRA","KINGCOBRA",1,2,30,"preference"
"ssfOUT_30_0.5_1_KINGCOBRA.9",1.25037371185447,0.575475804321689,1.92527161938724,"ssf","mf.is","gamma","unif",158,"ssfOUT_30_0.5_1_KINGCOBRA","KINGCOBRA",1,2,30,"preference"
"ssfOUT_30_0.5_1_KINGCOBRA.10",1.19581921357772,0.521623801952773,1.87001462520266,"ssf","mf.is","gamma","unif",500,"ssfOUT_30_0.5_1_KINGCOBRA","KINGCOBRA",1,2,30,"preference"
"ssfOUT_30_0.5_1_KINGCOBRA.11",1.41067433040757,0.553993493449233,2.26735516736591,"ssf","mf.is","exp","vonmises",5,"ssfOUT_30_0.5_1_KINGCOBRA","KINGCOBRA",1,2,30,"preference"
"ssfOUT_30_0.5_1_KINGCOBRA.12",0.902358205066322,0.205562630438602,1.59915377969404,"ssf","mf.is","exp","vonmises",15,"ssfOUT_30_0.5_1_KINGCOBRA","KINGCOBRA",1,2,30,"preference"
"ssfOUT_30_0.5_1_KINGCOBRA.13",0.962163166794496,0.244452549128925,1.67987378446007,"ssf","mf.is","exp","vonmises",50,"ssfOUT_30_0.5_1_KINGCOBRA","KINGCOBRA",1,2,30,"preference"
"ssfOUT_30_0.5_1_KINGCOBRA.14",1.167441428107,0.483262197893584,1.85162065832041,"ssf","mf.is","exp","vonmises",158,"ssfOUT_30_0.5_1_KINGCOBRA","KINGCOBRA",1,2,30,"preference"
"ssfOUT_30_0.5_1_KINGCOBRA.15",1.23851732807543,0.543145854675513,1.93388880147534,"ssf","mf.is","exp","vonmises",500,"ssfOUT_30_0.5_1_KINGCOBRA","KINGCOBRA",1,2,30,"preference"
"ssfOUT_30_0.5_1_KINGCOBRA.16",1.61786691255686,0.645007081274936,2.59072674383879,"ssf","mf.is","exp","unif",5,"ssfOUT_30_0.5_1_KINGCOBRA","KINGCOBRA",1,2,30,"preference"
"ssfOUT_30_0.5_1_KINGCOBRA.17",1.26028227803259,0.518783150184818,2.00178140588037,"ssf","mf.is","exp","unif",15,"ssfOUT_30_0.5_1_KINGCOBRA","KINGCOBRA",1,2,30,"preference"
"ssfOUT_30_0.5_1_KINGCOBRA.18",1.09336392086127,0.400940875269155,1.78578696645339,"ssf","mf.is","exp","unif",50,"ssfOUT_30_0.5_1_KINGCOBRA","KINGCOBRA",1,2,30,"preference"
"ssfOUT_30_0.5_1_KINGCOBRA.19",1.14182444490757,0.448118396594559,1.83553049322059,"ssf","mf.is","exp","unif",158,"ssfOUT_30_0.5_1_KINGCOBRA","KINGCOBRA",1,2,30,"preference"
"ssfOUT_30_0.5_1_KINGCOBRA.20",1.11888286484945,0.412188892803597,1.82557683689531,"ssf","mf.is","exp","unif",500,"ssfOUT_30_0.5_1_KINGCOBRA","KINGCOBRA",1,2,30,"preference"
"ssfOUT_30_0.5_1_KINGCOBRA.21",1.34901972978093,0.657215384986187,2.04082407457568,"ssf","mf.ss","gamma","vonmises",5,"ssfOUT_30_0.5_1_KINGCOBRA","KINGCOBRA",1,2,30,"preference"
"ssfOUT_30_0.5_1_KINGCOBRA.22",1.46490328300427,0.778800384904119,2.15100618110442,"ssf","mf.ss","gamma","vonmises",15,"ssfOUT_30_0.5_1_KINGCOBRA","KINGCOBRA",1,2,30,"preference"
"ssfOUT_30_0.5_1_KINGCOBRA.23",1.52465736397965,0.812621140418905,2.23669358754039,"ssf","mf.ss","gamma","vonmises",50,"ssfOUT_30_0.5_1_KINGCOBRA","KINGCOBRA",1,2,30,"preference"
"ssfOUT_30_0.5_1_KINGCOBRA.24",1.61924629353837,0.917870658082883,2.32062192899386,"ssf","mf.ss","gamma","vonmises",158,"ssfOUT_30_0.5_1_KINGCOBRA","KINGCOBRA",1,2,30,"preference"
"ssfOUT_30_0.5_1_KINGCOBRA.25",1.46679263527081,0.773304148388532,2.1602811221531,"ssf","mf.ss","gamma","vonmises",500,"ssfOUT_30_0.5_1_KINGCOBRA","KINGCOBRA",1,2,30,"preference"
"ssfOUT_30_0.5_1_KINGCOBRA.26",1.43873319588466,0.718968533172202,2.15849785859711,"ssf","mf.ss","gamma","unif",5,"ssfOUT_30_0.5_1_KINGCOBRA","KINGCOBRA",1,2,30,"preference"
"ssfOUT_30_0.5_1_KINGCOBRA.27",1.52152075994713,0.830522229602705,2.21251929029156,"ssf","mf.ss","gamma","unif",15,"ssfOUT_30_0.5_1_KINGCOBRA","KINGCOBRA",1,2,30,"preference"
"ssfOUT_30_0.5_1_KINGCOBRA.28",1.4786481836027,0.764285099337586,2.19301126786781,"ssf","mf.ss","gamma","unif",50,"ssfOUT_30_0.5_1_KINGCOBRA","KINGCOBRA",1,2,30,"preference"
"ssfOUT_30_0.5_1_KINGCOBRA.29",1.53335055404389,0.836744295832019,2.22995681225577,"ssf","mf.ss","gamma","unif",158,"ssfOUT_30_0.5_1_KINGCOBRA","KINGCOBRA",1,2,30,"preference"
"ssfOUT_30_0.5_1_KINGCOBRA.30",1.45647222384715,0.766983933694612,2.1459605139997,"ssf","mf.ss","gamma","unif",500,"ssfOUT_30_0.5_1_KINGCOBRA","KINGCOBRA",1,2,30,"preference"
"ssfOUT_30_0.5_1_KINGCOBRA.31",2.34865194250732,1.53646816015855,3.1608357248561,"ssf","mf.ss","exp","vonmises",5,"ssfOUT_30_0.5_1_KINGCOBRA","KINGCOBRA",1,2,30,"preference"
"ssfOUT_30_0.5_1_KINGCOBRA.32",1.87364654008752,1.22220561567877,2.52508746449626,"ssf","mf.ss","exp","vonmises",15,"ssfOUT_30_0.5_1_KINGCOBRA","KINGCOBRA",1,2,30,"preference"
"ssfOUT_30_0.5_1_KINGCOBRA.33",1.97585956132045,1.30008666938053,2.65163245326037,"ssf","mf.ss","exp","vonmises",50,"ssfOUT_30_0.5_1_KINGCOBRA","KINGCOBRA",1,2,30,"preference"
"ssfOUT_30_0.5_1_KINGCOBRA.34",2.00091703815344,1.34142645435003,2.66040762195685,"ssf","mf.ss","exp","vonmises",158,"ssfOUT_30_0.5_1_KINGCOBRA","KINGCOBRA",1,2,30,"preference"
"ssfOUT_30_0.5_1_KINGCOBRA.35",2.03621859728071,1.36588369267236,2.70655350188906,"ssf","mf.ss","exp","vonmises",500,"ssfOUT_30_0.5_1_KINGCOBRA","KINGCOBRA",1,2,30,"preference"
"ssfOUT_30_0.5_1_KINGCOBRA.36",2.03244675047522,1.2711645127074,2.79372898824303,"ssf","mf.ss","exp","unif",5,"ssfOUT_30_0.5_1_KINGCOBRA","KINGCOBRA",1,2,30,"preference"
"ssfOUT_30_0.5_1_KINGCOBRA.37",2.24517736632467,1.55225888490117,2.93809584774817,"ssf","mf.ss","exp","unif",15,"ssfOUT_30_0.5_1_KINGCOBRA","KINGCOBRA",1,2,30,"preference"
"ssfOUT_30_0.5_1_KINGCOBRA.38",2.05731425285622,1.3916932132158,2.72293529249663,"ssf","mf.ss","exp","unif",50,"ssfOUT_30_0.5_1_KINGCOBRA","KINGCOBRA",1,2,30,"preference"
"ssfOUT_30_0.5_1_KINGCOBRA.39",1.93674638737567,1.2623641527951,2.61112862195624,"ssf","mf.ss","exp","unif",158,"ssfOUT_30_0.5_1_KINGCOBRA","KINGCOBRA",1,2,30,"preference"
"ssfOUT_30_0.5_1_KINGCOBRA.40",1.99638453790335,1.33033323129689,2.66243584450981,"ssf","mf.ss","exp","unif",500,"ssfOUT_30_0.5_1_KINGCOBRA","KINGCOBRA",1,2,30,"preference"
"ssfOUT_30_0.5_2_BADGER.1",0.415848986028049,0.13975210813168,0.691945863924419,"ssf","mf.is","gamma","vonmises",5,"ssfOUT_30_0.5_2_BADGER","BADGER",2,2,30,"preference"
"ssfOUT_30_0.5_2_BADGER.2",0.539646501067256,0.282610141246579,0.796682860887933,"ssf","mf.is","gamma","vonmises",15,"ssfOUT_30_0.5_2_BADGER","BADGER",2,2,30,"preference"
"ssfOUT_30_0.5_2_BADGER.3",0.481270161114814,0.22403164024281,0.738508681986817,"ssf","mf.is","gamma","vonmises",50,"ssfOUT_30_0.5_2_BADGER","BADGER",2,2,30,"preference"
"ssfOUT_30_0.5_2_BADGER.4",0.453095901525511,0.197458404859837,0.708733398191186,"ssf","mf.is","gamma","vonmises",158,"ssfOUT_30_0.5_2_BADGER","BADGER",2,2,30,"preference"
"ssfOUT_30_0.5_2_BADGER.5",0.462739087648968,0.208671569825216,0.71680660547272,"ssf","mf.is","gamma","vonmises",500,"ssfOUT_30_0.5_2_BADGER","BADGER",2,2,30,"preference"
"ssfOUT_30_0.5_2_BADGER.6",0.263524467592346,-0.0126210199649867,0.539669955149678,"ssf","mf.is","gamma","unif",5,"ssfOUT_30_0.5_2_BADGER","BADGER",2,2,30,"no effect"
"ssfOUT_30_0.5_2_BADGER.7",0.466441680073081,0.202596883408161,0.730286476738001,"ssf","mf.is","gamma","unif",15,"ssfOUT_30_0.5_2_BADGER","BADGER",2,2,30,"preference"
"ssfOUT_30_0.5_2_BADGER.8",0.421862481530247,0.164369595199765,0.679355367860728,"ssf","mf.is","gamma","unif",50,"ssfOUT_30_0.5_2_BADGER","BADGER",2,2,30,"preference"
"ssfOUT_30_0.5_2_BADGER.9",0.471967624562577,0.216724570271627,0.727210678853526,"ssf","mf.is","gamma","unif",158,"ssfOUT_30_0.5_2_BADGER","BADGER",2,2,30,"preference"
"ssfOUT_30_0.5_2_BADGER.10",0.463520839111264,0.208431391285812,0.718610286936717,"ssf","mf.is","gamma","unif",500,"ssfOUT_30_0.5_2_BADGER","BADGER",2,2,30,"preference"
"ssfOUT_30_0.5_2_BADGER.11",0.539424284636471,0.264305112983938,0.814543456289005,"ssf","mf.is","exp","vonmises",5,"ssfOUT_30_0.5_2_BADGER","BADGER",2,2,30,"preference"
"ssfOUT_30_0.5_2_BADGER.12",0.480819021911868,0.22498443864892,0.736653605174816,"ssf","mf.is","exp","vonmises",15,"ssfOUT_30_0.5_2_BADGER","BADGER",2,2,30,"preference"
"ssfOUT_30_0.5_2_BADGER.13",0.459491718937622,0.199774506490682,0.719208931384562,"ssf","mf.is","exp","vonmises",50,"ssfOUT_30_0.5_2_BADGER","BADGER",2,2,30,"preference"
"ssfOUT_30_0.5_2_BADGER.14",0.504308015238647,0.250036385656104,0.758579644821191,"ssf","mf.is","exp","vonmises",158,"ssfOUT_30_0.5_2_BADGER","BADGER",2,2,30,"preference"
"ssfOUT_30_0.5_2_BADGER.15",0.458281464979718,0.202740057657065,0.713822872302371,"ssf","mf.is","exp","vonmises",500,"ssfOUT_30_0.5_2_BADGER","BADGER",2,2,30,"preference"
"ssfOUT_30_0.5_2_BADGER.16",0.312272598747599,0.0456222926647528,0.578922904830446,"ssf","mf.is","exp","unif",5,"ssfOUT_30_0.5_2_BADGER","BADGER",2,2,30,"preference"
"ssfOUT_30_0.5_2_BADGER.17",0.516290810237594,0.254814694949169,0.77776692552602,"ssf","mf.is","exp","unif",15,"ssfOUT_30_0.5_2_BADGER","BADGER",2,2,30,"preference"
"ssfOUT_30_0.5_2_BADGER.18",0.570493955974159,0.312407524636494,0.828580387311823,"ssf","mf.is","exp","unif",50,"ssfOUT_30_0.5_2_BADGER","BADGER",2,2,30,"preference"
"ssfOUT_30_0.5_2_BADGER.19",0.477279468068304,0.221532054194417,0.73302688194219,"ssf","mf.is","exp","unif",158,"ssfOUT_30_0.5_2_BADGER","BADGER",2,2,30,"preference"
"ssfOUT_30_0.5_2_BADGER.20",0.449497386525894,0.194900309770634,0.704094463281153,"ssf","mf.is","exp","unif",500,"ssfOUT_30_0.5_2_BADGER","BADGER",2,2,30,"preference"
"ssfOUT_30_0.5_2_BADGER.21",0.402602224657899,0.124877955795417,0.680326493520381,"ssf","mf.ss","gamma","vonmises",5,"ssfOUT_30_0.5_2_BADGER","BADGER",2,2,30,"preference"
"ssfOUT_30_0.5_2_BADGER.22",0.539611420613659,0.280619417852656,0.798603423374663,"ssf","mf.ss","gamma","vonmises",15,"ssfOUT_30_0.5_2_BADGER","BADGER",2,2,30,"preference"
"ssfOUT_30_0.5_2_BADGER.23",0.479325941032358,0.219534529075312,0.739117352989404,"ssf","mf.ss","gamma","vonmises",50,"ssfOUT_30_0.5_2_BADGER","BADGER",2,2,30,"preference"
"ssfOUT_30_0.5_2_BADGER.24",0.44664934234034,0.188186773475174,0.705111911205505,"ssf","mf.ss","gamma","vonmises",158,"ssfOUT_30_0.5_2_BADGER","BADGER",2,2,30,"preference"
"ssfOUT_30_0.5_2_BADGER.25",0.45486869271909,0.197856967543511,0.711880417894668,"ssf","mf.ss","gamma","vonmises",500,"ssfOUT_30_0.5_2_BADGER","BADGER",2,2,30,"preference"
"ssfOUT_30_0.5_2_BADGER.26",0.247388591360598,-0.0302112838860916,0.524988466607287,"ssf","mf.ss","gamma","unif",5,"ssfOUT_30_0.5_2_BADGER","BADGER",2,2,30,"no effect"
"ssfOUT_30_0.5_2_BADGER.27",0.452112363306442,0.186623714504348,0.717601012108536,"ssf","mf.ss","gamma","unif",15,"ssfOUT_30_0.5_2_BADGER","BADGER",2,2,30,"preference"
"ssfOUT_30_0.5_2_BADGER.28",0.41461566794714,0.154621783562654,0.674609552331625,"ssf","mf.ss","gamma","unif",50,"ssfOUT_30_0.5_2_BADGER","BADGER",2,2,30,"preference"
"ssfOUT_30_0.5_2_BADGER.29",0.46252028905417,0.204759979195729,0.720280598912611,"ssf","mf.ss","gamma","unif",158,"ssfOUT_30_0.5_2_BADGER","BADGER",2,2,30,"preference"
"ssfOUT_30_0.5_2_BADGER.30",0.454165156619258,0.196297064100726,0.712033249137789,"ssf","mf.ss","gamma","unif",500,"ssfOUT_30_0.5_2_BADGER","BADGER",2,2,30,"preference"
"ssfOUT_30_0.5_2_BADGER.31",0.573455572848813,0.302101878369387,0.844809267328239,"ssf","mf.ss","exp","vonmises",5,"ssfOUT_30_0.5_2_BADGER","BADGER",2,2,30,"preference"
"ssfOUT_30_0.5_2_BADGER.32",0.456066937719848,0.200179593864857,0.711954281574839,"ssf","mf.ss","exp","vonmises",15,"ssfOUT_30_0.5_2_BADGER","BADGER",2,2,30,"preference"
"ssfOUT_30_0.5_2_BADGER.33",0.381900964522954,0.122317616047755,0.641484312998153,"ssf","mf.ss","exp","vonmises",50,"ssfOUT_30_0.5_2_BADGER","BADGER",2,2,30,"preference"
"ssfOUT_30_0.5_2_BADGER.34",0.438161555150267,0.18394551612421,0.692377594176323,"ssf","mf.ss","exp","vonmises",158,"ssfOUT_30_0.5_2_BADGER","BADGER",2,2,30,"preference"
"ssfOUT_30_0.5_2_BADGER.35",0.431548323680863,0.176037698882595,0.687058948479131,"ssf","mf.ss","exp","vonmises",500,"ssfOUT_30_0.5_2_BADGER","BADGER",2,2,30,"preference"
"ssfOUT_30_0.5_2_BADGER.36",0.401236194656762,0.136905587978739,0.665566801334785,"ssf","mf.ss","exp","unif",5,"ssfOUT_30_0.5_2_BADGER","BADGER",2,2,30,"preference"
"ssfOUT_30_0.5_2_BADGER.37",0.487390345190354,0.227635085597188,0.74714560478352,"ssf","mf.ss","exp","unif",15,"ssfOUT_30_0.5_2_BADGER","BADGER",2,2,30,"preference"
"ssfOUT_30_0.5_2_BADGER.38",0.472488756400983,0.21742472287244,0.727552789929527,"ssf","mf.ss","exp","unif",50,"ssfOUT_30_0.5_2_BADGER","BADGER",2,2,30,"preference"
"ssfOUT_30_0.5_2_BADGER.39",0.457921202720571,0.202130660549567,0.713711744891576,"ssf","mf.ss","exp","unif",158,"ssfOUT_30_0.5_2_BADGER","BADGER",2,2,30,"preference"
"ssfOUT_30_0.5_2_BADGER.40",0.41877991849412,0.164248283116701,0.67331155387154,"ssf","mf.ss","exp","unif",500,"ssfOUT_30_0.5_2_BADGER","BADGER",2,2,30,"preference"
"ssfOUT_30_0.5_2_VULTURE.1",0.31109338918645,0.0377279110904079,0.584458867282493,"ssf","mf.is","gamma","vonmises",5,"ssfOUT_30_0.5_2_VULTURE","VULTURE",2,2,30,"preference"
"ssfOUT_30_0.5_2_VULTURE.2",0.274653142999586,0.0132981147542934,0.536008171244879,"ssf","mf.is","gamma","vonmises",15,"ssfOUT_30_0.5_2_VULTURE","VULTURE",2,2,30,"preference"
"ssfOUT_30_0.5_2_VULTURE.3",0.319510177011547,0.0632239345498517,0.575796419473243,"ssf","mf.is","gamma","vonmises",50,"ssfOUT_30_0.5_2_VULTURE","VULTURE",2,2,30,"preference"
"ssfOUT_30_0.5_2_VULTURE.4",0.247979401065241,-0.00657886998400906,0.502537672114492,"ssf","mf.is","gamma","vonmises",158,"ssfOUT_30_0.5_2_VULTURE","VULTURE",2,2,30,"no effect"
"ssfOUT_30_0.5_2_VULTURE.5",0.275996542224466,0.0215072859136005,0.530485798535331,"ssf","mf.is","gamma","vonmises",500,"ssfOUT_30_0.5_2_VULTURE","VULTURE",2,2,30,"preference"
"ssfOUT_30_0.5_2_VULTURE.6",0.418829050273807,0.143892230230435,0.693765870317179,"ssf","mf.is","gamma","unif",5,"ssfOUT_30_0.5_2_VULTURE","VULTURE",2,2,30,"preference"
"ssfOUT_30_0.5_2_VULTURE.7",0.258647924433929,-0.0030588514079351,0.520354700275794,"ssf","mf.is","gamma","unif",15,"ssfOUT_30_0.5_2_VULTURE","VULTURE",2,2,30,"no effect"
"ssfOUT_30_0.5_2_VULTURE.8",0.274849282159095,0.0177968307319517,0.531901733586239,"ssf","mf.is","gamma","unif",50,"ssfOUT_30_0.5_2_VULTURE","VULTURE",2,2,30,"preference"
"ssfOUT_30_0.5_2_VULTURE.9",0.269611017895564,0.0140564827628091,0.525165553028319,"ssf","mf.is","gamma","unif",158,"ssfOUT_30_0.5_2_VULTURE","VULTURE",2,2,30,"preference"
"ssfOUT_30_0.5_2_VULTURE.10",0.271953078739882,0.0175240098830435,0.52638214759672,"ssf","mf.is","gamma","unif",500,"ssfOUT_30_0.5_2_VULTURE","VULTURE",2,2,30,"preference"
"ssfOUT_30_0.5_2_VULTURE.11",0.350608829859462,0.0680386393949773,0.633179020323946,"ssf","mf.is","exp","vonmises",5,"ssfOUT_30_0.5_2_VULTURE","VULTURE",2,2,30,"preference"
"ssfOUT_30_0.5_2_VULTURE.12",0.334311210391031,0.0710018591330346,0.597620561649027,"ssf","mf.is","exp","vonmises",15,"ssfOUT_30_0.5_2_VULTURE","VULTURE",2,2,30,"preference"
"ssfOUT_30_0.5_2_VULTURE.13",0.269942723589344,0.013542288886927,0.526343158291761,"ssf","mf.is","exp","vonmises",50,"ssfOUT_30_0.5_2_VULTURE","VULTURE",2,2,30,"preference"
"ssfOUT_30_0.5_2_VULTURE.14",0.299091916218423,0.0433526348624668,0.554831197574379,"ssf","mf.is","exp","vonmises",158,"ssfOUT_30_0.5_2_VULTURE","VULTURE",2,2,30,"preference"
"ssfOUT_30_0.5_2_VULTURE.15",0.247862712177124,-0.00689724893038918,0.502622673284638,"ssf","mf.is","exp","vonmises",500,"ssfOUT_30_0.5_2_VULTURE","VULTURE",2,2,30,"no effect"
"ssfOUT_30_0.5_2_VULTURE.16",0.588300929824965,0.30452973320209,0.872072126447839,"ssf","mf.is","exp","unif",5,"ssfOUT_30_0.5_2_VULTURE","VULTURE",2,2,30,"preference"
"ssfOUT_30_0.5_2_VULTURE.17",0.330464915553184,0.0677320733604448,0.593197757745923,"ssf","mf.is","exp","unif",15,"ssfOUT_30_0.5_2_VULTURE","VULTURE",2,2,30,"preference"
"ssfOUT_30_0.5_2_VULTURE.18",0.32019191819935,0.0634579901455239,0.576925846253177,"ssf","mf.is","exp","unif",50,"ssfOUT_30_0.5_2_VULTURE","VULTURE",2,2,30,"preference"
"ssfOUT_30_0.5_2_VULTURE.19",0.289374984863595,0.0333752716612356,0.545374698065954,"ssf","mf.is","exp","unif",158,"ssfOUT_30_0.5_2_VULTURE","VULTURE",2,2,30,"preference"
"ssfOUT_30_0.5_2_VULTURE.20",0.288741812870227,0.0338523443446186,0.543631281395835,"ssf","mf.is","exp","unif",500,"ssfOUT_30_0.5_2_VULTURE","VULTURE",2,2,30,"preference"
"ssfOUT_30_0.5_2_VULTURE.21",0.310077597201772,0.0368775334494499,0.583277660954094,"ssf","mf.ss","gamma","vonmises",5,"ssfOUT_30_0.5_2_VULTURE","VULTURE",2,2,30,"preference"
"ssfOUT_30_0.5_2_VULTURE.22",0.276037169282321,0.0147398415647562,0.537334496999886,"ssf","mf.ss","gamma","vonmises",15,"ssfOUT_30_0.5_2_VULTURE","VULTURE",2,2,30,"preference"
"ssfOUT_30_0.5_2_VULTURE.23",0.317873953420236,0.0616889777702087,0.574058929070263,"ssf","mf.ss","gamma","vonmises",50,"ssfOUT_30_0.5_2_VULTURE","VULTURE",2,2,30,"preference"
"ssfOUT_30_0.5_2_VULTURE.24",0.246388295004638,-0.00813764614264154,0.500914236151918,"ssf","mf.ss","gamma","vonmises",158,"ssfOUT_30_0.5_2_VULTURE","VULTURE",2,2,30,"no effect"
"ssfOUT_30_0.5_2_VULTURE.25",0.274420783476468,0.0199494484460629,0.528892118506873,"ssf","mf.ss","gamma","vonmises",500,"ssfOUT_30_0.5_2_VULTURE","VULTURE",2,2,30,"preference"
"ssfOUT_30_0.5_2_VULTURE.26",0.425243177532815,0.150436872889261,0.70004948217637,"ssf","mf.ss","gamma","unif",5,"ssfOUT_30_0.5_2_VULTURE","VULTURE",2,2,30,"preference"
"ssfOUT_30_0.5_2_VULTURE.27",0.261266338881701,-0.000423276538435546,0.522955954301838,"ssf","mf.ss","gamma","unif",15,"ssfOUT_30_0.5_2_VULTURE","VULTURE",2,2,30,"no effect"
"ssfOUT_30_0.5_2_VULTURE.28",0.280066632935453,0.0230300706521274,0.537103195218779,"ssf","mf.ss","gamma","unif",50,"ssfOUT_30_0.5_2_VULTURE","VULTURE",2,2,30,"preference"
"ssfOUT_30_0.5_2_VULTURE.29",0.278014969119576,0.0224335482566531,0.533596389982499,"ssf","mf.ss","gamma","unif",158,"ssfOUT_30_0.5_2_VULTURE","VULTURE",2,2,30,"preference"
"ssfOUT_30_0.5_2_VULTURE.30",0.280604321358801,0.0261634605064566,0.535045182211145,"ssf","mf.ss","gamma","unif",500,"ssfOUT_30_0.5_2_VULTURE","VULTURE",2,2,30,"preference"
"ssfOUT_30_0.5_2_VULTURE.31",0.302231222544967,0.0255758967861169,0.578886548303818,"ssf","mf.ss","exp","vonmises",5,"ssfOUT_30_0.5_2_VULTURE","VULTURE",2,2,30,"preference"
"ssfOUT_30_0.5_2_VULTURE.32",0.289599537420813,0.0250445585174648,0.554154516324161,"ssf","mf.ss","exp","vonmises",15,"ssfOUT_30_0.5_2_VULTURE","VULTURE",2,2,30,"preference"
"ssfOUT_30_0.5_2_VULTURE.33",0.24181107498819,-0.0172285735847742,0.500850723561153,"ssf","mf.ss","exp","vonmises",50,"ssfOUT_30_0.5_2_VULTURE","VULTURE",2,2,30,"no effect"
"ssfOUT_30_0.5_2_VULTURE.34",0.248204112813451,-0.0100357094513971,0.5064439350783,"ssf","mf.ss","exp","vonmises",158,"ssfOUT_30_0.5_2_VULTURE","VULTURE",2,2,30,"no effect"
"ssfOUT_30_0.5_2_VULTURE.35",0.198909010204707,-0.0582058554438273,0.456023875853241,"ssf","mf.ss","exp","vonmises",500,"ssfOUT_30_0.5_2_VULTURE","VULTURE",2,2,30,"no effect"
"ssfOUT_30_0.5_2_VULTURE.36",0.477450889448356,0.197809854845902,0.75709192405081,"ssf","mf.ss","exp","unif",5,"ssfOUT_30_0.5_2_VULTURE","VULTURE",2,2,30,"preference"
"ssfOUT_30_0.5_2_VULTURE.37",0.269732763983153,0.00659376862676331,0.532871759339543,"ssf","mf.ss","exp","unif",15,"ssfOUT_30_0.5_2_VULTURE","VULTURE",2,2,30,"preference"
"ssfOUT_30_0.5_2_VULTURE.38",0.246623891615594,-0.01282693552413,0.506074718755318,"ssf","mf.ss","exp","unif",50,"ssfOUT_30_0.5_2_VULTURE","VULTURE",2,2,30,"no effect"
"ssfOUT_30_0.5_2_VULTURE.39",0.252979398030367,-0.0045241631941228,0.510482959254857,"ssf","mf.ss","exp","unif",158,"ssfOUT_30_0.5_2_VULTURE","VULTURE",2,2,30,"no effect"
"ssfOUT_30_0.5_2_VULTURE.40",0.237924345196729,-0.0196401568253012,0.495488847218758,"ssf","mf.ss","exp","unif",500,"ssfOUT_30_0.5_2_VULTURE","VULTURE",2,2,30,"no effect"
"ssfOUT_30_0.5_2_KINGCOBRA.1",0.591417104711602,0.235842998055335,0.946991211367868,"ssf","mf.is","gamma","vonmises",5,"ssfOUT_30_0.5_2_KINGCOBRA","KINGCOBRA",2,2,30,"preference"
"ssfOUT_30_0.5_2_KINGCOBRA.2",0.533531771454217,0.185791399061252,0.881272143847183,"ssf","mf.is","gamma","vonmises",15,"ssfOUT_30_0.5_2_KINGCOBRA","KINGCOBRA",2,2,30,"preference"
"ssfOUT_30_0.5_2_KINGCOBRA.3",0.542243954199106,0.193964692213284,0.890523216184927,"ssf","mf.is","gamma","vonmises",50,"ssfOUT_30_0.5_2_KINGCOBRA","KINGCOBRA",2,2,30,"preference"
"ssfOUT_30_0.5_2_KINGCOBRA.4",0.512878445337394,0.167805376851164,0.857951513823623,"ssf","mf.is","gamma","vonmises",158,"ssfOUT_30_0.5_2_KINGCOBRA","KINGCOBRA",2,2,30,"preference"
"ssfOUT_30_0.5_2_KINGCOBRA.5",0.516651985284019,0.171331925321904,0.861972045246134,"ssf","mf.is","gamma","vonmises",500,"ssfOUT_30_0.5_2_KINGCOBRA","KINGCOBRA",2,2,30,"preference"
"ssfOUT_30_0.5_2_KINGCOBRA.6",0.530128528417868,0.17513857435461,0.885118482481127,"ssf","mf.is","gamma","unif",5,"ssfOUT_30_0.5_2_KINGCOBRA","KINGCOBRA",2,2,30,"preference"
"ssfOUT_30_0.5_2_KINGCOBRA.7",0.517535961601529,0.175826057333906,0.859245865869153,"ssf","mf.is","gamma","unif",15,"ssfOUT_30_0.5_2_KINGCOBRA","KINGCOBRA",2,2,30,"preference"
"ssfOUT_30_0.5_2_KINGCOBRA.8",0.486507398947578,0.143231328412753,0.829783469482403,"ssf","mf.is","gamma","unif",50,"ssfOUT_30_0.5_2_KINGCOBRA","KINGCOBRA",2,2,30,"preference"
"ssfOUT_30_0.5_2_KINGCOBRA.9",0.466523308791418,0.122238300087544,0.810808317495291,"ssf","mf.is","gamma","unif",158,"ssfOUT_30_0.5_2_KINGCOBRA","KINGCOBRA",2,2,30,"preference"
"ssfOUT_30_0.5_2_KINGCOBRA.10",0.491281640074808,0.146731026125776,0.835832254023839,"ssf","mf.is","gamma","unif",500,"ssfOUT_30_0.5_2_KINGCOBRA","KINGCOBRA",2,2,30,"preference"
"ssfOUT_30_0.5_2_KINGCOBRA.11",0.416771402822884,0.0423538502123803,0.791188955433388,"ssf","mf.is","exp","vonmises",5,"ssfOUT_30_0.5_2_KINGCOBRA","KINGCOBRA",2,2,30,"preference"
"ssfOUT_30_0.5_2_KINGCOBRA.12",0.455846633170334,0.0847652150895287,0.82692805125114,"ssf","mf.is","exp","vonmises",15,"ssfOUT_30_0.5_2_KINGCOBRA","KINGCOBRA",2,2,30,"preference"
"ssfOUT_30_0.5_2_KINGCOBRA.13",0.410879286329361,0.0671942155798324,0.754564357078889,"ssf","mf.is","exp","vonmises",50,"ssfOUT_30_0.5_2_KINGCOBRA","KINGCOBRA",2,2,30,"preference"
"ssfOUT_30_0.5_2_KINGCOBRA.14",0.515175018959584,0.154406068916277,0.87594396900289,"ssf","mf.is","exp","vonmises",158,"ssfOUT_30_0.5_2_KINGCOBRA","KINGCOBRA",2,2,30,"preference"
"ssfOUT_30_0.5_2_KINGCOBRA.15",0.51213342696364,0.152715513421528,0.871551340505752,"ssf","mf.is","exp","vonmises",500,"ssfOUT_30_0.5_2_KINGCOBRA","KINGCOBRA",2,2,30,"preference"
"ssfOUT_30_0.5_2_KINGCOBRA.16",0.330654349325689,-0.0758998516027288,0.737208550254106,"ssf","mf.is","exp","unif",5,"ssfOUT_30_0.5_2_KINGCOBRA","KINGCOBRA",2,2,30,"no effect"
"ssfOUT_30_0.5_2_KINGCOBRA.17",0.430080597553222,0.0944524136133151,0.765708781493128,"ssf","mf.is","exp","unif",15,"ssfOUT_30_0.5_2_KINGCOBRA","KINGCOBRA",2,2,30,"preference"
"ssfOUT_30_0.5_2_KINGCOBRA.18",0.38843049022845,0.0350128107363809,0.741848169720519,"ssf","mf.is","exp","unif",50,"ssfOUT_30_0.5_2_KINGCOBRA","KINGCOBRA",2,2,30,"preference"
"ssfOUT_30_0.5_2_KINGCOBRA.19",0.417248595726525,0.0769914320765004,0.75750575937655,"ssf","mf.is","exp","unif",158,"ssfOUT_30_0.5_2_KINGCOBRA","KINGCOBRA",2,2,30,"preference"
"ssfOUT_30_0.5_2_KINGCOBRA.20",0.499608050869707,0.141424084166038,0.857792017573376,"ssf","mf.is","exp","unif",500,"ssfOUT_30_0.5_2_KINGCOBRA","KINGCOBRA",2,2,30,"preference"
"ssfOUT_30_0.5_2_KINGCOBRA.21",0.571348018654867,0.215352956427143,0.927343080882591,"ssf","mf.ss","gamma","vonmises",5,"ssfOUT_30_0.5_2_KINGCOBRA","KINGCOBRA",2,2,30,"preference"
"ssfOUT_30_0.5_2_KINGCOBRA.22",0.525972853947464,0.177004257109298,0.874941450785629,"ssf","mf.ss","gamma","vonmises",15,"ssfOUT_30_0.5_2_KINGCOBRA","KINGCOBRA",2,2,30,"preference"
"ssfOUT_30_0.5_2_KINGCOBRA.23",0.535214675499375,0.185686972072332,0.884742378926418,"ssf","mf.ss","gamma","vonmises",50,"ssfOUT_30_0.5_2_KINGCOBRA","KINGCOBRA",2,2,30,"preference"
"ssfOUT_30_0.5_2_KINGCOBRA.24",0.511519294751375,0.164506359211091,0.858532230291659,"ssf","mf.ss","gamma","vonmises",158,"ssfOUT_30_0.5_2_KINGCOBRA","KINGCOBRA",2,2,30,"preference"
"ssfOUT_30_0.5_2_KINGCOBRA.25",0.516450210288333,0.169139134371126,0.863761286205541,"ssf","mf.ss","gamma","vonmises",500,"ssfOUT_30_0.5_2_KINGCOBRA","KINGCOBRA",2,2,30,"preference"
"ssfOUT_30_0.5_2_KINGCOBRA.26",0.507782968067131,0.150757582353566,0.864808353780695,"ssf","mf.ss","gamma","unif",5,"ssfOUT_30_0.5_2_KINGCOBRA","KINGCOBRA",2,2,30,"preference"
"ssfOUT_30_0.5_2_KINGCOBRA.27",0.51231090324741,0.16886495381335,0.85575685268147,"ssf","mf.ss","gamma","unif",15,"ssfOUT_30_0.5_2_KINGCOBRA","KINGCOBRA",2,2,30,"preference"
"ssfOUT_30_0.5_2_KINGCOBRA.28",0.486479503313142,0.141177978499647,0.831781028126637,"ssf","mf.ss","gamma","unif",50,"ssfOUT_30_0.5_2_KINGCOBRA","KINGCOBRA",2,2,30,"preference"
"ssfOUT_30_0.5_2_KINGCOBRA.29",0.464831316277106,0.118759574130613,0.810903058423599,"ssf","mf.ss","gamma","unif",158,"ssfOUT_30_0.5_2_KINGCOBRA","KINGCOBRA",2,2,30,"preference"
"ssfOUT_30_0.5_2_KINGCOBRA.30",0.488757785674393,0.142180893218055,0.835334678130731,"ssf","mf.ss","gamma","unif",500,"ssfOUT_30_0.5_2_KINGCOBRA","KINGCOBRA",2,2,30,"preference"
"ssfOUT_30_0.5_2_KINGCOBRA.31",0.462954734875016,0.0965090789700646,0.829400390779967,"ssf","mf.ss","exp","vonmises",5,"ssfOUT_30_0.5_2_KINGCOBRA","KINGCOBRA",2,2,30,"preference"
"ssfOUT_30_0.5_2_KINGCOBRA.32",0.591673876536607,0.239820399977229,0.943527353095984,"ssf","mf.ss","exp","vonmises",15,"ssfOUT_30_0.5_2_KINGCOBRA","KINGCOBRA",2,2,30,"preference"
"ssfOUT_30_0.5_2_KINGCOBRA.33",0.568306708508896,0.240698221543518,0.895915195474275,"ssf","mf.ss","exp","vonmises",50,"ssfOUT_30_0.5_2_KINGCOBRA","KINGCOBRA",2,2,30,"preference"
"ssfOUT_30_0.5_2_KINGCOBRA.34",0.561412862349285,0.232014608965122,0.890811115733448,"ssf","mf.ss","exp","vonmises",158,"ssfOUT_30_0.5_2_KINGCOBRA","KINGCOBRA",2,2,30,"preference"
"ssfOUT_30_0.5_2_KINGCOBRA.35",0.523677991636675,0.191299951279936,0.856056031993415,"ssf","mf.ss","exp","vonmises",500,"ssfOUT_30_0.5_2_KINGCOBRA","KINGCOBRA",2,2,30,"preference"
"ssfOUT_30_0.5_2_KINGCOBRA.36",0.374388301755769,0.00504586972918436,0.743730733782355,"ssf","mf.ss","exp","unif",5,"ssfOUT_30_0.5_2_KINGCOBRA","KINGCOBRA",2,2,30,"preference"
"ssfOUT_30_0.5_2_KINGCOBRA.37",0.598162121029676,0.264988246505571,0.93133599555378,"ssf","mf.ss","exp","unif",15,"ssfOUT_30_0.5_2_KINGCOBRA","KINGCOBRA",2,2,30,"preference"
"ssfOUT_30_0.5_2_KINGCOBRA.38",0.487339529260376,0.154208895009374,0.820470163511379,"ssf","mf.ss","exp","unif",50,"ssfOUT_30_0.5_2_KINGCOBRA","KINGCOBRA",2,2,30,"preference"
"ssfOUT_30_0.5_2_KINGCOBRA.39",0.569552924206043,0.236915950373922,0.902189898038164,"ssf","mf.ss","exp","unif",158,"ssfOUT_30_0.5_2_KINGCOBRA","KINGCOBRA",2,2,30,"preference"
"ssfOUT_30_0.5_2_KINGCOBRA.40",0.5257619879698,0.194553547101186,0.856970428838414,"ssf","mf.ss","exp","unif",500,"ssfOUT_30_0.5_2_KINGCOBRA","KINGCOBRA",2,2,30,"preference"
"ssfOUT_30_0.5_3_BADGER.1",0.276711645566339,0.0230863236768438,0.530336967455835,"ssf","mf.is","gamma","vonmises",5,"ssfOUT_30_0.5_3_BADGER","BADGER",3,2,30,"preference"
"ssfOUT_30_0.5_3_BADGER.2",0.068403444707368,-0.178572983820068,0.315379873234804,"ssf","mf.is","gamma","vonmises",15,"ssfOUT_30_0.5_3_BADGER","BADGER",3,2,30,"no effect"
"ssfOUT_30_0.5_3_BADGER.3",0.112267779099204,-0.129056696225853,0.353592254424262,"ssf","mf.is","gamma","vonmises",50,"ssfOUT_30_0.5_3_BADGER","BADGER",3,2,30,"no effect"
"ssfOUT_30_0.5_3_BADGER.4",0.118631424103944,-0.119416218813039,0.356679067020927,"ssf","mf.is","gamma","vonmises",158,"ssfOUT_30_0.5_3_BADGER","BADGER",3,2,30,"no effect"
"ssfOUT_30_0.5_3_BADGER.5",0.117532745853803,-0.120979496001626,0.356044987709232,"ssf","mf.is","gamma","vonmises",500,"ssfOUT_30_0.5_3_BADGER","BADGER",3,2,30,"no effect"
"ssfOUT_30_0.5_3_BADGER.6",0.0853515797310101,-0.180484300611772,0.351187460073793,"ssf","mf.is","gamma","unif",5,"ssfOUT_30_0.5_3_BADGER","BADGER",3,2,30,"no effect"
"ssfOUT_30_0.5_3_BADGER.7",0.161849438562026,-0.0870564033178697,0.410755280441923,"ssf","mf.is","gamma","unif",15,"ssfOUT_30_0.5_3_BADGER","BADGER",3,2,30,"no effect"
"ssfOUT_30_0.5_3_BADGER.8",0.0902263378015933,-0.149098625526959,0.329551301130146,"ssf","mf.is","gamma","unif",50,"ssfOUT_30_0.5_3_BADGER","BADGER",3,2,30,"no effect"
"ssfOUT_30_0.5_3_BADGER.9",0.124377792007171,-0.11540839393854,0.364163977952882,"ssf","mf.is","gamma","unif",158,"ssfOUT_30_0.5_3_BADGER","BADGER",3,2,30,"no effect"
"ssfOUT_30_0.5_3_BADGER.10",0.0970548010237246,-0.142026281681453,0.336135883728902,"ssf","mf.is","gamma","unif",500,"ssfOUT_30_0.5_3_BADGER","BADGER",3,2,30,"no effect"
"ssfOUT_30_0.5_3_BADGER.11",0.0916325018792002,-0.175199411431659,0.358464415190059,"ssf","mf.is","exp","vonmises",5,"ssfOUT_30_0.5_3_BADGER","BADGER",3,2,30,"no effect"
"ssfOUT_30_0.5_3_BADGER.12",0.0493447915071242,-0.19478484225225,0.293474425266498,"ssf","mf.is","exp","vonmises",15,"ssfOUT_30_0.5_3_BADGER","BADGER",3,2,30,"no effect"
"ssfOUT_30_0.5_3_BADGER.13",0.101233478456129,-0.139267068666379,0.341734025578637,"ssf","mf.is","exp","vonmises",50,"ssfOUT_30_0.5_3_BADGER","BADGER",3,2,30,"no effect"
"ssfOUT_30_0.5_3_BADGER.14",0.0784332327628602,-0.159807402789224,0.316673868314944,"ssf","mf.is","exp","vonmises",158,"ssfOUT_30_0.5_3_BADGER","BADGER",3,2,30,"no effect"
"ssfOUT_30_0.5_3_BADGER.15",0.0973694538564804,-0.140563951244126,0.335302858957087,"ssf","mf.is","exp","vonmises",500,"ssfOUT_30_0.5_3_BADGER","BADGER",3,2,30,"no effect"
"ssfOUT_30_0.5_3_BADGER.16",0.114410251319031,-0.150947081980411,0.379767584618472,"ssf","mf.is","exp","unif",5,"ssfOUT_30_0.5_3_BADGER","BADGER",3,2,30,"no effect"
"ssfOUT_30_0.5_3_BADGER.17",0.0486827771787155,-0.199177291650668,0.296542846008099,"ssf","mf.is","exp","unif",15,"ssfOUT_30_0.5_3_BADGER","BADGER",3,2,30,"no effect"
"ssfOUT_30_0.5_3_BADGER.18",0.114480783625402,-0.127380661846316,0.356342229097121,"ssf","mf.is","exp","unif",50,"ssfOUT_30_0.5_3_BADGER","BADGER",3,2,30,"no effect"
"ssfOUT_30_0.5_3_BADGER.19",0.0753975807461029,-0.163959475846723,0.314754637338929,"ssf","mf.is","exp","unif",158,"ssfOUT_30_0.5_3_BADGER","BADGER",3,2,30,"no effect"
"ssfOUT_30_0.5_3_BADGER.20",0.113741069300937,-0.124914917038954,0.352397055640829,"ssf","mf.is","exp","unif",500,"ssfOUT_30_0.5_3_BADGER","BADGER",3,2,30,"no effect"
"ssfOUT_30_0.5_3_BADGER.21",0.277536029698488,0.0239092805633215,0.531162778833654,"ssf","mf.ss","gamma","vonmises",5,"ssfOUT_30_0.5_3_BADGER","BADGER",3,2,30,"preference"
"ssfOUT_30_0.5_3_BADGER.22",0.071295738673171,-0.175629991654233,0.318221469000575,"ssf","mf.ss","gamma","vonmises",15,"ssfOUT_30_0.5_3_BADGER","BADGER",3,2,30,"no effect"
"ssfOUT_30_0.5_3_BADGER.23",0.111301420751031,-0.130360080634525,0.352962922136587,"ssf","mf.ss","gamma","vonmises",50,"ssfOUT_30_0.5_3_BADGER","BADGER",3,2,30,"no effect"
"ssfOUT_30_0.5_3_BADGER.24",0.118763145511037,-0.119469999584518,0.356996290606591,"ssf","mf.ss","gamma","vonmises",158,"ssfOUT_30_0.5_3_BADGER","BADGER",3,2,30,"no effect"
"ssfOUT_30_0.5_3_BADGER.25",0.117873758783334,-0.120792274547095,0.356539792113763,"ssf","mf.ss","gamma","vonmises",500,"ssfOUT_30_0.5_3_BADGER","BADGER",3,2,30,"no effect"
"ssfOUT_30_0.5_3_BADGER.26",0.0989714136841076,-0.165028074836394,0.36297090220461,"ssf","mf.ss","gamma","unif",5,"ssfOUT_30_0.5_3_BADGER","BADGER",3,2,30,"no effect"
"ssfOUT_30_0.5_3_BADGER.27",0.160197543204724,-0.0879832903900692,0.408378376799517,"ssf","mf.ss","gamma","unif",15,"ssfOUT_30_0.5_3_BADGER","BADGER",3,2,30,"no effect"
"ssfOUT_30_0.5_3_BADGER.28",0.0980150324042365,-0.141115220337078,0.337145285145551,"ssf","mf.ss","gamma","unif",50,"ssfOUT_30_0.5_3_BADGER","BADGER",3,2,30,"no effect"
"ssfOUT_30_0.5_3_BADGER.29",0.124945465849606,-0.114802859486628,0.364693791185841,"ssf","mf.ss","gamma","unif",158,"ssfOUT_30_0.5_3_BADGER","BADGER",3,2,30,"no effect"
"ssfOUT_30_0.5_3_BADGER.30",0.103650182588517,-0.13554679745064,0.342847162627674,"ssf","mf.ss","gamma","unif",500,"ssfOUT_30_0.5_3_BADGER","BADGER",3,2,30,"no effect"
"ssfOUT_30_0.5_3_BADGER.31",0.0964890078395611,-0.169779962689818,0.36275797836894,"ssf","mf.ss","exp","vonmises",5,"ssfOUT_30_0.5_3_BADGER","BADGER",3,2,30,"no effect"
"ssfOUT_30_0.5_3_BADGER.32",0.0524316929484226,-0.191207272151028,0.296070658047873,"ssf","mf.ss","exp","vonmises",15,"ssfOUT_30_0.5_3_BADGER","BADGER",3,2,30,"no effect"
"ssfOUT_30_0.5_3_BADGER.33",0.101488989382962,-0.138292399266998,0.341270378032922,"ssf","mf.ss","exp","vonmises",50,"ssfOUT_30_0.5_3_BADGER","BADGER",3,2,30,"no effect"
"ssfOUT_30_0.5_3_BADGER.34",0.0757025088718889,-0.161622942629586,0.313027960373364,"ssf","mf.ss","exp","vonmises",158,"ssfOUT_30_0.5_3_BADGER","BADGER",3,2,30,"no effect"
"ssfOUT_30_0.5_3_BADGER.35",0.0924705851608945,-0.144671493287407,0.329612663609196,"ssf","mf.ss","exp","vonmises",500,"ssfOUT_30_0.5_3_BADGER","BADGER",3,2,30,"no effect"
"ssfOUT_30_0.5_3_BADGER.36",0.097848367332362,-0.165696326426924,0.361393061091648,"ssf","mf.ss","exp","unif",5,"ssfOUT_30_0.5_3_BADGER","BADGER",3,2,30,"no effect"
"ssfOUT_30_0.5_3_BADGER.37",0.0421067113655906,-0.203678370443093,0.287891793174274,"ssf","mf.ss","exp","unif",15,"ssfOUT_30_0.5_3_BADGER","BADGER",3,2,30,"no effect"
"ssfOUT_30_0.5_3_BADGER.38",0.11432888856991,-0.126462625434167,0.355120402573988,"ssf","mf.ss","exp","unif",50,"ssfOUT_30_0.5_3_BADGER","BADGER",3,2,30,"no effect"
"ssfOUT_30_0.5_3_BADGER.39",0.0711648580970483,-0.167048030002115,0.309377746196211,"ssf","mf.ss","exp","unif",158,"ssfOUT_30_0.5_3_BADGER","BADGER",3,2,30,"no effect"
"ssfOUT_30_0.5_3_BADGER.40",0.106554561836314,-0.130985114185881,0.344094237858508,"ssf","mf.ss","exp","unif",500,"ssfOUT_30_0.5_3_BADGER","BADGER",3,2,30,"no effect"
"ssfOUT_30_0.5_3_VULTURE.1",-0.0192044192665696,-0.352905248420612,0.314496409887473,"ssf","mf.is","gamma","vonmises",5,"ssfOUT_30_0.5_3_VULTURE","VULTURE",3,2,30,"no effect"
"ssfOUT_30_0.5_3_VULTURE.2",0.311857731098728,0.0190104077792222,0.604705054418234,"ssf","mf.is","gamma","vonmises",15,"ssfOUT_30_0.5_3_VULTURE","VULTURE",3,2,30,"preference"
"ssfOUT_30_0.5_3_VULTURE.3",0.179953693168301,-0.108278238434018,0.468185624770621,"ssf","mf.is","gamma","vonmises",50,"ssfOUT_30_0.5_3_VULTURE","VULTURE",3,2,30,"no effect"
"ssfOUT_30_0.5_3_VULTURE.4",0.146835026639939,-0.137638702511476,0.431308755791354,"ssf","mf.is","gamma","vonmises",158,"ssfOUT_30_0.5_3_VULTURE","VULTURE",3,2,30,"no effect"
"ssfOUT_30_0.5_3_VULTURE.5",0.19096363836562,-0.0929430481755054,0.474870324906746,"ssf","mf.is","gamma","vonmises",500,"ssfOUT_30_0.5_3_VULTURE","VULTURE",3,2,30,"no effect"
"ssfOUT_30_0.5_3_VULTURE.6",0.438623105164045,0.123211378917485,0.754034831410605,"ssf","mf.is","gamma","unif",5,"ssfOUT_30_0.5_3_VULTURE","VULTURE",3,2,30,"preference"
"ssfOUT_30_0.5_3_VULTURE.7",0.203978848538126,-0.0853560948175654,0.493313791893818,"ssf","mf.is","gamma","unif",15,"ssfOUT_30_0.5_3_VULTURE","VULTURE",3,2,30,"no effect"
"ssfOUT_30_0.5_3_VULTURE.8",0.176249843275813,-0.107480002916916,0.459979689468543,"ssf","mf.is","gamma","unif",50,"ssfOUT_30_0.5_3_VULTURE","VULTURE",3,2,30,"no effect"
"ssfOUT_30_0.5_3_VULTURE.9",0.153787131677039,-0.131347737310462,0.43892200066454,"ssf","mf.is","gamma","unif",158,"ssfOUT_30_0.5_3_VULTURE","VULTURE",3,2,30,"no effect"
"ssfOUT_30_0.5_3_VULTURE.10",0.150440352223909,-0.132468029860237,0.433348734308056,"ssf","mf.is","gamma","unif",500,"ssfOUT_30_0.5_3_VULTURE","VULTURE",3,2,30,"no effect"
"ssfOUT_30_0.5_3_VULTURE.11",-0.165368519067626,-0.498079357945872,0.16734231981062,"ssf","mf.is","exp","vonmises",5,"ssfOUT_30_0.5_3_VULTURE","VULTURE",3,2,30,"no effect"
"ssfOUT_30_0.5_3_VULTURE.12",0.251649344505145,-0.0406559244822768,0.543954613492567,"ssf","mf.is","exp","vonmises",15,"ssfOUT_30_0.5_3_VULTURE","VULTURE",3,2,30,"no effect"
"ssfOUT_30_0.5_3_VULTURE.13",0.0935608838769664,-0.191836132893225,0.378957900647158,"ssf","mf.is","exp","vonmises",50,"ssfOUT_30_0.5_3_VULTURE","VULTURE",3,2,30,"no effect"
"ssfOUT_30_0.5_3_VULTURE.14",0.170146776559479,-0.114304300824245,0.454597853943204,"ssf","mf.is","exp","vonmises",158,"ssfOUT_30_0.5_3_VULTURE","VULTURE",3,2,30,"no effect"
"ssfOUT_30_0.5_3_VULTURE.15",0.182689785093821,-0.101555459820836,0.466935030008477,"ssf","mf.is","exp","vonmises",500,"ssfOUT_30_0.5_3_VULTURE","VULTURE",3,2,30,"no effect"
"ssfOUT_30_0.5_3_VULTURE.16",0.134670735597882,-0.195049530264245,0.464391001460009,"ssf","mf.is","exp","unif",5,"ssfOUT_30_0.5_3_VULTURE","VULTURE",3,2,30,"no effect"
"ssfOUT_30_0.5_3_VULTURE.17",0.0731190592192108,-0.223194982227531,0.369433100665952,"ssf","mf.is","exp","unif",15,"ssfOUT_30_0.5_3_VULTURE","VULTURE",3,2,30,"no effect"
"ssfOUT_30_0.5_3_VULTURE.18",0.22267653710191,-0.065009460662348,0.510362534866169,"ssf","mf.is","exp","unif",50,"ssfOUT_30_0.5_3_VULTURE","VULTURE",3,2,30,"no effect"
"ssfOUT_30_0.5_3_VULTURE.19",0.155396229684348,-0.128209501714411,0.439001961083107,"ssf","mf.is","exp","unif",158,"ssfOUT_30_0.5_3_VULTURE","VULTURE",3,2,30,"no effect"
"ssfOUT_30_0.5_3_VULTURE.20",0.170073173976322,-0.114181319202539,0.454327667155183,"ssf","mf.is","exp","unif",500,"ssfOUT_30_0.5_3_VULTURE","VULTURE",3,2,30,"no effect"
"ssfOUT_30_0.5_3_VULTURE.21",-0.0214804402401176,-0.355063556758836,0.312102676278601,"ssf","mf.ss","gamma","vonmises",5,"ssfOUT_30_0.5_3_VULTURE","VULTURE",3,2,30,"no effect"
"ssfOUT_30_0.5_3_VULTURE.22",0.308316112581674,0.0153523715646157,0.601279853598733,"ssf","mf.ss","gamma","vonmises",15,"ssfOUT_30_0.5_3_VULTURE","VULTURE",3,2,30,"preference"
"ssfOUT_30_0.5_3_VULTURE.23",0.179058347018222,-0.109425240915369,0.467541934951812,"ssf","mf.ss","gamma","vonmises",50,"ssfOUT_30_0.5_3_VULTURE","VULTURE",3,2,30,"no effect"
"ssfOUT_30_0.5_3_VULTURE.24",0.143279664602913,-0.141390829515422,0.427950158721248,"ssf","mf.ss","gamma","vonmises",158,"ssfOUT_30_0.5_3_VULTURE","VULTURE",3,2,30,"no effect"
"ssfOUT_30_0.5_3_VULTURE.25",0.189527313273731,-0.0945500788109708,0.473604705358433,"ssf","mf.ss","gamma","vonmises",500,"ssfOUT_30_0.5_3_VULTURE","VULTURE",3,2,30,"no effect"
"ssfOUT_30_0.5_3_VULTURE.26",0.455844506091534,0.141130974478638,0.77055803770443,"ssf","mf.ss","gamma","unif",5,"ssfOUT_30_0.5_3_VULTURE","VULTURE",3,2,30,"preference"
"ssfOUT_30_0.5_3_VULTURE.27",0.220498900426427,-0.0687214668051806,0.509719267658035,"ssf","mf.ss","gamma","unif",15,"ssfOUT_30_0.5_3_VULTURE","VULTURE",3,2,30,"no effect"
"ssfOUT_30_0.5_3_VULTURE.28",0.182513693201386,-0.101135823142027,0.466163209544799,"ssf","mf.ss","gamma","unif",50,"ssfOUT_30_0.5_3_VULTURE","VULTURE",3,2,30,"no effect"
"ssfOUT_30_0.5_3_VULTURE.29",0.162284635078888,-0.122921773301656,0.447491043459432,"ssf","mf.ss","gamma","unif",158,"ssfOUT_30_0.5_3_VULTURE","VULTURE",3,2,30,"no effect"
"ssfOUT_30_0.5_3_VULTURE.30",0.157787105825646,-0.125224532338026,0.440798743989317,"ssf","mf.ss","gamma","unif",500,"ssfOUT_30_0.5_3_VULTURE","VULTURE",3,2,30,"no effect"
"ssfOUT_30_0.5_3_VULTURE.31",-0.113414266666054,-0.434708577201585,0.207880043869476,"ssf","mf.ss","exp","vonmises",5,"ssfOUT_30_0.5_3_VULTURE","VULTURE",3,2,30,"no effect"
"ssfOUT_30_0.5_3_VULTURE.32",0.23078443405034,-0.0574900551551273,0.519058923255808,"ssf","mf.ss","exp","vonmises",15,"ssfOUT_30_0.5_3_VULTURE","VULTURE",3,2,30,"no effect"
"ssfOUT_30_0.5_3_VULTURE.33",0.077410356083039,-0.207405721657333,0.362226433823411,"ssf","mf.ss","exp","vonmises",50,"ssfOUT_30_0.5_3_VULTURE","VULTURE",3,2,30,"no effect"
"ssfOUT_30_0.5_3_VULTURE.34",0.173135871630064,-0.111082639995066,0.457354383255194,"ssf","mf.ss","exp","vonmises",158,"ssfOUT_30_0.5_3_VULTURE","VULTURE",3,2,30,"no effect"
"ssfOUT_30_0.5_3_VULTURE.35",0.163058947915015,-0.121316445223097,0.447434341053127,"ssf","mf.ss","exp","vonmises",500,"ssfOUT_30_0.5_3_VULTURE","VULTURE",3,2,30,"no effect"
"ssfOUT_30_0.5_3_VULTURE.36",0.147683416884212,-0.16468041915848,0.460047252926903,"ssf","mf.ss","exp","unif",5,"ssfOUT_30_0.5_3_VULTURE","VULTURE",3,2,30,"no effect"
"ssfOUT_30_0.5_3_VULTURE.37",0.0951255169808563,-0.197862048050487,0.388113082012199,"ssf","mf.ss","exp","unif",15,"ssfOUT_30_0.5_3_VULTURE","VULTURE",3,2,30,"no effect"
"ssfOUT_30_0.5_3_VULTURE.38",0.209484150729372,-0.0771231546432118,0.496091456101955,"ssf","mf.ss","exp","unif",50,"ssfOUT_30_0.5_3_VULTURE","VULTURE",3,2,30,"no effect"
"ssfOUT_30_0.5_3_VULTURE.39",0.138012612545514,-0.145553059752834,0.421578284843862,"ssf","mf.ss","exp","unif",158,"ssfOUT_30_0.5_3_VULTURE","VULTURE",3,2,30,"no effect"
"ssfOUT_30_0.5_3_VULTURE.40",0.15907286364855,-0.125517357431695,0.443663084728794,"ssf","mf.ss","exp","unif",500,"ssfOUT_30_0.5_3_VULTURE","VULTURE",3,2,30,"no effect"
"ssfOUT_30_0.5_3_KINGCOBRA.1",14.7898367834597,-872.858194556654,902.437868123574,"ssf","mf.is","gamma","vonmises",5,"ssfOUT_30_0.5_3_KINGCOBRA","KINGCOBRA",3,2,30,"no effect"
"ssfOUT_30_0.5_3_KINGCOBRA.2",15.0104320995654,-876.524223607675,906.545087806806,"ssf","mf.is","gamma","vonmises",15,"ssfOUT_30_0.5_3_KINGCOBRA","KINGCOBRA",3,2,30,"no effect"
"ssfOUT_30_0.5_3_KINGCOBRA.3",14.8547390388023,-869.60340465968,899.312882737285,"ssf","mf.is","gamma","vonmises",50,"ssfOUT_30_0.5_3_KINGCOBRA","KINGCOBRA",3,2,30,"no effect"
"ssfOUT_30_0.5_3_KINGCOBRA.4",13.7564697499664,-517.988156276848,545.501095776781,"ssf","mf.is","gamma","vonmises",158,"ssfOUT_30_0.5_3_KINGCOBRA","KINGCOBRA",3,2,30,"no effect"
"ssfOUT_30_0.5_3_KINGCOBRA.5",13.8191596928677,-515.068359078032,542.706678463767,"ssf","mf.is","gamma","vonmises",500,"ssfOUT_30_0.5_3_KINGCOBRA","KINGCOBRA",3,2,30,"no effect"
"ssfOUT_30_0.5_3_KINGCOBRA.6",14.8389906625922,-1169.17417155152,1198.8521528767,"ssf","mf.is","gamma","unif",5,"ssfOUT_30_0.5_3_KINGCOBRA","KINGCOBRA",3,2,30,"no effect"
"ssfOUT_30_0.5_3_KINGCOBRA.7",14.7658293514736,-983.411968969591,1012.94362767254,"ssf","mf.is","gamma","unif",15,"ssfOUT_30_0.5_3_KINGCOBRA","KINGCOBRA",3,2,30,"no effect"
"ssfOUT_30_0.5_3_KINGCOBRA.8",14.7487287966556,-884.256803709633,913.754261302944,"ssf","mf.is","gamma","unif",50,"ssfOUT_30_0.5_3_KINGCOBRA","KINGCOBRA",3,2,30,"no effect"
"ssfOUT_30_0.5_3_KINGCOBRA.9",13.7664718616637,-528.886407320171,556.419351043499,"ssf","mf.is","gamma","unif",158,"ssfOUT_30_0.5_3_KINGCOBRA","KINGCOBRA",3,2,30,"no effect"
"ssfOUT_30_0.5_3_KINGCOBRA.10",13.7753698178365,-506.864105049812,534.414844685485,"ssf","mf.is","gamma","unif",500,"ssfOUT_30_0.5_3_KINGCOBRA","KINGCOBRA",3,2,30,"no effect"
"ssfOUT_30_0.5_3_KINGCOBRA.11",15.7328223933088,-1595.18901602451,1626.65466081113,"ssf","mf.is","exp","vonmises",5,"ssfOUT_30_0.5_3_KINGCOBRA","KINGCOBRA",3,2,30,"no effect"
"ssfOUT_30_0.5_3_KINGCOBRA.12",15.0844269465841,-982.462323918488,1012.63117781166,"ssf","mf.is","exp","vonmises",15,"ssfOUT_30_0.5_3_KINGCOBRA","KINGCOBRA",3,2,30,"no effect"
"ssfOUT_30_0.5_3_KINGCOBRA.13",14.6239060937271,-769.796624006734,799.044436194188,"ssf","mf.is","exp","vonmises",50,"ssfOUT_30_0.5_3_KINGCOBRA","KINGCOBRA",3,2,30,"no effect"
"ssfOUT_30_0.5_3_KINGCOBRA.14",14.2841420923867,-681.439360936204,710.007645120978,"ssf","mf.is","exp","vonmises",158,"ssfOUT_30_0.5_3_KINGCOBRA","KINGCOBRA",3,2,30,"no effect"
"ssfOUT_30_0.5_3_KINGCOBRA.15",13.9780789630943,-648.004586732127,675.960744658316,"ssf","mf.is","exp","vonmises",500,"ssfOUT_30_0.5_3_KINGCOBRA","KINGCOBRA",3,2,30,"no effect"
"ssfOUT_30_0.5_3_KINGCOBRA.16",14.0926225480714,-1126.13238207543,1154.31762717157,"ssf","mf.is","exp","unif",5,"ssfOUT_30_0.5_3_KINGCOBRA","KINGCOBRA",3,2,30,"no effect"
"ssfOUT_30_0.5_3_KINGCOBRA.17",16.0661770260799,-1148.96553458394,1181.0978886361,"ssf","mf.is","exp","unif",15,"ssfOUT_30_0.5_3_KINGCOBRA","KINGCOBRA",3,2,30,"no effect"
"ssfOUT_30_0.5_3_KINGCOBRA.18",14.5913632568946,-871.618573874599,900.801300388388,"ssf","mf.is","exp","unif",50,"ssfOUT_30_0.5_3_KINGCOBRA","KINGCOBRA",3,2,30,"no effect"
"ssfOUT_30_0.5_3_KINGCOBRA.19",14.9661139410905,-813.194001815523,843.126229697704,"ssf","mf.is","exp","unif",158,"ssfOUT_30_0.5_3_KINGCOBRA","KINGCOBRA",3,2,30,"no effect"
"ssfOUT_30_0.5_3_KINGCOBRA.20",13.7622873595777,-570.807644091511,598.332218810667,"ssf","mf.is","exp","unif",500,"ssfOUT_30_0.5_3_KINGCOBRA","KINGCOBRA",3,2,30,"no effect"
"ssfOUT_30_0.5_3_KINGCOBRA.21",14.9062399579158,-873.961285183365,903.773765099196,"ssf","mf.ss","gamma","vonmises",5,"ssfOUT_30_0.5_3_KINGCOBRA","KINGCOBRA",3,2,30,"no effect"
"ssfOUT_30_0.5_3_KINGCOBRA.22",15.0533281249237,-866.562820630806,896.669476880654,"ssf","mf.ss","gamma","vonmises",15,"ssfOUT_30_0.5_3_KINGCOBRA","KINGCOBRA",3,2,30,"no effect"
"ssfOUT_30_0.5_3_KINGCOBRA.23",14.8876985912602,-861.71320346721,891.48860064973,"ssf","mf.ss","gamma","vonmises",50,"ssfOUT_30_0.5_3_KINGCOBRA","KINGCOBRA",3,2,30,"no effect"
"ssfOUT_30_0.5_3_KINGCOBRA.24",13.7356272529882,-514.189759827507,541.661014333484,"ssf","mf.ss","gamma","vonmises",158,"ssfOUT_30_0.5_3_KINGCOBRA","KINGCOBRA",3,2,30,"no effect"
"ssfOUT_30_0.5_3_KINGCOBRA.25",13.8090860298871,-511.534127216169,539.152299275944,"ssf","mf.ss","gamma","vonmises",500,"ssfOUT_30_0.5_3_KINGCOBRA","KINGCOBRA",3,2,30,"no effect"
"ssfOUT_30_0.5_3_KINGCOBRA.26",14.8468715278067,-1165.32568437149,1195.0194274271,"ssf","mf.ss","gamma","unif",5,"ssfOUT_30_0.5_3_KINGCOBRA","KINGCOBRA",3,2,30,"no effect"
"ssfOUT_30_0.5_3_KINGCOBRA.27",14.7887701814665,-979.0880173592,1008.66555772213,"ssf","mf.ss","gamma","unif",15,"ssfOUT_30_0.5_3_KINGCOBRA","KINGCOBRA",3,2,30,"no effect"
"ssfOUT_30_0.5_3_KINGCOBRA.28",14.7565902555456,-879.129033881077,908.642214392168,"ssf","mf.ss","gamma","unif",50,"ssfOUT_30_0.5_3_KINGCOBRA","KINGCOBRA",3,2,30,"no effect"
"ssfOUT_30_0.5_3_KINGCOBRA.29",13.779537376586,-525.362528926603,552.921603679775,"ssf","mf.ss","gamma","unif",158,"ssfOUT_30_0.5_3_KINGCOBRA","KINGCOBRA",3,2,30,"no effect"
"ssfOUT_30_0.5_3_KINGCOBRA.30",13.765373506893,-503.632195424894,531.162942438679,"ssf","mf.ss","gamma","unif",500,"ssfOUT_30_0.5_3_KINGCOBRA","KINGCOBRA",3,2,30,"no effect"
"ssfOUT_30_0.5_3_KINGCOBRA.31",14.9781574342685,-902.395638591055,932.351953459592,"ssf","mf.ss","exp","vonmises",5,"ssfOUT_30_0.5_3_KINGCOBRA","KINGCOBRA",3,2,30,"no effect"
"ssfOUT_30_0.5_3_KINGCOBRA.32",14.7892121503768,-853.554421587627,883.132845888381,"ssf","mf.ss","exp","vonmises",15,"ssfOUT_30_0.5_3_KINGCOBRA","KINGCOBRA",3,2,30,"no effect"
"ssfOUT_30_0.5_3_KINGCOBRA.33",15.0251687411788,-758.848580342607,788.898917824965,"ssf","mf.ss","exp","vonmises",50,"ssfOUT_30_0.5_3_KINGCOBRA","KINGCOBRA",3,2,30,"no effect"
"ssfOUT_30_0.5_3_KINGCOBRA.34",15.0046374127789,-762.347306051711,792.356580877269,"ssf","mf.ss","exp","vonmises",158,"ssfOUT_30_0.5_3_KINGCOBRA","KINGCOBRA",3,2,30,"no effect"
"ssfOUT_30_0.5_3_KINGCOBRA.35",13.9473754100694,-451.660624644546,479.555375464685,"ssf","mf.ss","exp","vonmises",500,"ssfOUT_30_0.5_3_KINGCOBRA","KINGCOBRA",3,2,30,"no effect"
"ssfOUT_30_0.5_3_KINGCOBRA.36",15.103345856658,-913.252220083715,943.458911797031,"ssf","mf.ss","exp","unif",5,"ssfOUT_30_0.5_3_KINGCOBRA","KINGCOBRA",3,2,30,"no effect"
"ssfOUT_30_0.5_3_KINGCOBRA.37",15.2017896597676,-804.250596459489,834.654175779025,"ssf","mf.ss","exp","unif",15,"ssfOUT_30_0.5_3_KINGCOBRA","KINGCOBRA",3,2,30,"no effect"
"ssfOUT_30_0.5_3_KINGCOBRA.38",14.9522397079089,-832.871386284572,862.77586570039,"ssf","mf.ss","exp","unif",50,"ssfOUT_30_0.5_3_KINGCOBRA","KINGCOBRA",3,2,30,"no effect"
"ssfOUT_30_0.5_3_KINGCOBRA.39",15.0143929728514,-756.366023508714,786.394809454417,"ssf","mf.ss","exp","unif",158,"ssfOUT_30_0.5_3_KINGCOBRA","KINGCOBRA",3,2,30,"no effect"
"ssfOUT_30_0.5_3_KINGCOBRA.40",13.9803579960742,-451.765526148896,479.726242141044,"ssf","mf.ss","exp","unif",500,"ssfOUT_30_0.5_3_KINGCOBRA","KINGCOBRA",3,2,30,"no effect"
"ssfOUT_30_0.5_4_BADGER.1",0.952854917650864,0.590985645458712,1.31472418984302,"ssf","mf.is","gamma","vonmises",5,"ssfOUT_30_0.5_4_BADGER","BADGER",4,2,30,"preference"
"ssfOUT_30_0.5_4_BADGER.2",1.07707981986618,0.730832429953324,1.42332720977904,"ssf","mf.is","gamma","vonmises",15,"ssfOUT_30_0.5_4_BADGER","BADGER",4,2,30,"preference"
"ssfOUT_30_0.5_4_BADGER.3",1.0525541756967,0.713668583256716,1.39143976813668,"ssf","mf.is","gamma","vonmises",50,"ssfOUT_30_0.5_4_BADGER","BADGER",4,2,30,"preference"
"ssfOUT_30_0.5_4_BADGER.4",1.0796198379863,0.73918362811437,1.42005604785823,"ssf","mf.is","gamma","vonmises",158,"ssfOUT_30_0.5_4_BADGER","BADGER",4,2,30,"preference"
"ssfOUT_30_0.5_4_BADGER.5",1.06250768345784,0.722681275188765,1.40233409172691,"ssf","mf.is","gamma","vonmises",500,"ssfOUT_30_0.5_4_BADGER","BADGER",4,2,30,"preference"
"ssfOUT_30_0.5_4_BADGER.6",1.02300028320492,0.666772713236941,1.37922785317291,"ssf","mf.is","gamma","unif",5,"ssfOUT_30_0.5_4_BADGER","BADGER",4,2,30,"preference"
"ssfOUT_30_0.5_4_BADGER.7",1.07160387094265,0.726515020467078,1.41669272141822,"ssf","mf.is","gamma","unif",15,"ssfOUT_30_0.5_4_BADGER","BADGER",4,2,30,"preference"
"ssfOUT_30_0.5_4_BADGER.8",1.03359534627123,0.692429165375524,1.37476152716693,"ssf","mf.is","gamma","unif",50,"ssfOUT_30_0.5_4_BADGER","BADGER",4,2,30,"preference"
"ssfOUT_30_0.5_4_BADGER.9",1.0861270965683,0.745686037830582,1.42656815530603,"ssf","mf.is","gamma","unif",158,"ssfOUT_30_0.5_4_BADGER","BADGER",4,2,30,"preference"
"ssfOUT_30_0.5_4_BADGER.10",1.07435134457623,0.734887621263476,1.41381506788899,"ssf","mf.is","gamma","unif",500,"ssfOUT_30_0.5_4_BADGER","BADGER",4,2,30,"preference"
"ssfOUT_30_0.5_4_BADGER.11",0.908733801886868,0.541542449179549,1.27592515459419,"ssf","mf.is","exp","vonmises",5,"ssfOUT_30_0.5_4_BADGER","BADGER",4,2,30,"preference"
"ssfOUT_30_0.5_4_BADGER.12",1.00124865572401,0.652115880394451,1.35038143105357,"ssf","mf.is","exp","vonmises",15,"ssfOUT_30_0.5_4_BADGER","BADGER",4,2,30,"preference"
"ssfOUT_30_0.5_4_BADGER.13",1.05079027647197,0.711081513395822,1.39049903954812,"ssf","mf.is","exp","vonmises",50,"ssfOUT_30_0.5_4_BADGER","BADGER",4,2,30,"preference"
"ssfOUT_30_0.5_4_BADGER.14",1.01460250123667,0.675330816626952,1.35387418584639,"ssf","mf.is","exp","vonmises",158,"ssfOUT_30_0.5_4_BADGER","BADGER",4,2,30,"preference"
"ssfOUT_30_0.5_4_BADGER.15",1.05023594314783,0.711259576290862,1.38921231000479,"ssf","mf.is","exp","vonmises",500,"ssfOUT_30_0.5_4_BADGER","BADGER",4,2,30,"preference"
"ssfOUT_30_0.5_4_BADGER.16",0.908049797546563,0.540562529918595,1.27553706517453,"ssf","mf.is","exp","unif",5,"ssfOUT_30_0.5_4_BADGER","BADGER",4,2,30,"preference"
"ssfOUT_30_0.5_4_BADGER.17",0.988007357880068,0.639268622664614,1.33674609309552,"ssf","mf.is","exp","unif",15,"ssfOUT_30_0.5_4_BADGER","BADGER",4,2,30,"preference"
"ssfOUT_30_0.5_4_BADGER.18",1.08762215145466,0.741601033830131,1.4336432690792,"ssf","mf.is","exp","unif",50,"ssfOUT_30_0.5_4_BADGER","BADGER",4,2,30,"preference"
"ssfOUT_30_0.5_4_BADGER.19",1.03292093964765,0.692024749893417,1.37381712940189,"ssf","mf.is","exp","unif",158,"ssfOUT_30_0.5_4_BADGER","BADGER",4,2,30,"preference"
"ssfOUT_30_0.5_4_BADGER.20",1.05873655600992,0.719083961678464,1.39838915034138,"ssf","mf.is","exp","unif",500,"ssfOUT_30_0.5_4_BADGER","BADGER",4,2,30,"preference"
"ssfOUT_30_0.5_4_BADGER.21",0.905358140990343,0.542968053564494,1.26774822841619,"ssf","mf.ss","gamma","vonmises",5,"ssfOUT_30_0.5_4_BADGER","BADGER",4,2,30,"preference"
"ssfOUT_30_0.5_4_BADGER.22",1.06464412693342,0.717023927544523,1.41226432632232,"ssf","mf.ss","gamma","vonmises",15,"ssfOUT_30_0.5_4_BADGER","BADGER",4,2,30,"preference"
"ssfOUT_30_0.5_4_BADGER.23",1.04097047611021,0.701076781961613,1.38086417025881,"ssf","mf.ss","gamma","vonmises",50,"ssfOUT_30_0.5_4_BADGER","BADGER",4,2,30,"preference"
"ssfOUT_30_0.5_4_BADGER.24",1.06678282656862,0.725136838199253,1.40842881493799,"ssf","mf.ss","gamma","vonmises",158,"ssfOUT_30_0.5_4_BADGER","BADGER",4,2,30,"preference"
"ssfOUT_30_0.5_4_BADGER.25",1.05248236405142,0.711541531723584,1.39342319637926,"ssf","mf.ss","gamma","vonmises",500,"ssfOUT_30_0.5_4_BADGER","BADGER",4,2,30,"preference"
"ssfOUT_30_0.5_4_BADGER.26",0.991772363384191,0.635928482720408,1.34761624404797,"ssf","mf.ss","gamma","unif",5,"ssfOUT_30_0.5_4_BADGER","BADGER",4,2,30,"preference"
"ssfOUT_30_0.5_4_BADGER.27",1.06198154938451,0.716773665264722,1.40718943350429,"ssf","mf.ss","gamma","unif",15,"ssfOUT_30_0.5_4_BADGER","BADGER",4,2,30,"preference"
"ssfOUT_30_0.5_4_BADGER.28",1.02838093874917,0.686357311274494,1.37040456622385,"ssf","mf.ss","gamma","unif",50,"ssfOUT_30_0.5_4_BADGER","BADGER",4,2,30,"preference"
"ssfOUT_30_0.5_4_BADGER.29",1.08143753358458,0.739749184330536,1.42312588283862,"ssf","mf.ss","gamma","unif",158,"ssfOUT_30_0.5_4_BADGER","BADGER",4,2,30,"preference"
"ssfOUT_30_0.5_4_BADGER.30",1.06789871779712,0.727421214419967,1.40837622117427,"ssf","mf.ss","gamma","unif",500,"ssfOUT_30_0.5_4_BADGER","BADGER",4,2,30,"preference"
"ssfOUT_30_0.5_4_BADGER.31",0.94677751991658,0.583405517698099,1.31014952213506,"ssf","mf.ss","exp","vonmises",5,"ssfOUT_30_0.5_4_BADGER","BADGER",4,2,30,"preference"
"ssfOUT_30_0.5_4_BADGER.32",1.00914707742499,0.662174356131683,1.3561197987183,"ssf","mf.ss","exp","vonmises",15,"ssfOUT_30_0.5_4_BADGER","BADGER",4,2,30,"preference"
"ssfOUT_30_0.5_4_BADGER.33",1.08079170543562,0.742061181769566,1.41952222910168,"ssf","mf.ss","exp","vonmises",50,"ssfOUT_30_0.5_4_BADGER","BADGER",4,2,30,"preference"
"ssfOUT_30_0.5_4_BADGER.34",1.00745161591038,0.668609068683918,1.34629416313685,"ssf","mf.ss","exp","vonmises",158,"ssfOUT_30_0.5_4_BADGER","BADGER",4,2,30,"preference"
"ssfOUT_30_0.5_4_BADGER.35",1.04572758597306,0.707331300844727,1.3841238711014,"ssf","mf.ss","exp","vonmises",500,"ssfOUT_30_0.5_4_BADGER","BADGER",4,2,30,"preference"
"ssfOUT_30_0.5_4_BADGER.36",1.02979270061466,0.667409524093539,1.39217587713578,"ssf","mf.ss","exp","unif",5,"ssfOUT_30_0.5_4_BADGER","BADGER",4,2,30,"preference"
"ssfOUT_30_0.5_4_BADGER.37",1.01343715301783,0.668375613795351,1.35849869224031,"ssf","mf.ss","exp","unif",15,"ssfOUT_30_0.5_4_BADGER","BADGER",4,2,30,"preference"
"ssfOUT_30_0.5_4_BADGER.38",1.04566019701262,0.702115071822777,1.38920532220246,"ssf","mf.ss","exp","unif",50,"ssfOUT_30_0.5_4_BADGER","BADGER",4,2,30,"preference"
"ssfOUT_30_0.5_4_BADGER.39",1.04744030167201,0.707733039621489,1.38714756372253,"ssf","mf.ss","exp","unif",158,"ssfOUT_30_0.5_4_BADGER","BADGER",4,2,30,"preference"
"ssfOUT_30_0.5_4_BADGER.40",1.07368970020824,0.734516515404668,1.41286288501182,"ssf","mf.ss","exp","unif",500,"ssfOUT_30_0.5_4_BADGER","BADGER",4,2,30,"preference"
"ssfOUT_30_0.5_4_VULTURE.1",0.404559657223537,0.145945982024442,0.663173332422633,"ssf","mf.is","gamma","vonmises",5,"ssfOUT_30_0.5_4_VULTURE","VULTURE",4,2,30,"preference"
"ssfOUT_30_0.5_4_VULTURE.2",0.158568619325793,-0.0926358125553697,0.409773051206955,"ssf","mf.is","gamma","vonmises",15,"ssfOUT_30_0.5_4_VULTURE","VULTURE",4,2,30,"no effect"
"ssfOUT_30_0.5_4_VULTURE.3",0.309502148343415,0.0634821199201732,0.555522176766656,"ssf","mf.is","gamma","vonmises",50,"ssfOUT_30_0.5_4_VULTURE","VULTURE",4,2,30,"preference"
"ssfOUT_30_0.5_4_VULTURE.4",0.280924761502194,0.0363461335561937,0.525503389448195,"ssf","mf.is","gamma","vonmises",158,"ssfOUT_30_0.5_4_VULTURE","VULTURE",4,2,30,"preference"
"ssfOUT_30_0.5_4_VULTURE.5",0.291865075646995,0.0476340136790863,0.536096137614903,"ssf","mf.is","gamma","vonmises",500,"ssfOUT_30_0.5_4_VULTURE","VULTURE",4,2,30,"preference"
"ssfOUT_30_0.5_4_VULTURE.6",0.242576002961823,-0.0205599414557125,0.505711947379359,"ssf","mf.is","gamma","unif",5,"ssfOUT_30_0.5_4_VULTURE","VULTURE",4,2,30,"no effect"
"ssfOUT_30_0.5_4_VULTURE.7",0.220432917169,-0.0302921969510392,0.47115803128904,"ssf","mf.is","gamma","unif",15,"ssfOUT_30_0.5_4_VULTURE","VULTURE",4,2,30,"no effect"
"ssfOUT_30_0.5_4_VULTURE.8",0.216565628706043,-0.0298164803645529,0.462947737776639,"ssf","mf.is","gamma","unif",50,"ssfOUT_30_0.5_4_VULTURE","VULTURE",4,2,30,"no effect"
"ssfOUT_30_0.5_4_VULTURE.9",0.260385316196247,0.0162136491192214,0.504556983273273,"ssf","mf.is","gamma","unif",158,"ssfOUT_30_0.5_4_VULTURE","VULTURE",4,2,30,"preference"
"ssfOUT_30_0.5_4_VULTURE.10",0.281579483868967,0.0375643104676158,0.525594657270319,"ssf","mf.is","gamma","unif",500,"ssfOUT_30_0.5_4_VULTURE","VULTURE",4,2,30,"preference"
"ssfOUT_30_0.5_4_VULTURE.11",0.303624339351163,0.0380936913238725,0.569154987378453,"ssf","mf.is","exp","vonmises",5,"ssfOUT_30_0.5_4_VULTURE","VULTURE",4,2,30,"preference"
"ssfOUT_30_0.5_4_VULTURE.12",0.387520644800716,0.134742036401522,0.64029925319991,"ssf","mf.is","exp","vonmises",15,"ssfOUT_30_0.5_4_VULTURE","VULTURE",4,2,30,"preference"
"ssfOUT_30_0.5_4_VULTURE.13",0.210485603350595,-0.0360472250291062,0.457018431730297,"ssf","mf.is","exp","vonmises",50,"ssfOUT_30_0.5_4_VULTURE","VULTURE",4,2,30,"no effect"
"ssfOUT_30_0.5_4_VULTURE.14",0.24981959126994,0.00543198323101501,0.494207199308865,"ssf","mf.is","exp","vonmises",158,"ssfOUT_30_0.5_4_VULTURE","VULTURE",4,2,30,"preference"
"ssfOUT_30_0.5_4_VULTURE.15",0.295051428808782,0.0510704460406273,0.539032411576938,"ssf","mf.is","exp","vonmises",500,"ssfOUT_30_0.5_4_VULTURE","VULTURE",4,2,30,"preference"
"ssfOUT_30_0.5_4_VULTURE.16",0.44355677686474,0.182497191379113,0.704616362350367,"ssf","mf.is","exp","unif",5,"ssfOUT_30_0.5_4_VULTURE","VULTURE",4,2,30,"preference"
"ssfOUT_30_0.5_4_VULTURE.17",0.24577164151076,-0.00469838686907725,0.496241669890598,"ssf","mf.is","exp","unif",15,"ssfOUT_30_0.5_4_VULTURE","VULTURE",4,2,30,"no effect"
"ssfOUT_30_0.5_4_VULTURE.18",0.308951839341632,0.0617990294706418,0.556104649212622,"ssf","mf.is","exp","unif",50,"ssfOUT_30_0.5_4_VULTURE","VULTURE",4,2,30,"preference"
"ssfOUT_30_0.5_4_VULTURE.19",0.28786336416617,0.0429531508200105,0.532773577512329,"ssf","mf.is","exp","unif",158,"ssfOUT_30_0.5_4_VULTURE","VULTURE",4,2,30,"preference"
"ssfOUT_30_0.5_4_VULTURE.20",0.276611728308007,0.0324631419437045,0.520760314672309,"ssf","mf.is","exp","unif",500,"ssfOUT_30_0.5_4_VULTURE","VULTURE",4,2,30,"preference"
"ssfOUT_30_0.5_4_VULTURE.21",0.404018527740249,0.145107454837314,0.662929600643184,"ssf","mf.ss","gamma","vonmises",5,"ssfOUT_30_0.5_4_VULTURE","VULTURE",4,2,30,"preference"
"ssfOUT_30_0.5_4_VULTURE.22",0.15551709454244,-0.0958084338331359,0.406842622918016,"ssf","mf.ss","gamma","vonmises",15,"ssfOUT_30_0.5_4_VULTURE","VULTURE",4,2,30,"no effect"
"ssfOUT_30_0.5_4_VULTURE.23",0.310038672764107,0.0639963749040887,0.556080970624126,"ssf","mf.ss","gamma","vonmises",50,"ssfOUT_30_0.5_4_VULTURE","VULTURE",4,2,30,"preference"
"ssfOUT_30_0.5_4_VULTURE.24",0.28001189742136,0.0353762627299294,0.524647532112791,"ssf","mf.ss","gamma","vonmises",158,"ssfOUT_30_0.5_4_VULTURE","VULTURE",4,2,30,"preference"
"ssfOUT_30_0.5_4_VULTURE.25",0.291125820982778,0.0468528443866248,0.535398797578931,"ssf","mf.ss","gamma","vonmises",500,"ssfOUT_30_0.5_4_VULTURE","VULTURE",4,2,30,"preference"
"ssfOUT_30_0.5_4_VULTURE.26",0.256994166128772,-0.00563093675314524,0.519619269010689,"ssf","mf.ss","gamma","unif",5,"ssfOUT_30_0.5_4_VULTURE","VULTURE",4,2,30,"no effect"
"ssfOUT_30_0.5_4_VULTURE.27",0.236860832995603,-0.0133411481390398,0.487062814130246,"ssf","mf.ss","gamma","unif",15,"ssfOUT_30_0.5_4_VULTURE","VULTURE",4,2,30,"no effect"
"ssfOUT_30_0.5_4_VULTURE.28",0.226963377378329,-0.0192414694360535,0.473168224192711,"ssf","mf.ss","gamma","unif",50,"ssfOUT_30_0.5_4_VULTURE","VULTURE",4,2,30,"no effect"
"ssfOUT_30_0.5_4_VULTURE.29",0.27401470083868,0.0300778432701332,0.517951558407228,"ssf","mf.ss","gamma","unif",158,"ssfOUT_30_0.5_4_VULTURE","VULTURE",4,2,30,"preference"
"ssfOUT_30_0.5_4_VULTURE.30",0.29129826114606,0.0473556098568782,0.535240912435242,"ssf","mf.ss","gamma","unif",500,"ssfOUT_30_0.5_4_VULTURE","VULTURE",4,2,30,"preference"
"ssfOUT_30_0.5_4_VULTURE.31",0.312629904006425,0.0488362669655503,0.5764235410473,"ssf","mf.ss","exp","vonmises",5,"ssfOUT_30_0.5_4_VULTURE","VULTURE",4,2,30,"preference"
"ssfOUT_30_0.5_4_VULTURE.32",0.405170408619356,0.151997816162873,0.658343001075839,"ssf","mf.ss","exp","vonmises",15,"ssfOUT_30_0.5_4_VULTURE","VULTURE",4,2,30,"preference"
"ssfOUT_30_0.5_4_VULTURE.33",0.244923710026648,-0.0018657396242136,0.491713159677509,"ssf","mf.ss","exp","vonmises",50,"ssfOUT_30_0.5_4_VULTURE","VULTURE",4,2,30,"no effect"
"ssfOUT_30_0.5_4_VULTURE.34",0.278844041837808,0.0333198119530688,0.524368271722547,"ssf","mf.ss","exp","vonmises",158,"ssfOUT_30_0.5_4_VULTURE","VULTURE",4,2,30,"preference"
"ssfOUT_30_0.5_4_VULTURE.35",0.329463810323274,0.0841570907869778,0.574770529859571,"ssf","mf.ss","exp","vonmises",500,"ssfOUT_30_0.5_4_VULTURE","VULTURE",4,2,30,"preference"
"ssfOUT_30_0.5_4_VULTURE.36",0.475144004491307,0.216634626019193,0.733653382963422,"ssf","mf.ss","exp","unif",5,"ssfOUT_30_0.5_4_VULTURE","VULTURE",4,2,30,"preference"
"ssfOUT_30_0.5_4_VULTURE.37",0.245397065940615,-0.00591218818707293,0.496706320068303,"ssf","mf.ss","exp","unif",15,"ssfOUT_30_0.5_4_VULTURE","VULTURE",4,2,30,"no effect"
"ssfOUT_30_0.5_4_VULTURE.38",0.355601750671511,0.108355924445847,0.602847576897175,"ssf","mf.ss","exp","unif",50,"ssfOUT_30_0.5_4_VULTURE","VULTURE",4,2,30,"preference"
"ssfOUT_30_0.5_4_VULTURE.39",0.327843298607664,0.0814216545554488,0.57426494265988,"ssf","mf.ss","exp","unif",158,"ssfOUT_30_0.5_4_VULTURE","VULTURE",4,2,30,"preference"
"ssfOUT_30_0.5_4_VULTURE.40",0.325455264309841,0.0799913455199348,0.570919183099747,"ssf","mf.ss","exp","unif",500,"ssfOUT_30_0.5_4_VULTURE","VULTURE",4,2,30,"preference"
"ssfOUT_30_0.5_4_KINGCOBRA.1",0.613623141296418,0.0786324372350206,1.14861384535782,"ssf","mf.is","gamma","vonmises",5,"ssfOUT_30_0.5_4_KINGCOBRA","KINGCOBRA",4,2,30,"preference"
"ssfOUT_30_0.5_4_KINGCOBRA.2",0.840526292338424,0.300644875915432,1.38040770876142,"ssf","mf.is","gamma","vonmises",15,"ssfOUT_30_0.5_4_KINGCOBRA","KINGCOBRA",4,2,30,"preference"
"ssfOUT_30_0.5_4_KINGCOBRA.3",0.785442008342548,0.257261487593731,1.31362252909137,"ssf","mf.is","gamma","vonmises",50,"ssfOUT_30_0.5_4_KINGCOBRA","KINGCOBRA",4,2,30,"preference"
"ssfOUT_30_0.5_4_KINGCOBRA.4",0.728496777763157,0.200956373907861,1.25603718161845,"ssf","mf.is","gamma","vonmises",158,"ssfOUT_30_0.5_4_KINGCOBRA","KINGCOBRA",4,2,30,"preference"
"ssfOUT_30_0.5_4_KINGCOBRA.5",0.765596921568751,0.240188304429588,1.29100553870791,"ssf","mf.is","gamma","vonmises",500,"ssfOUT_30_0.5_4_KINGCOBRA","KINGCOBRA",4,2,30,"preference"
"ssfOUT_30_0.5_4_KINGCOBRA.6",0.617734314358989,0.0730798582546545,1.16238877046332,"ssf","mf.is","gamma","unif",5,"ssfOUT_30_0.5_4_KINGCOBRA","KINGCOBRA",4,2,30,"preference"
"ssfOUT_30_0.5_4_KINGCOBRA.7",0.904724987174016,0.361549274099222,1.44790070024881,"ssf","mf.is","gamma","unif",15,"ssfOUT_30_0.5_4_KINGCOBRA","KINGCOBRA",4,2,30,"preference"
"ssfOUT_30_0.5_4_KINGCOBRA.8",0.767312888209855,0.235820310249693,1.29880546617002,"ssf","mf.is","gamma","unif",50,"ssfOUT_30_0.5_4_KINGCOBRA","KINGCOBRA",4,2,30,"preference"
"ssfOUT_30_0.5_4_KINGCOBRA.9",0.846768032244908,0.31897306230461,1.37456300218521,"ssf","mf.is","gamma","unif",158,"ssfOUT_30_0.5_4_KINGCOBRA","KINGCOBRA",4,2,30,"preference"
"ssfOUT_30_0.5_4_KINGCOBRA.10",0.732872647212565,0.206218049975051,1.25952724445008,"ssf","mf.is","gamma","unif",500,"ssfOUT_30_0.5_4_KINGCOBRA","KINGCOBRA",4,2,30,"preference"
"ssfOUT_30_0.5_4_KINGCOBRA.11",1.5700779500796,0.93837338628512,2.20178251387408,"ssf","mf.is","exp","vonmises",5,"ssfOUT_30_0.5_4_KINGCOBRA","KINGCOBRA",4,2,30,"preference"
"ssfOUT_30_0.5_4_KINGCOBRA.12",0.786633869883578,0.244112809229124,1.32915493053803,"ssf","mf.is","exp","vonmises",15,"ssfOUT_30_0.5_4_KINGCOBRA","KINGCOBRA",4,2,30,"preference"
"ssfOUT_30_0.5_4_KINGCOBRA.13",1.05032555672074,0.517859208384476,1.58279190505699,"ssf","mf.is","exp","vonmises",50,"ssfOUT_30_0.5_4_KINGCOBRA","KINGCOBRA",4,2,30,"preference"
"ssfOUT_30_0.5_4_KINGCOBRA.14",0.76619031581586,0.236602260609156,1.29577837102256,"ssf","mf.is","exp","vonmises",158,"ssfOUT_30_0.5_4_KINGCOBRA","KINGCOBRA",4,2,30,"preference"
"ssfOUT_30_0.5_4_KINGCOBRA.15",0.780852211737113,0.246635629716994,1.31506879375723,"ssf","mf.is","exp","vonmises",500,"ssfOUT_30_0.5_4_KINGCOBRA","KINGCOBRA",4,2,30,"preference"
"ssfOUT_30_0.5_4_KINGCOBRA.16",1.1091478792644,0.547039612978632,1.67125614555016,"ssf","mf.is","exp","unif",5,"ssfOUT_30_0.5_4_KINGCOBRA","KINGCOBRA",4,2,30,"preference"
"ssfOUT_30_0.5_4_KINGCOBRA.17",1.26041794291772,0.709575660189532,1.81126022564591,"ssf","mf.is","exp","unif",15,"ssfOUT_30_0.5_4_KINGCOBRA","KINGCOBRA",4,2,30,"preference"
"ssfOUT_30_0.5_4_KINGCOBRA.18",0.93221859921286,0.400072799554841,1.46436439887088,"ssf","mf.is","exp","unif",50,"ssfOUT_30_0.5_4_KINGCOBRA","KINGCOBRA",4,2,30,"preference"
"ssfOUT_30_0.5_4_KINGCOBRA.19",0.788329515949544,0.265986336211723,1.31067269568737,"ssf","mf.is","exp","unif",158,"ssfOUT_30_0.5_4_KINGCOBRA","KINGCOBRA",4,2,30,"preference"
"ssfOUT_30_0.5_4_KINGCOBRA.20",0.752132031623765,0.218182629037241,1.28608143421029,"ssf","mf.is","exp","unif",500,"ssfOUT_30_0.5_4_KINGCOBRA","KINGCOBRA",4,2,30,"preference"
"ssfOUT_30_0.5_4_KINGCOBRA.21",0.640378847825914,0.106909229312944,1.17384846633888,"ssf","mf.ss","gamma","vonmises",5,"ssfOUT_30_0.5_4_KINGCOBRA","KINGCOBRA",4,2,30,"preference"
"ssfOUT_30_0.5_4_KINGCOBRA.22",0.839409352471428,0.301160402666517,1.37765830227634,"ssf","mf.ss","gamma","vonmises",15,"ssfOUT_30_0.5_4_KINGCOBRA","KINGCOBRA",4,2,30,"preference"
"ssfOUT_30_0.5_4_KINGCOBRA.23",0.785202541763019,0.257509020703318,1.31289606282272,"ssf","mf.ss","gamma","vonmises",50,"ssfOUT_30_0.5_4_KINGCOBRA","KINGCOBRA",4,2,30,"preference"
"ssfOUT_30_0.5_4_KINGCOBRA.24",0.727010281466997,0.200170589812885,1.25384997312111,"ssf","mf.ss","gamma","vonmises",158,"ssfOUT_30_0.5_4_KINGCOBRA","KINGCOBRA",4,2,30,"preference"
"ssfOUT_30_0.5_4_KINGCOBRA.25",0.762736011185345,0.237858679212439,1.28761334315825,"ssf","mf.ss","gamma","vonmises",500,"ssfOUT_30_0.5_4_KINGCOBRA","KINGCOBRA",4,2,30,"preference"
"ssfOUT_30_0.5_4_KINGCOBRA.26",0.620207924730974,0.0759533308867422,1.16446251857521,"ssf","mf.ss","gamma","unif",5,"ssfOUT_30_0.5_4_KINGCOBRA","KINGCOBRA",4,2,30,"preference"
"ssfOUT_30_0.5_4_KINGCOBRA.27",0.901209905435114,0.357895803211976,1.44452400765825,"ssf","mf.ss","gamma","unif",15,"ssfOUT_30_0.5_4_KINGCOBRA","KINGCOBRA",4,2,30,"preference"
"ssfOUT_30_0.5_4_KINGCOBRA.28",0.771239079490127,0.240539617893607,1.30193854108665,"ssf","mf.ss","gamma","unif",50,"ssfOUT_30_0.5_4_KINGCOBRA","KINGCOBRA",4,2,30,"preference"
"ssfOUT_30_0.5_4_KINGCOBRA.29",0.84477936532067,0.317429017427029,1.37212971321431,"ssf","mf.ss","gamma","unif",158,"ssfOUT_30_0.5_4_KINGCOBRA","KINGCOBRA",4,2,30,"preference"
"ssfOUT_30_0.5_4_KINGCOBRA.30",0.734966458945513,0.208973324005938,1.26095959388509,"ssf","mf.ss","gamma","unif",500,"ssfOUT_30_0.5_4_KINGCOBRA","KINGCOBRA",4,2,30,"preference"
"ssfOUT_30_0.5_4_KINGCOBRA.31",0.464525106349023,-0.0741968700828273,1.00324708278087,"ssf","mf.ss","exp","vonmises",5,"ssfOUT_30_0.5_4_KINGCOBRA","KINGCOBRA",4,2,30,"no effect"
"ssfOUT_30_0.5_4_KINGCOBRA.32",0.38136958778318,-0.1469626673807,0.909701842947059,"ssf","mf.ss","exp","vonmises",15,"ssfOUT_30_0.5_4_KINGCOBRA","KINGCOBRA",4,2,30,"no effect"
"ssfOUT_30_0.5_4_KINGCOBRA.33",0.507920861625216,-0.0165672794435106,1.03240900269394,"ssf","mf.ss","exp","vonmises",50,"ssfOUT_30_0.5_4_KINGCOBRA","KINGCOBRA",4,2,30,"no effect"
"ssfOUT_30_0.5_4_KINGCOBRA.34",0.482958271333625,-0.0414787391337114,1.00739528180096,"ssf","mf.ss","exp","vonmises",158,"ssfOUT_30_0.5_4_KINGCOBRA","KINGCOBRA",4,2,30,"no effect"
"ssfOUT_30_0.5_4_KINGCOBRA.35",0.443587490884181,-0.080605163459071,0.967780145227433,"ssf","mf.ss","exp","vonmises",500,"ssfOUT_30_0.5_4_KINGCOBRA","KINGCOBRA",4,2,30,"no effect"
"ssfOUT_30_0.5_4_KINGCOBRA.36",0.463309344617852,-0.0760320454732281,1.00265073470893,"ssf","mf.ss","exp","unif",5,"ssfOUT_30_0.5_4_KINGCOBRA","KINGCOBRA",4,2,30,"no effect"
"ssfOUT_30_0.5_4_KINGCOBRA.37",0.476843560689992,-0.0563227303810198,1.010009851761,"ssf","mf.ss","exp","unif",15,"ssfOUT_30_0.5_4_KINGCOBRA","KINGCOBRA",4,2,30,"no effect"
"ssfOUT_30_0.5_4_KINGCOBRA.38",0.413474460595989,-0.110563757568339,0.937512678760317,"ssf","mf.ss","exp","unif",50,"ssfOUT_30_0.5_4_KINGCOBRA","KINGCOBRA",4,2,30,"no effect"
"ssfOUT_30_0.5_4_KINGCOBRA.39",0.468914669334895,-0.0554850575477677,0.993314396217558,"ssf","mf.ss","exp","unif",158,"ssfOUT_30_0.5_4_KINGCOBRA","KINGCOBRA",4,2,30,"no effect"
"ssfOUT_30_0.5_4_KINGCOBRA.40",0.403445124531867,-0.120446113212005,0.927336362275738,"ssf","mf.ss","exp","unif",500,"ssfOUT_30_0.5_4_KINGCOBRA","KINGCOBRA",4,2,30,"no effect"
"ssfOUT_30_1_1_BADGER.1",0.394117547162581,-0.241988427007637,1.0302235213328,"ssf","mf.is","gamma","vonmises",5,"ssfOUT_30_1_1_BADGER","BADGER",1,1,30,"no effect"
"ssfOUT_30_1_1_BADGER.2",0.577236260646973,-0.0522821989559702,1.20675472024992,"ssf","mf.is","gamma","vonmises",15,"ssfOUT_30_1_1_BADGER","BADGER",1,1,30,"no effect"
"ssfOUT_30_1_1_BADGER.3",0.429070330653594,-0.191631814920583,1.04977247622777,"ssf","mf.is","gamma","vonmises",50,"ssfOUT_30_1_1_BADGER","BADGER",1,1,30,"no effect"
"ssfOUT_30_1_1_BADGER.4",0.456405872802644,-0.158956141635145,1.07176788724043,"ssf","mf.is","gamma","vonmises",158,"ssfOUT_30_1_1_BADGER","BADGER",1,1,30,"no effect"
"ssfOUT_30_1_1_BADGER.5",0.502599588049019,-0.111396549893111,1.11659572599115,"ssf","mf.is","gamma","vonmises",500,"ssfOUT_30_1_1_BADGER","BADGER",1,1,30,"no effect"
"ssfOUT_30_1_1_BADGER.6",0.546767386179568,-0.0841076131629102,1.17764238552205,"ssf","mf.is","gamma","unif",5,"ssfOUT_30_1_1_BADGER","BADGER",1,1,30,"no effect"
"ssfOUT_30_1_1_BADGER.7",0.363841341094514,-0.246281836717649,0.973964518906677,"ssf","mf.is","gamma","unif",15,"ssfOUT_30_1_1_BADGER","BADGER",1,1,30,"no effect"
"ssfOUT_30_1_1_BADGER.8",0.555918404282227,-0.0601269742994446,1.1719637828639,"ssf","mf.is","gamma","unif",50,"ssfOUT_30_1_1_BADGER","BADGER",1,1,30,"no effect"
"ssfOUT_30_1_1_BADGER.9",0.543615540784908,-0.0672437891891149,1.15447487075893,"ssf","mf.is","gamma","unif",158,"ssfOUT_30_1_1_BADGER","BADGER",1,1,30,"no effect"
"ssfOUT_30_1_1_BADGER.10",0.424826238420934,-0.185982582234082,1.03563505907595,"ssf","mf.is","gamma","unif",500,"ssfOUT_30_1_1_BADGER","BADGER",1,1,30,"no effect"
"ssfOUT_30_1_1_BADGER.11",-0.275482833721342,-1.02437181264298,0.473406145200297,"ssf","mf.is","exp","vonmises",5,"ssfOUT_30_1_1_BADGER","BADGER",1,1,30,"no effect"
"ssfOUT_30_1_1_BADGER.12",0.523873149202347,-0.0932324391963215,1.14097873760102,"ssf","mf.is","exp","vonmises",15,"ssfOUT_30_1_1_BADGER","BADGER",1,1,30,"no effect"
"ssfOUT_30_1_1_BADGER.13",0.429383055014802,-0.191714688881437,1.05048079891104,"ssf","mf.is","exp","vonmises",50,"ssfOUT_30_1_1_BADGER","BADGER",1,1,30,"no effect"
"ssfOUT_30_1_1_BADGER.14",0.505258472494933,-0.113371310036951,1.12388825502682,"ssf","mf.is","exp","vonmises",158,"ssfOUT_30_1_1_BADGER","BADGER",1,1,30,"no effect"
"ssfOUT_30_1_1_BADGER.15",0.469049809748726,-0.139518133528676,1.07761775302613,"ssf","mf.is","exp","vonmises",500,"ssfOUT_30_1_1_BADGER","BADGER",1,1,30,"no effect"
"ssfOUT_30_1_1_BADGER.16",0.693534516009709,0.0590308564549277,1.32803817556449,"ssf","mf.is","exp","unif",5,"ssfOUT_30_1_1_BADGER","BADGER",1,1,30,"preference"
"ssfOUT_30_1_1_BADGER.17",0.762664846710127,0.120099830792207,1.40522986262805,"ssf","mf.is","exp","unif",15,"ssfOUT_30_1_1_BADGER","BADGER",1,1,30,"preference"
"ssfOUT_30_1_1_BADGER.18",0.522320327603667,-0.0961789519536739,1.14081960716101,"ssf","mf.is","exp","unif",50,"ssfOUT_30_1_1_BADGER","BADGER",1,1,30,"no effect"
"ssfOUT_30_1_1_BADGER.19",0.55133813202147,-0.064279730726561,1.1669559947695,"ssf","mf.is","exp","unif",158,"ssfOUT_30_1_1_BADGER","BADGER",1,1,30,"no effect"
"ssfOUT_30_1_1_BADGER.20",0.480752418778305,-0.131239388962517,1.09274422651913,"ssf","mf.is","exp","unif",500,"ssfOUT_30_1_1_BADGER","BADGER",1,1,30,"no effect"
"ssfOUT_30_1_1_BADGER.21",0.421442717229003,-0.213114335612999,1.055999770071,"ssf","mf.ss","gamma","vonmises",5,"ssfOUT_30_1_1_BADGER","BADGER",1,1,30,"no effect"
"ssfOUT_30_1_1_BADGER.22",0.588914316878513,-0.038742873638275,1.2165715073953,"ssf","mf.ss","gamma","vonmises",15,"ssfOUT_30_1_1_BADGER","BADGER",1,1,30,"no effect"
"ssfOUT_30_1_1_BADGER.23",0.425008134377542,-0.195092988376826,1.04510925713191,"ssf","mf.ss","gamma","vonmises",50,"ssfOUT_30_1_1_BADGER","BADGER",1,1,30,"no effect"
"ssfOUT_30_1_1_BADGER.24",0.456901455864489,-0.157784202666874,1.07158711439585,"ssf","mf.ss","gamma","vonmises",158,"ssfOUT_30_1_1_BADGER","BADGER",1,1,30,"no effect"
"ssfOUT_30_1_1_BADGER.25",0.49861152892089,-0.114748764814974,1.11197182265675,"ssf","mf.ss","gamma","vonmises",500,"ssfOUT_30_1_1_BADGER","BADGER",1,1,30,"no effect"
"ssfOUT_30_1_1_BADGER.26",0.562804930885132,-0.0669955575076328,1.1926054192779,"ssf","mf.ss","gamma","unif",5,"ssfOUT_30_1_1_BADGER","BADGER",1,1,30,"no effect"
"ssfOUT_30_1_1_BADGER.27",0.373392088147983,-0.235291230866331,0.982075407162298,"ssf","mf.ss","gamma","unif",15,"ssfOUT_30_1_1_BADGER","BADGER",1,1,30,"no effect"
"ssfOUT_30_1_1_BADGER.28",0.569241765042241,-0.0451898793822237,1.18367340946671,"ssf","mf.ss","gamma","unif",50,"ssfOUT_30_1_1_BADGER","BADGER",1,1,30,"no effect"
"ssfOUT_30_1_1_BADGER.29",0.55360936399382,-0.0562708227176848,1.16348955070532,"ssf","mf.ss","gamma","unif",158,"ssfOUT_30_1_1_BADGER","BADGER",1,1,30,"no effect"
"ssfOUT_30_1_1_BADGER.30",0.434047237185227,-0.175832006925812,1.04392648129627,"ssf","mf.ss","gamma","unif",500,"ssfOUT_30_1_1_BADGER","BADGER",1,1,30,"no effect"
"ssfOUT_30_1_1_BADGER.31",-0.306263527747145,-1.04981106683269,0.437284011338397,"ssf","mf.ss","exp","vonmises",5,"ssfOUT_30_1_1_BADGER","BADGER",1,1,30,"no effect"
"ssfOUT_30_1_1_BADGER.32",0.519522721811129,-0.0941429209587706,1.13318836458103,"ssf","mf.ss","exp","vonmises",15,"ssfOUT_30_1_1_BADGER","BADGER",1,1,30,"no effect"
"ssfOUT_30_1_1_BADGER.33",0.35874965425888,-0.253306753755743,0.970806062273502,"ssf","mf.ss","exp","vonmises",50,"ssfOUT_30_1_1_BADGER","BADGER",1,1,30,"no effect"
"ssfOUT_30_1_1_BADGER.34",0.391814260995961,-0.220734329632606,1.00436285162453,"ssf","mf.ss","exp","vonmises",158,"ssfOUT_30_1_1_BADGER","BADGER",1,1,30,"no effect"
"ssfOUT_30_1_1_BADGER.35",0.341183601188481,-0.265314507718966,0.947681710095929,"ssf","mf.ss","exp","vonmises",500,"ssfOUT_30_1_1_BADGER","BADGER",1,1,30,"no effect"
"ssfOUT_30_1_1_BADGER.36",0.494441735826642,-0.134582556952497,1.12346602860578,"ssf","mf.ss","exp","unif",5,"ssfOUT_30_1_1_BADGER","BADGER",1,1,30,"no effect"
"ssfOUT_30_1_1_BADGER.37",0.560285700008945,-0.0684048017112454,1.18897620172913,"ssf","mf.ss","exp","unif",15,"ssfOUT_30_1_1_BADGER","BADGER",1,1,30,"no effect"
"ssfOUT_30_1_1_BADGER.38",0.393280033501015,-0.221960688286566,1.0085207552886,"ssf","mf.ss","exp","unif",50,"ssfOUT_30_1_1_BADGER","BADGER",1,1,30,"no effect"
"ssfOUT_30_1_1_BADGER.39",0.421360902417738,-0.189124053025166,1.03184585786064,"ssf","mf.ss","exp","unif",158,"ssfOUT_30_1_1_BADGER","BADGER",1,1,30,"no effect"
"ssfOUT_30_1_1_BADGER.40",0.38066912908101,-0.228544307212646,0.989882565374666,"ssf","mf.ss","exp","unif",500,"ssfOUT_30_1_1_BADGER","BADGER",1,1,30,"no effect"
"ssfOUT_30_1_1_VULTURE.1",0.926526237477034,0.387431166740452,1.46562130821362,"ssf","mf.is","gamma","vonmises",5,"ssfOUT_30_1_1_VULTURE","VULTURE",1,1,30,"preference"
"ssfOUT_30_1_1_VULTURE.2",0.437660801969999,-0.0934110795502373,0.968732683490235,"ssf","mf.is","gamma","vonmises",15,"ssfOUT_30_1_1_VULTURE","VULTURE",1,1,30,"no effect"
"ssfOUT_30_1_1_VULTURE.3",0.563514476581504,0.0450134543897672,1.08201549877324,"ssf","mf.is","gamma","vonmises",50,"ssfOUT_30_1_1_VULTURE","VULTURE",1,1,30,"preference"
"ssfOUT_30_1_1_VULTURE.4",0.477813377802521,-0.0403793366636641,0.996006092268706,"ssf","mf.is","gamma","vonmises",158,"ssfOUT_30_1_1_VULTURE","VULTURE",1,1,30,"no effect"
"ssfOUT_30_1_1_VULTURE.5",0.547665705990338,0.0300437499131841,1.06528766206749,"ssf","mf.is","gamma","vonmises",500,"ssfOUT_30_1_1_VULTURE","VULTURE",1,1,30,"preference"
"ssfOUT_30_1_1_VULTURE.6",0.904850291115244,0.362402945553039,1.44729763667745,"ssf","mf.is","gamma","unif",5,"ssfOUT_30_1_1_VULTURE","VULTURE",1,1,30,"preference"
"ssfOUT_30_1_1_VULTURE.7",0.331769915955314,-0.198137401354312,0.861677233264941,"ssf","mf.is","gamma","unif",15,"ssfOUT_30_1_1_VULTURE","VULTURE",1,1,30,"no effect"
"ssfOUT_30_1_1_VULTURE.8",0.375868376955052,-0.144088332031204,0.895825085941309,"ssf","mf.is","gamma","unif",50,"ssfOUT_30_1_1_VULTURE","VULTURE",1,1,30,"no effect"
"ssfOUT_30_1_1_VULTURE.9",0.503928299474157,-0.0144463883340389,1.02230298728235,"ssf","mf.is","gamma","unif",158,"ssfOUT_30_1_1_VULTURE","VULTURE",1,1,30,"no effect"
"ssfOUT_30_1_1_VULTURE.10",0.515921114004998,-0.000509662004350764,1.03235189001435,"ssf","mf.is","gamma","unif",500,"ssfOUT_30_1_1_VULTURE","VULTURE",1,1,30,"no effect"
"ssfOUT_30_1_1_VULTURE.11",0.330543295486409,-0.230270000692768,0.891356591665586,"ssf","mf.is","exp","vonmises",5,"ssfOUT_30_1_1_VULTURE","VULTURE",1,1,30,"no effect"
"ssfOUT_30_1_1_VULTURE.12",0.36576923729725,-0.168184916384812,0.899723390979312,"ssf","mf.is","exp","vonmises",15,"ssfOUT_30_1_1_VULTURE","VULTURE",1,1,30,"no effect"
"ssfOUT_30_1_1_VULTURE.13",0.470641493023039,-0.0474913670255132,0.988774353071592,"ssf","mf.is","exp","vonmises",50,"ssfOUT_30_1_1_VULTURE","VULTURE",1,1,30,"no effect"
"ssfOUT_30_1_1_VULTURE.14",0.492962106735811,-0.0253275660565849,1.01125177952821,"ssf","mf.is","exp","vonmises",158,"ssfOUT_30_1_1_VULTURE","VULTURE",1,1,30,"no effect"
"ssfOUT_30_1_1_VULTURE.15",0.506902624409541,-0.00898523559953013,1.02279048441861,"ssf","mf.is","exp","vonmises",500,"ssfOUT_30_1_1_VULTURE","VULTURE",1,1,30,"no effect"
"ssfOUT_30_1_1_VULTURE.16",0.38732273929706,-0.173022033949173,0.947667512543292,"ssf","mf.is","exp","unif",5,"ssfOUT_30_1_1_VULTURE","VULTURE",1,1,30,"no effect"
"ssfOUT_30_1_1_VULTURE.17",0.509650347534396,-0.0210681266065557,1.04036882167535,"ssf","mf.is","exp","unif",15,"ssfOUT_30_1_1_VULTURE","VULTURE",1,1,30,"no effect"
"ssfOUT_30_1_1_VULTURE.18",0.536738790960986,0.0176181355422822,1.05585944637969,"ssf","mf.is","exp","unif",50,"ssfOUT_30_1_1_VULTURE","VULTURE",1,1,30,"preference"
"ssfOUT_30_1_1_VULTURE.19",0.45029971982922,-0.0667853052001617,0.967384744858602,"ssf","mf.is","exp","unif",158,"ssfOUT_30_1_1_VULTURE","VULTURE",1,1,30,"no effect"
"ssfOUT_30_1_1_VULTURE.20",0.560788445029565,0.0440913350925236,1.07748555496661,"ssf","mf.is","exp","unif",500,"ssfOUT_30_1_1_VULTURE","VULTURE",1,1,30,"preference"
"ssfOUT_30_1_1_VULTURE.21",0.875438673625373,0.336625894557314,1.41425145269343,"ssf","mf.ss","gamma","vonmises",5,"ssfOUT_30_1_1_VULTURE","VULTURE",1,1,30,"preference"
"ssfOUT_30_1_1_VULTURE.22",0.421105386440815,-0.109464698033724,0.951675470915354,"ssf","mf.ss","gamma","vonmises",15,"ssfOUT_30_1_1_VULTURE","VULTURE",1,1,30,"no effect"
"ssfOUT_30_1_1_VULTURE.23",0.550589143038391,0.0319359100017909,1.06924237607499,"ssf","mf.ss","gamma","vonmises",50,"ssfOUT_30_1_1_VULTURE","VULTURE",1,1,30,"preference"
"ssfOUT_30_1_1_VULTURE.24",0.461867764518473,-0.056226039672512,0.979961568709458,"ssf","mf.ss","gamma","vonmises",158,"ssfOUT_30_1_1_VULTURE","VULTURE",1,1,30,"no effect"
"ssfOUT_30_1_1_VULTURE.25",0.530939309025467,0.0134967006419465,1.04838191740899,"ssf","mf.ss","gamma","vonmises",500,"ssfOUT_30_1_1_VULTURE","VULTURE",1,1,30,"preference"
"ssfOUT_30_1_1_VULTURE.26",0.895710114184836,0.354254562260075,1.4371656661096,"ssf","mf.ss","gamma","unif",5,"ssfOUT_30_1_1_VULTURE","VULTURE",1,1,30,"preference"
"ssfOUT_30_1_1_VULTURE.27",0.321928359492723,-0.208396409900348,0.852253128885794,"ssf","mf.ss","gamma","unif",15,"ssfOUT_30_1_1_VULTURE","VULTURE",1,1,30,"no effect"
"ssfOUT_30_1_1_VULTURE.28",0.362997667789521,-0.15706773477931,0.883063070358352,"ssf","mf.ss","gamma","unif",50,"ssfOUT_30_1_1_VULTURE","VULTURE",1,1,30,"no effect"
"ssfOUT_30_1_1_VULTURE.29",0.495819590888042,-0.0225858540585853,1.01422503583467,"ssf","mf.ss","gamma","unif",158,"ssfOUT_30_1_1_VULTURE","VULTURE",1,1,30,"no effect"
"ssfOUT_30_1_1_VULTURE.30",0.507972706326769,-0.00841498486912551,1.02436039752266,"ssf","mf.ss","gamma","unif",500,"ssfOUT_30_1_1_VULTURE","VULTURE",1,1,30,"no effect"
"ssfOUT_30_1_1_VULTURE.31",0.33450283398068,-0.213219016067816,0.882224684029177,"ssf","mf.ss","exp","vonmises",5,"ssfOUT_30_1_1_VULTURE","VULTURE",1,1,30,"no effect"
"ssfOUT_30_1_1_VULTURE.32",0.337828274299171,-0.192238217987263,0.867894766585606,"ssf","mf.ss","exp","vonmises",15,"ssfOUT_30_1_1_VULTURE","VULTURE",1,1,30,"no effect"
"ssfOUT_30_1_1_VULTURE.33",0.485181925115195,-0.0314254536113847,1.00178930384177,"ssf","mf.ss","exp","vonmises",50,"ssfOUT_30_1_1_VULTURE","VULTURE",1,1,30,"no effect"
"ssfOUT_30_1_1_VULTURE.34",0.493083651321762,-0.0263272575690538,1.01249456021258,"ssf","mf.ss","exp","vonmises",158,"ssfOUT_30_1_1_VULTURE","VULTURE",1,1,30,"no effect"
"ssfOUT_30_1_1_VULTURE.35",0.504612448308542,-0.0122690032857884,1.02149389990287,"ssf","mf.ss","exp","vonmises",500,"ssfOUT_30_1_1_VULTURE","VULTURE",1,1,30,"no effect"
"ssfOUT_30_1_1_VULTURE.36",0.596279690089068,0.0514777981607289,1.14108158201741,"ssf","mf.ss","exp","unif",5,"ssfOUT_30_1_1_VULTURE","VULTURE",1,1,30,"preference"
"ssfOUT_30_1_1_VULTURE.37",0.516743078097329,-0.0119579763799551,1.04544413257461,"ssf","mf.ss","exp","unif",15,"ssfOUT_30_1_1_VULTURE","VULTURE",1,1,30,"no effect"
"ssfOUT_30_1_1_VULTURE.38",0.507737933476798,-0.0118378472946201,1.02731371424822,"ssf","mf.ss","exp","unif",50,"ssfOUT_30_1_1_VULTURE","VULTURE",1,1,30,"no effect"
"ssfOUT_30_1_1_VULTURE.39",0.459453649253544,-0.0575997235035563,0.976507022010645,"ssf","mf.ss","exp","unif",158,"ssfOUT_30_1_1_VULTURE","VULTURE",1,1,30,"no effect"
"ssfOUT_30_1_1_VULTURE.40",0.555132255848757,0.0379770604136062,1.07228745128391,"ssf","mf.ss","exp","unif",500,"ssfOUT_30_1_1_VULTURE","VULTURE",1,1,30,"preference"
"ssfOUT_30_1_1_KINGCOBRA.1",0.516511377531951,-0.223850903978651,1.25687365904255,"ssf","mf.is","gamma","vonmises",5,"ssfOUT_30_1_1_KINGCOBRA","KINGCOBRA",1,1,30,"no effect"
"ssfOUT_30_1_1_KINGCOBRA.2",0.289656166739497,-0.445195921583049,1.02450825506204,"ssf","mf.is","gamma","vonmises",15,"ssfOUT_30_1_1_KINGCOBRA","KINGCOBRA",1,1,30,"no effect"
"ssfOUT_30_1_1_KINGCOBRA.3",0.443426283869681,-0.281108898153579,1.16796146589294,"ssf","mf.is","gamma","vonmises",50,"ssfOUT_30_1_1_KINGCOBRA","KINGCOBRA",1,1,30,"no effect"
"ssfOUT_30_1_1_KINGCOBRA.4",0.504781668749745,-0.223244038781741,1.23280737628123,"ssf","mf.is","gamma","vonmises",158,"ssfOUT_30_1_1_KINGCOBRA","KINGCOBRA",1,1,30,"no effect"
"ssfOUT_30_1_1_KINGCOBRA.5",0.595223035352577,-0.143117916621745,1.3335639873269,"ssf","mf.is","gamma","vonmises",500,"ssfOUT_30_1_1_KINGCOBRA","KINGCOBRA",1,1,30,"no effect"
"ssfOUT_30_1_1_KINGCOBRA.6",0.674129277376879,-0.00945734284077737,1.35771589759453,"ssf","mf.is","gamma","unif",5,"ssfOUT_30_1_1_KINGCOBRA","KINGCOBRA",1,1,30,"no effect"
"ssfOUT_30_1_1_KINGCOBRA.7",0.0115582212764366,-0.806211691147401,0.829328133700274,"ssf","mf.is","gamma","unif",15,"ssfOUT_30_1_1_KINGCOBRA","KINGCOBRA",1,1,30,"no effect"
"ssfOUT_30_1_1_KINGCOBRA.8",0.572698323542603,-0.151355088208393,1.2967517352936,"ssf","mf.is","gamma","unif",50,"ssfOUT_30_1_1_KINGCOBRA","KINGCOBRA",1,1,30,"no effect"
"ssfOUT_30_1_1_KINGCOBRA.9",0.637607925801016,-0.0887177685538764,1.36393362015591,"ssf","mf.is","gamma","unif",158,"ssfOUT_30_1_1_KINGCOBRA","KINGCOBRA",1,1,30,"no effect"
"ssfOUT_30_1_1_KINGCOBRA.10",0.538224435195329,-0.177874050102413,1.25432292049307,"ssf","mf.is","gamma","unif",500,"ssfOUT_30_1_1_KINGCOBRA","KINGCOBRA",1,1,30,"no effect"
"ssfOUT_30_1_1_KINGCOBRA.11",0.131117136507249,-0.619258881578918,0.881493154593417,"ssf","mf.is","exp","vonmises",5,"ssfOUT_30_1_1_KINGCOBRA","KINGCOBRA",1,1,30,"no effect"
"ssfOUT_30_1_1_KINGCOBRA.12",0.28148259994107,-0.460179435398261,1.0231446352804,"ssf","mf.is","exp","vonmises",15,"ssfOUT_30_1_1_KINGCOBRA","KINGCOBRA",1,1,30,"no effect"
"ssfOUT_30_1_1_KINGCOBRA.13",-0.0163851069228596,-0.729105836946229,0.69633562310051,"ssf","mf.is","exp","vonmises",50,"ssfOUT_30_1_1_KINGCOBRA","KINGCOBRA",1,1,30,"no effect"
"ssfOUT_30_1_1_KINGCOBRA.14",0.598955093284518,-0.199884573281779,1.39779475985081,"ssf","mf.is","exp","vonmises",158,"ssfOUT_30_1_1_KINGCOBRA","KINGCOBRA",1,1,30,"no effect"
"ssfOUT_30_1_1_KINGCOBRA.15",0.644103518519482,-0.105814243727363,1.39402128076633,"ssf","mf.is","exp","vonmises",500,"ssfOUT_30_1_1_KINGCOBRA","KINGCOBRA",1,1,30,"no effect"
"ssfOUT_30_1_1_KINGCOBRA.16",-0.408288468904673,-1.18814338179404,0.371566443984697,"ssf","mf.is","exp","unif",5,"ssfOUT_30_1_1_KINGCOBRA","KINGCOBRA",1,1,30,"no effect"
"ssfOUT_30_1_1_KINGCOBRA.17",-0.0472433636320096,-0.863724088448979,0.769237361184959,"ssf","mf.is","exp","unif",15,"ssfOUT_30_1_1_KINGCOBRA","KINGCOBRA",1,1,30,"no effect"
"ssfOUT_30_1_1_KINGCOBRA.18",0.385072167284771,-0.342679533923821,1.11282386849336,"ssf","mf.is","exp","unif",50,"ssfOUT_30_1_1_KINGCOBRA","KINGCOBRA",1,1,30,"no effect"
"ssfOUT_30_1_1_KINGCOBRA.19",0.384926003600503,-0.32356759594708,1.09341960314809,"ssf","mf.is","exp","unif",158,"ssfOUT_30_1_1_KINGCOBRA","KINGCOBRA",1,1,30,"no effect"
"ssfOUT_30_1_1_KINGCOBRA.20",0.558147736630385,-0.215812917110792,1.33210839037156,"ssf","mf.is","exp","unif",500,"ssfOUT_30_1_1_KINGCOBRA","KINGCOBRA",1,1,30,"no effect"
"ssfOUT_30_1_1_KINGCOBRA.21",0.655959173675858,-0.088707113463194,1.40062546081491,"ssf","mf.ss","gamma","vonmises",5,"ssfOUT_30_1_1_KINGCOBRA","KINGCOBRA",1,1,30,"no effect"
"ssfOUT_30_1_1_KINGCOBRA.22",0.611558405157648,-0.117514802174291,1.34063161248959,"ssf","mf.ss","gamma","vonmises",15,"ssfOUT_30_1_1_KINGCOBRA","KINGCOBRA",1,1,30,"no effect"
"ssfOUT_30_1_1_KINGCOBRA.23",0.907852294200625,0.161788290230478,1.65391629817077,"ssf","mf.ss","gamma","vonmises",50,"ssfOUT_30_1_1_KINGCOBRA","KINGCOBRA",1,1,30,"preference"
"ssfOUT_30_1_1_KINGCOBRA.24",0.909378309737525,0.15339031427081,1.66536630520424,"ssf","mf.ss","gamma","vonmises",158,"ssfOUT_30_1_1_KINGCOBRA","KINGCOBRA",1,1,30,"preference"
"ssfOUT_30_1_1_KINGCOBRA.25",0.985922206961383,0.228543274679852,1.74330113924291,"ssf","mf.ss","gamma","vonmises",500,"ssfOUT_30_1_1_KINGCOBRA","KINGCOBRA",1,1,30,"preference"
"ssfOUT_30_1_1_KINGCOBRA.26",0.930191256340566,0.236696605790302,1.62368590689083,"ssf","mf.ss","gamma","unif",5,"ssfOUT_30_1_1_KINGCOBRA","KINGCOBRA",1,1,30,"preference"
"ssfOUT_30_1_1_KINGCOBRA.27",0.48689081712881,-0.316142565851204,1.28992420010883,"ssf","mf.ss","gamma","unif",15,"ssfOUT_30_1_1_KINGCOBRA","KINGCOBRA",1,1,30,"no effect"
"ssfOUT_30_1_1_KINGCOBRA.28",0.965766306257674,0.22351470849996,1.70801790401539,"ssf","mf.ss","gamma","unif",50,"ssfOUT_30_1_1_KINGCOBRA","KINGCOBRA",1,1,30,"preference"
"ssfOUT_30_1_1_KINGCOBRA.29",1.03569563527212,0.288883416785031,1.78250785375922,"ssf","mf.ss","gamma","unif",158,"ssfOUT_30_1_1_KINGCOBRA","KINGCOBRA",1,1,30,"preference"
"ssfOUT_30_1_1_KINGCOBRA.30",0.934703840953957,0.190123140317737,1.67928454159018,"ssf","mf.ss","gamma","unif",500,"ssfOUT_30_1_1_KINGCOBRA","KINGCOBRA",1,1,30,"preference"
"ssfOUT_30_1_1_KINGCOBRA.31",1.39862570089421,0.627140584394873,2.17011081739355,"ssf","mf.ss","exp","vonmises",5,"ssfOUT_30_1_1_KINGCOBRA","KINGCOBRA",1,1,30,"preference"
"ssfOUT_30_1_1_KINGCOBRA.32",1.2728506491561,0.550936787006995,1.9947645113052,"ssf","mf.ss","exp","vonmises",15,"ssfOUT_30_1_1_KINGCOBRA","KINGCOBRA",1,1,30,"preference"
"ssfOUT_30_1_1_KINGCOBRA.33",1.02379384219902,0.311291001872716,1.73629668252533,"ssf","mf.ss","exp","vonmises",50,"ssfOUT_30_1_1_KINGCOBRA","KINGCOBRA",1,1,30,"preference"
"ssfOUT_30_1_1_KINGCOBRA.34",1.12550170981273,0.409906030450244,1.84109738917523,"ssf","mf.ss","exp","vonmises",158,"ssfOUT_30_1_1_KINGCOBRA","KINGCOBRA",1,1,30,"preference"
"ssfOUT_30_1_1_KINGCOBRA.35",1.07628137228854,0.374778041297952,1.77778470327913,"ssf","mf.ss","exp","vonmises",500,"ssfOUT_30_1_1_KINGCOBRA","KINGCOBRA",1,1,30,"preference"
"ssfOUT_30_1_1_KINGCOBRA.36",1.05651382895,0.284936699538854,1.82809095836114,"ssf","mf.ss","exp","unif",5,"ssfOUT_30_1_1_KINGCOBRA","KINGCOBRA",1,1,30,"preference"
"ssfOUT_30_1_1_KINGCOBRA.37",0.922698730999433,0.13406097227918,1.71133648971969,"ssf","mf.ss","exp","unif",15,"ssfOUT_30_1_1_KINGCOBRA","KINGCOBRA",1,1,30,"preference"
"ssfOUT_30_1_1_KINGCOBRA.38",1.07317275308059,0.366836187728765,1.77950931843242,"ssf","mf.ss","exp","unif",50,"ssfOUT_30_1_1_KINGCOBRA","KINGCOBRA",1,1,30,"preference"
"ssfOUT_30_1_1_KINGCOBRA.39",0.967289602501451,0.263651226117028,1.67092797888587,"ssf","mf.ss","exp","unif",158,"ssfOUT_30_1_1_KINGCOBRA","KINGCOBRA",1,1,30,"preference"
"ssfOUT_30_1_1_KINGCOBRA.40",1.02701126245774,0.331382950181734,1.72263957473374,"ssf","mf.ss","exp","unif",500,"ssfOUT_30_1_1_KINGCOBRA","KINGCOBRA",1,1,30,"preference"
"ssfOUT_30_1_2_BADGER.1",0.586082442048555,0.234437687322405,0.937727196774704,"ssf","mf.is","gamma","vonmises",5,"ssfOUT_30_1_2_BADGER","BADGER",2,1,30,"preference"
"ssfOUT_30_1_2_BADGER.2",0.373078574370959,0.0434233757671585,0.702733772974759,"ssf","mf.is","gamma","vonmises",15,"ssfOUT_30_1_2_BADGER","BADGER",2,1,30,"preference"
"ssfOUT_30_1_2_BADGER.3",0.44244322002984,0.116930339589251,0.767956100470429,"ssf","mf.is","gamma","vonmises",50,"ssfOUT_30_1_2_BADGER","BADGER",2,1,30,"preference"
"ssfOUT_30_1_2_BADGER.4",0.447602899592236,0.122862944847807,0.772342854336665,"ssf","mf.is","gamma","vonmises",158,"ssfOUT_30_1_2_BADGER","BADGER",2,1,30,"preference"
"ssfOUT_30_1_2_BADGER.5",0.515097005665922,0.190168240580798,0.840025770751046,"ssf","mf.is","gamma","vonmises",500,"ssfOUT_30_1_2_BADGER","BADGER",2,1,30,"preference"
"ssfOUT_30_1_2_BADGER.6",0.464403506086326,0.118915745886891,0.809891266285762,"ssf","mf.is","gamma","unif",5,"ssfOUT_30_1_2_BADGER","BADGER",2,1,30,"preference"
"ssfOUT_30_1_2_BADGER.7",0.686625162514738,0.361510710850578,1.0117396141789,"ssf","mf.is","gamma","unif",15,"ssfOUT_30_1_2_BADGER","BADGER",2,1,30,"preference"
"ssfOUT_30_1_2_BADGER.8",0.508666257386974,0.182181306204396,0.835151208569552,"ssf","mf.is","gamma","unif",50,"ssfOUT_30_1_2_BADGER","BADGER",2,1,30,"preference"
"ssfOUT_30_1_2_BADGER.9",0.484814607316465,0.160182176245697,0.809447038387232,"ssf","mf.is","gamma","unif",158,"ssfOUT_30_1_2_BADGER","BADGER",2,1,30,"preference"
"ssfOUT_30_1_2_BADGER.10",0.467687014121677,0.144224425182094,0.791149603061261,"ssf","mf.is","gamma","unif",500,"ssfOUT_30_1_2_BADGER","BADGER",2,1,30,"preference"
"ssfOUT_30_1_2_BADGER.11",0.47075146350386,0.110294199361115,0.831208727646605,"ssf","mf.is","exp","vonmises",5,"ssfOUT_30_1_2_BADGER","BADGER",2,1,30,"preference"
"ssfOUT_30_1_2_BADGER.12",0.576038957023206,0.238945876222919,0.913132037823494,"ssf","mf.is","exp","vonmises",15,"ssfOUT_30_1_2_BADGER","BADGER",2,1,30,"preference"
"ssfOUT_30_1_2_BADGER.13",0.561873784684186,0.240613952063804,0.883133617304569,"ssf","mf.is","exp","vonmises",50,"ssfOUT_30_1_2_BADGER","BADGER",2,1,30,"preference"
"ssfOUT_30_1_2_BADGER.14",0.499873032373027,0.174202419223084,0.825543645522969,"ssf","mf.is","exp","vonmises",158,"ssfOUT_30_1_2_BADGER","BADGER",2,1,30,"preference"
"ssfOUT_30_1_2_BADGER.15",0.448570632754053,0.125335295291892,0.771805970216213,"ssf","mf.is","exp","vonmises",500,"ssfOUT_30_1_2_BADGER","BADGER",2,1,30,"preference"
"ssfOUT_30_1_2_BADGER.16",0.310567222622924,-0.0406205238249507,0.661754969070798,"ssf","mf.is","exp","unif",5,"ssfOUT_30_1_2_BADGER","BADGER",2,1,30,"no effect"
"ssfOUT_30_1_2_BADGER.17",0.534428159904704,0.201045084245132,0.867811235564277,"ssf","mf.is","exp","unif",15,"ssfOUT_30_1_2_BADGER","BADGER",2,1,30,"preference"
"ssfOUT_30_1_2_BADGER.18",0.406127573477029,0.0802542741352847,0.732000872818774,"ssf","mf.is","exp","unif",50,"ssfOUT_30_1_2_BADGER","BADGER",2,1,30,"preference"
"ssfOUT_30_1_2_BADGER.19",0.444170464134635,0.119905721424866,0.768435206844403,"ssf","mf.is","exp","unif",158,"ssfOUT_30_1_2_BADGER","BADGER",2,1,30,"preference"
"ssfOUT_30_1_2_BADGER.20",0.488226955804638,0.164062899458428,0.812391012150848,"ssf","mf.is","exp","unif",500,"ssfOUT_30_1_2_BADGER","BADGER",2,1,30,"preference"
"ssfOUT_30_1_2_BADGER.21",0.573399055603127,0.22056876603325,0.926229345173004,"ssf","mf.ss","gamma","vonmises",5,"ssfOUT_30_1_2_BADGER","BADGER",2,1,30,"preference"
"ssfOUT_30_1_2_BADGER.22",0.35383403178553,0.0227341262134472,0.684933937357612,"ssf","mf.ss","gamma","vonmises",15,"ssfOUT_30_1_2_BADGER","BADGER",2,1,30,"preference"
"ssfOUT_30_1_2_BADGER.23",0.435463293560836,0.107576094026963,0.763350493094709,"ssf","mf.ss","gamma","vonmises",50,"ssfOUT_30_1_2_BADGER","BADGER",2,1,30,"preference"
"ssfOUT_30_1_2_BADGER.24",0.449623980349056,0.122215347846329,0.777032612851783,"ssf","mf.ss","gamma","vonmises",158,"ssfOUT_30_1_2_BADGER","BADGER",2,1,30,"preference"
"ssfOUT_30_1_2_BADGER.25",0.510273529220311,0.18256723278048,0.837979825660141,"ssf","mf.ss","gamma","vonmises",500,"ssfOUT_30_1_2_BADGER","BADGER",2,1,30,"preference"
"ssfOUT_30_1_2_BADGER.26",0.481129660833538,0.13575490525526,0.826504416411816,"ssf","mf.ss","gamma","unif",5,"ssfOUT_30_1_2_BADGER","BADGER",2,1,30,"preference"
"ssfOUT_30_1_2_BADGER.27",0.666550956703026,0.339102990881335,0.993998922524717,"ssf","mf.ss","gamma","unif",15,"ssfOUT_30_1_2_BADGER","BADGER",2,1,30,"preference"
"ssfOUT_30_1_2_BADGER.28",0.504084892661154,0.175759800078736,0.832409985243572,"ssf","mf.ss","gamma","unif",50,"ssfOUT_30_1_2_BADGER","BADGER",2,1,30,"preference"
"ssfOUT_30_1_2_BADGER.29",0.481778782617876,0.154590804696375,0.808966760539376,"ssf","mf.ss","gamma","unif",158,"ssfOUT_30_1_2_BADGER","BADGER",2,1,30,"preference"
"ssfOUT_30_1_2_BADGER.30",0.465245709257681,0.139200877169401,0.79129054134596,"ssf","mf.ss","gamma","unif",500,"ssfOUT_30_1_2_BADGER","BADGER",2,1,30,"preference"
"ssfOUT_30_1_2_BADGER.31",0.491878262204303,0.137277040727451,0.846479483681156,"ssf","mf.ss","exp","vonmises",5,"ssfOUT_30_1_2_BADGER","BADGER",2,1,30,"preference"
"ssfOUT_30_1_2_BADGER.32",0.576878229581991,0.245906056778982,0.907850402385001,"ssf","mf.ss","exp","vonmises",15,"ssfOUT_30_1_2_BADGER","BADGER",2,1,30,"preference"
"ssfOUT_30_1_2_BADGER.33",0.53741748591622,0.217976912493138,0.856858059339302,"ssf","mf.ss","exp","vonmises",50,"ssfOUT_30_1_2_BADGER","BADGER",2,1,30,"preference"
"ssfOUT_30_1_2_BADGER.34",0.517883919157316,0.194324960842434,0.841442877472197,"ssf","mf.ss","exp","vonmises",158,"ssfOUT_30_1_2_BADGER","BADGER",2,1,30,"preference"
"ssfOUT_30_1_2_BADGER.35",0.480628920284962,0.157926610367552,0.803331230202371,"ssf","mf.ss","exp","vonmises",500,"ssfOUT_30_1_2_BADGER","BADGER",2,1,30,"preference"
"ssfOUT_30_1_2_BADGER.36",0.380810370614147,0.0362793146347868,0.725341426593507,"ssf","mf.ss","exp","unif",5,"ssfOUT_30_1_2_BADGER","BADGER",2,1,30,"preference"
"ssfOUT_30_1_2_BADGER.37",0.49494891042208,0.165482838279788,0.824414982564373,"ssf","mf.ss","exp","unif",15,"ssfOUT_30_1_2_BADGER","BADGER",2,1,30,"preference"
"ssfOUT_30_1_2_BADGER.38",0.407890845625319,0.0835845502019999,0.732197141048637,"ssf","mf.ss","exp","unif",50,"ssfOUT_30_1_2_BADGER","BADGER",2,1,30,"preference"
"ssfOUT_30_1_2_BADGER.39",0.462895188077213,0.139823795460959,0.785966580693468,"ssf","mf.ss","exp","unif",158,"ssfOUT_30_1_2_BADGER","BADGER",2,1,30,"preference"
"ssfOUT_30_1_2_BADGER.40",0.50803740155128,0.185799878046789,0.83027492505577,"ssf","mf.ss","exp","unif",500,"ssfOUT_30_1_2_BADGER","BADGER",2,1,30,"preference"
"ssfOUT_30_1_2_VULTURE.1",0.605896530731782,0.190707978354073,1.02108508310949,"ssf","mf.is","gamma","vonmises",5,"ssfOUT_30_1_2_VULTURE","VULTURE",2,1,30,"preference"
"ssfOUT_30_1_2_VULTURE.2",0.553034089113631,0.157222782621919,0.948845395605343,"ssf","mf.is","gamma","vonmises",15,"ssfOUT_30_1_2_VULTURE","VULTURE",2,1,30,"preference"
"ssfOUT_30_1_2_VULTURE.3",0.54879169944027,0.15846401594556,0.939119382934979,"ssf","mf.is","gamma","vonmises",50,"ssfOUT_30_1_2_VULTURE","VULTURE",2,1,30,"preference"
"ssfOUT_30_1_2_VULTURE.4",0.586089235345307,0.197562880940828,0.974615589749785,"ssf","mf.is","gamma","vonmises",158,"ssfOUT_30_1_2_VULTURE","VULTURE",2,1,30,"preference"
"ssfOUT_30_1_2_VULTURE.5",0.5731915939934,0.184620298802003,0.961762889184798,"ssf","mf.is","gamma","vonmises",500,"ssfOUT_30_1_2_VULTURE","VULTURE",2,1,30,"preference"
"ssfOUT_30_1_2_VULTURE.6",0.586748752889543,0.178420981232506,0.99507652454658,"ssf","mf.is","gamma","unif",5,"ssfOUT_30_1_2_VULTURE","VULTURE",2,1,30,"preference"
"ssfOUT_30_1_2_VULTURE.7",0.5269111062592,0.131474141376833,0.922348071141568,"ssf","mf.is","gamma","unif",15,"ssfOUT_30_1_2_VULTURE","VULTURE",2,1,30,"preference"
"ssfOUT_30_1_2_VULTURE.8",0.524597407096124,0.134794935629041,0.914399878563207,"ssf","mf.is","gamma","unif",50,"ssfOUT_30_1_2_VULTURE","VULTURE",2,1,30,"preference"
"ssfOUT_30_1_2_VULTURE.9",0.58132061318693,0.192374917111603,0.970266309262257,"ssf","mf.is","gamma","unif",158,"ssfOUT_30_1_2_VULTURE","VULTURE",2,1,30,"preference"
"ssfOUT_30_1_2_VULTURE.10",0.540851988531498,0.152755479532701,0.928948497530294,"ssf","mf.is","gamma","unif",500,"ssfOUT_30_1_2_VULTURE","VULTURE",2,1,30,"preference"
"ssfOUT_30_1_2_VULTURE.11",0.713222858577039,0.296497024499627,1.12994869265445,"ssf","mf.is","exp","vonmises",5,"ssfOUT_30_1_2_VULTURE","VULTURE",2,1,30,"preference"
"ssfOUT_30_1_2_VULTURE.12",0.453877786491414,0.0523927744860038,0.855362798496824,"ssf","mf.is","exp","vonmises",15,"ssfOUT_30_1_2_VULTURE","VULTURE",2,1,30,"preference"
"ssfOUT_30_1_2_VULTURE.13",0.514314934696343,0.124088910949049,0.904540958443636,"ssf","mf.is","exp","vonmises",50,"ssfOUT_30_1_2_VULTURE","VULTURE",2,1,30,"preference"
"ssfOUT_30_1_2_VULTURE.14",0.609855684019252,0.221052923835039,0.998658444203465,"ssf","mf.is","exp","vonmises",158,"ssfOUT_30_1_2_VULTURE","VULTURE",2,1,30,"preference"
"ssfOUT_30_1_2_VULTURE.15",0.554324409842052,0.166064284516267,0.942584535167837,"ssf","mf.is","exp","vonmises",500,"ssfOUT_30_1_2_VULTURE","VULTURE",2,1,30,"preference"
"ssfOUT_30_1_2_VULTURE.16",0.760660877536937,0.313620698297699,1.20770105677618,"ssf","mf.is","exp","unif",5,"ssfOUT_30_1_2_VULTURE","VULTURE",2,1,30,"preference"
"ssfOUT_30_1_2_VULTURE.17",0.609022539109526,0.210800826251448,1.0072442519676,"ssf","mf.is","exp","unif",15,"ssfOUT_30_1_2_VULTURE","VULTURE",2,1,30,"preference"
"ssfOUT_30_1_2_VULTURE.18",0.590533547136613,0.19919789084062,0.981869203432606,"ssf","mf.is","exp","unif",50,"ssfOUT_30_1_2_VULTURE","VULTURE",2,1,30,"preference"
"ssfOUT_30_1_2_VULTURE.19",0.484320875491705,0.0953130024203485,0.873328748563062,"ssf","mf.is","exp","unif",158,"ssfOUT_30_1_2_VULTURE","VULTURE",2,1,30,"preference"
"ssfOUT_30_1_2_VULTURE.20",0.550547619201232,0.162809779321228,0.938285459081236,"ssf","mf.is","exp","unif",500,"ssfOUT_30_1_2_VULTURE","VULTURE",2,1,30,"preference"
"ssfOUT_30_1_2_VULTURE.21",0.607122310119176,0.192151565900188,1.02209305433816,"ssf","mf.ss","gamma","vonmises",5,"ssfOUT_30_1_2_VULTURE","VULTURE",2,1,30,"preference"
"ssfOUT_30_1_2_VULTURE.22",0.556791576755241,0.161131550386783,0.9524516031237,"ssf","mf.ss","gamma","vonmises",15,"ssfOUT_30_1_2_VULTURE","VULTURE",2,1,30,"preference"
"ssfOUT_30_1_2_VULTURE.23",0.551813863678378,0.161618600615215,0.94200912674154,"ssf","mf.ss","gamma","vonmises",50,"ssfOUT_30_1_2_VULTURE","VULTURE",2,1,30,"preference"
"ssfOUT_30_1_2_VULTURE.24",0.585256648487573,0.196811444251249,0.973701852723896,"ssf","mf.ss","gamma","vonmises",158,"ssfOUT_30_1_2_VULTURE","VULTURE",2,1,30,"preference"
"ssfOUT_30_1_2_VULTURE.25",0.571167830698714,0.182633399531949,0.959702261865478,"ssf","mf.ss","gamma","vonmises",500,"ssfOUT_30_1_2_VULTURE","VULTURE",2,1,30,"preference"
"ssfOUT_30_1_2_VULTURE.26",0.581405412169409,0.173296823618137,0.989514000720681,"ssf","mf.ss","gamma","unif",5,"ssfOUT_30_1_2_VULTURE","VULTURE",2,1,30,"preference"
"ssfOUT_30_1_2_VULTURE.27",0.527774907474653,0.132501009109769,0.923048805839537,"ssf","mf.ss","gamma","unif",15,"ssfOUT_30_1_2_VULTURE","VULTURE",2,1,30,"preference"
"ssfOUT_30_1_2_VULTURE.28",0.52743291220953,0.137719987809602,0.917145836609458,"ssf","mf.ss","gamma","unif",50,"ssfOUT_30_1_2_VULTURE","VULTURE",2,1,30,"preference"
"ssfOUT_30_1_2_VULTURE.29",0.583933807664475,0.195070416058641,0.972797199270309,"ssf","mf.ss","gamma","unif",158,"ssfOUT_30_1_2_VULTURE","VULTURE",2,1,30,"preference"
"ssfOUT_30_1_2_VULTURE.30",0.541567052324901,0.153537031798915,0.929597072850887,"ssf","mf.ss","gamma","unif",500,"ssfOUT_30_1_2_VULTURE","VULTURE",2,1,30,"preference"
"ssfOUT_30_1_2_VULTURE.31",0.627653622534947,0.213982540478066,1.04132470459183,"ssf","mf.ss","exp","vonmises",5,"ssfOUT_30_1_2_VULTURE","VULTURE",2,1,30,"preference"
"ssfOUT_30_1_2_VULTURE.32",0.465387919145213,0.0646484471839469,0.86612739110648,"ssf","mf.ss","exp","vonmises",15,"ssfOUT_30_1_2_VULTURE","VULTURE",2,1,30,"preference"
"ssfOUT_30_1_2_VULTURE.33",0.471068109404021,0.0791844150812806,0.862951803726762,"ssf","mf.ss","exp","vonmises",50,"ssfOUT_30_1_2_VULTURE","VULTURE",2,1,30,"preference"
"ssfOUT_30_1_2_VULTURE.34",0.576419505671959,0.184467741656079,0.968371269687839,"ssf","mf.ss","exp","vonmises",158,"ssfOUT_30_1_2_VULTURE","VULTURE",2,1,30,"preference"
"ssfOUT_30_1_2_VULTURE.35",0.512777928014751,0.122119332647598,0.903436523381904,"ssf","mf.ss","exp","vonmises",500,"ssfOUT_30_1_2_VULTURE","VULTURE",2,1,30,"preference"
"ssfOUT_30_1_2_VULTURE.36",0.786499776934897,0.348938387212092,1.2240611666577,"ssf","mf.ss","exp","unif",5,"ssfOUT_30_1_2_VULTURE","VULTURE",2,1,30,"preference"
"ssfOUT_30_1_2_VULTURE.37",0.543957876574451,0.146501908172979,0.941413844975924,"ssf","mf.ss","exp","unif",15,"ssfOUT_30_1_2_VULTURE","VULTURE",2,1,30,"preference"
"ssfOUT_30_1_2_VULTURE.38",0.492762480205068,0.100181491987222,0.885343468422914,"ssf","mf.ss","exp","unif",50,"ssfOUT_30_1_2_VULTURE","VULTURE",2,1,30,"preference"
"ssfOUT_30_1_2_VULTURE.39",0.479883827840601,0.0884008548734891,0.871366800807712,"ssf","mf.ss","exp","unif",158,"ssfOUT_30_1_2_VULTURE","VULTURE",2,1,30,"preference"
"ssfOUT_30_1_2_VULTURE.40",0.52259356281373,0.132497984352664,0.912689141274797,"ssf","mf.ss","exp","unif",500,"ssfOUT_30_1_2_VULTURE","VULTURE",2,1,30,"preference"
"ssfOUT_30_1_2_KINGCOBRA.1",0.519564144709309,-0.0184060987807596,1.05753438819938,"ssf","mf.is","gamma","vonmises",5,"ssfOUT_30_1_2_KINGCOBRA","KINGCOBRA",2,1,30,"no effect"
"ssfOUT_30_1_2_KINGCOBRA.2",0.738256812374309,0.219880556682166,1.25663306806645,"ssf","mf.is","gamma","vonmises",15,"ssfOUT_30_1_2_KINGCOBRA","KINGCOBRA",2,1,30,"preference"
"ssfOUT_30_1_2_KINGCOBRA.3",0.74576991940547,0.224024925542649,1.26751491326829,"ssf","mf.is","gamma","vonmises",50,"ssfOUT_30_1_2_KINGCOBRA","KINGCOBRA",2,1,30,"preference"
"ssfOUT_30_1_2_KINGCOBRA.4",0.751631392343256,0.238638313960293,1.26462447072622,"ssf","mf.is","gamma","vonmises",158,"ssfOUT_30_1_2_KINGCOBRA","KINGCOBRA",2,1,30,"preference"
"ssfOUT_30_1_2_KINGCOBRA.5",0.812485301447153,0.298497309924547,1.32647329296976,"ssf","mf.is","gamma","vonmises",500,"ssfOUT_30_1_2_KINGCOBRA","KINGCOBRA",2,1,30,"preference"
"ssfOUT_30_1_2_KINGCOBRA.6",0.99395458927447,0.448306075275973,1.53960310327297,"ssf","mf.is","gamma","unif",5,"ssfOUT_30_1_2_KINGCOBRA","KINGCOBRA",2,1,30,"preference"
"ssfOUT_30_1_2_KINGCOBRA.7",0.82745329516757,0.311535961271459,1.34337062906368,"ssf","mf.is","gamma","unif",15,"ssfOUT_30_1_2_KINGCOBRA","KINGCOBRA",2,1,30,"preference"
"ssfOUT_30_1_2_KINGCOBRA.8",0.917171759888248,0.387472096313533,1.44687142346296,"ssf","mf.is","gamma","unif",50,"ssfOUT_30_1_2_KINGCOBRA","KINGCOBRA",2,1,30,"preference"
"ssfOUT_30_1_2_KINGCOBRA.9",0.801468252723301,0.286361502554456,1.31657500289215,"ssf","mf.is","gamma","unif",158,"ssfOUT_30_1_2_KINGCOBRA","KINGCOBRA",2,1,30,"preference"
"ssfOUT_30_1_2_KINGCOBRA.10",0.784145642888014,0.271627040749139,1.29666424502689,"ssf","mf.is","gamma","unif",500,"ssfOUT_30_1_2_KINGCOBRA","KINGCOBRA",2,1,30,"preference"
"ssfOUT_30_1_2_KINGCOBRA.11",1.23590751310567,0.69736610148514,1.7744489247262,"ssf","mf.is","exp","vonmises",5,"ssfOUT_30_1_2_KINGCOBRA","KINGCOBRA",2,1,30,"preference"
"ssfOUT_30_1_2_KINGCOBRA.12",0.830494977859082,0.299692489267288,1.36129746645088,"ssf","mf.is","exp","vonmises",15,"ssfOUT_30_1_2_KINGCOBRA","KINGCOBRA",2,1,30,"preference"
"ssfOUT_30_1_2_KINGCOBRA.13",0.587211688928733,0.0940376856223787,1.08038569223509,"ssf","mf.is","exp","vonmises",50,"ssfOUT_30_1_2_KINGCOBRA","KINGCOBRA",2,1,30,"preference"
"ssfOUT_30_1_2_KINGCOBRA.14",0.672193256760891,0.153260952132864,1.19112556138892,"ssf","mf.is","exp","vonmises",158,"ssfOUT_30_1_2_KINGCOBRA","KINGCOBRA",2,1,30,"preference"
"ssfOUT_30_1_2_KINGCOBRA.15",0.726181511466066,0.195826127030752,1.25653689590138,"ssf","mf.is","exp","vonmises",500,"ssfOUT_30_1_2_KINGCOBRA","KINGCOBRA",2,1,30,"preference"
"ssfOUT_30_1_2_KINGCOBRA.16",0.385538795578289,-0.13215130050672,0.903228891663298,"ssf","mf.is","exp","unif",5,"ssfOUT_30_1_2_KINGCOBRA","KINGCOBRA",2,1,30,"no effect"
"ssfOUT_30_1_2_KINGCOBRA.17",1.06581296658604,0.543713328057084,1.587912605115,"ssf","mf.is","exp","unif",15,"ssfOUT_30_1_2_KINGCOBRA","KINGCOBRA",2,1,30,"preference"
"ssfOUT_30_1_2_KINGCOBRA.18",0.897852345311014,0.392620248343378,1.40308444227865,"ssf","mf.is","exp","unif",50,"ssfOUT_30_1_2_KINGCOBRA","KINGCOBRA",2,1,30,"preference"
"ssfOUT_30_1_2_KINGCOBRA.19",0.713365360870897,0.206332506477225,1.22039821526457,"ssf","mf.is","exp","unif",158,"ssfOUT_30_1_2_KINGCOBRA","KINGCOBRA",2,1,30,"preference"
"ssfOUT_30_1_2_KINGCOBRA.20",0.780557169708649,0.246689732923799,1.3144246064935,"ssf","mf.is","exp","unif",500,"ssfOUT_30_1_2_KINGCOBRA","KINGCOBRA",2,1,30,"preference"
"ssfOUT_30_1_2_KINGCOBRA.21",0.52893937300169,-0.00420689836033594,1.06208564436372,"ssf","mf.ss","gamma","vonmises",5,"ssfOUT_30_1_2_KINGCOBRA","KINGCOBRA",2,1,30,"no effect"
"ssfOUT_30_1_2_KINGCOBRA.22",0.753106744807867,0.235540767169962,1.27067272244577,"ssf","mf.ss","gamma","vonmises",15,"ssfOUT_30_1_2_KINGCOBRA","KINGCOBRA",2,1,30,"preference"
"ssfOUT_30_1_2_KINGCOBRA.23",0.739304949218873,0.217098062458263,1.26151183597948,"ssf","mf.ss","gamma","vonmises",50,"ssfOUT_30_1_2_KINGCOBRA","KINGCOBRA",2,1,30,"preference"
"ssfOUT_30_1_2_KINGCOBRA.24",0.748453258145921,0.235257074650503,1.26164944164134,"ssf","mf.ss","gamma","vonmises",158,"ssfOUT_30_1_2_KINGCOBRA","KINGCOBRA",2,1,30,"preference"
"ssfOUT_30_1_2_KINGCOBRA.25",0.793248477336671,0.279162761893192,1.30733419278015,"ssf","mf.ss","gamma","vonmises",500,"ssfOUT_30_1_2_KINGCOBRA","KINGCOBRA",2,1,30,"preference"
"ssfOUT_30_1_2_KINGCOBRA.26",0.994763399996113,0.451649682549147,1.53787711744308,"ssf","mf.ss","gamma","unif",5,"ssfOUT_30_1_2_KINGCOBRA","KINGCOBRA",2,1,30,"preference"
"ssfOUT_30_1_2_KINGCOBRA.27",0.831173533158455,0.314040399125174,1.34830666719174,"ssf","mf.ss","gamma","unif",15,"ssfOUT_30_1_2_KINGCOBRA","KINGCOBRA",2,1,30,"preference"
"ssfOUT_30_1_2_KINGCOBRA.28",0.904251718224682,0.374231619297685,1.43427181715168,"ssf","mf.ss","gamma","unif",50,"ssfOUT_30_1_2_KINGCOBRA","KINGCOBRA",2,1,30,"preference"
"ssfOUT_30_1_2_KINGCOBRA.29",0.786917324162062,0.27132792409909,1.30250672422503,"ssf","mf.ss","gamma","unif",158,"ssfOUT_30_1_2_KINGCOBRA","KINGCOBRA",2,1,30,"preference"
"ssfOUT_30_1_2_KINGCOBRA.30",0.774394133468078,0.261241642716148,1.28754662422001,"ssf","mf.ss","gamma","unif",500,"ssfOUT_30_1_2_KINGCOBRA","KINGCOBRA",2,1,30,"preference"
"ssfOUT_30_1_2_KINGCOBRA.31",1.25328183817924,0.753340816294805,1.75322286006367,"ssf","mf.ss","exp","vonmises",5,"ssfOUT_30_1_2_KINGCOBRA","KINGCOBRA",2,1,30,"preference"
"ssfOUT_30_1_2_KINGCOBRA.32",0.972527994408598,0.467314026774721,1.47774196204248,"ssf","mf.ss","exp","vonmises",15,"ssfOUT_30_1_2_KINGCOBRA","KINGCOBRA",2,1,30,"preference"
"ssfOUT_30_1_2_KINGCOBRA.33",0.837706217613265,0.348899411605987,1.32651302362054,"ssf","mf.ss","exp","vonmises",50,"ssfOUT_30_1_2_KINGCOBRA","KINGCOBRA",2,1,30,"preference"
"ssfOUT_30_1_2_KINGCOBRA.34",0.830358757591471,0.343361559203864,1.31735595597908,"ssf","mf.ss","exp","vonmises",158,"ssfOUT_30_1_2_KINGCOBRA","KINGCOBRA",2,1,30,"preference"
"ssfOUT_30_1_2_KINGCOBRA.35",0.886337220319649,0.399533995111137,1.37314044552816,"ssf","mf.ss","exp","vonmises",500,"ssfOUT_30_1_2_KINGCOBRA","KINGCOBRA",2,1,30,"preference"
"ssfOUT_30_1_2_KINGCOBRA.36",0.931744249870118,0.419643657927875,1.44384484181236,"ssf","mf.ss","exp","unif",5,"ssfOUT_30_1_2_KINGCOBRA","KINGCOBRA",2,1,30,"preference"
"ssfOUT_30_1_2_KINGCOBRA.37",1.01970015254716,0.522219152263552,1.51718115283077,"ssf","mf.ss","exp","unif",15,"ssfOUT_30_1_2_KINGCOBRA","KINGCOBRA",2,1,30,"preference"
"ssfOUT_30_1_2_KINGCOBRA.38",0.891263404197669,0.396870369691356,1.38565643870398,"ssf","mf.ss","exp","unif",50,"ssfOUT_30_1_2_KINGCOBRA","KINGCOBRA",2,1,30,"preference"
"ssfOUT_30_1_2_KINGCOBRA.39",0.882846828182739,0.395487510517059,1.37020614584842,"ssf","mf.ss","exp","unif",158,"ssfOUT_30_1_2_KINGCOBRA","KINGCOBRA",2,1,30,"preference"
"ssfOUT_30_1_2_KINGCOBRA.40",0.886714590840713,0.397467653757599,1.37596152792383,"ssf","mf.ss","exp","unif",500,"ssfOUT_30_1_2_KINGCOBRA","KINGCOBRA",2,1,30,"preference"
"ssfOUT_30_1_3_BADGER.1",-0.0526299792667013,-0.378221261490413,0.27296130295701,"ssf","mf.is","gamma","vonmises",5,"ssfOUT_30_1_3_BADGER","BADGER",3,1,30,"no effect"
"ssfOUT_30_1_3_BADGER.2",-0.0242927146341532,-0.328611916724952,0.280026487456646,"ssf","mf.is","gamma","vonmises",15,"ssfOUT_30_1_3_BADGER","BADGER",3,1,30,"no effect"
"ssfOUT_30_1_3_BADGER.3",-0.0128910802211165,-0.306437200061642,0.280655039619409,"ssf","mf.is","gamma","vonmises",50,"ssfOUT_30_1_3_BADGER","BADGER",3,1,30,"no effect"
"ssfOUT_30_1_3_BADGER.4",-0.0102859637662627,-0.301432452416291,0.280860524883765,"ssf","mf.is","gamma","vonmises",158,"ssfOUT_30_1_3_BADGER","BADGER",3,1,30,"no effect"
"ssfOUT_30_1_3_BADGER.5",0.017649591591141,-0.274146186029386,0.309445369211668,"ssf","mf.is","gamma","vonmises",500,"ssfOUT_30_1_3_BADGER","BADGER",3,1,30,"no effect"
"ssfOUT_30_1_3_BADGER.6",0.129493583013774,-0.18616074759576,0.445147913623308,"ssf","mf.is","gamma","unif",5,"ssfOUT_30_1_3_BADGER","BADGER",3,1,30,"no effect"
"ssfOUT_30_1_3_BADGER.7",-0.012944083854009,-0.307438198452169,0.281550030744151,"ssf","mf.is","gamma","unif",15,"ssfOUT_30_1_3_BADGER","BADGER",3,1,30,"no effect"
"ssfOUT_30_1_3_BADGER.8",-0.0985559056671431,-0.393810675936184,0.196698864601898,"ssf","mf.is","gamma","unif",50,"ssfOUT_30_1_3_BADGER","BADGER",3,1,30,"no effect"
"ssfOUT_30_1_3_BADGER.9",-0.0139724557702831,-0.304985123167533,0.277040211626966,"ssf","mf.is","gamma","unif",158,"ssfOUT_30_1_3_BADGER","BADGER",3,1,30,"no effect"
"ssfOUT_30_1_3_BADGER.10",0.018893089045065,-0.271857958224765,0.309644136314895,"ssf","mf.is","gamma","unif",500,"ssfOUT_30_1_3_BADGER","BADGER",3,1,30,"no effect"
"ssfOUT_30_1_3_BADGER.11",0.197667301112563,-0.131347773136299,0.526682375361426,"ssf","mf.is","exp","vonmises",5,"ssfOUT_30_1_3_BADGER","BADGER",3,1,30,"no effect"
"ssfOUT_30_1_3_BADGER.12",-0.0138394139825193,-0.315350054821577,0.287671226856538,"ssf","mf.is","exp","vonmises",15,"ssfOUT_30_1_3_BADGER","BADGER",3,1,30,"no effect"
"ssfOUT_30_1_3_BADGER.13",0.0514054846935882,-0.241972607682596,0.344783577069772,"ssf","mf.is","exp","vonmises",50,"ssfOUT_30_1_3_BADGER","BADGER",3,1,30,"no effect"
"ssfOUT_30_1_3_BADGER.14",-0.00585134499904343,-0.296826154700443,0.285123464702357,"ssf","mf.is","exp","vonmises",158,"ssfOUT_30_1_3_BADGER","BADGER",3,1,30,"no effect"
"ssfOUT_30_1_3_BADGER.15",0.0342440362479331,-0.257992048899193,0.326480121395059,"ssf","mf.is","exp","vonmises",500,"ssfOUT_30_1_3_BADGER","BADGER",3,1,30,"no effect"
"ssfOUT_30_1_3_BADGER.16",-0.0321277801654188,-0.357526716263673,0.293271155932835,"ssf","mf.is","exp","unif",5,"ssfOUT_30_1_3_BADGER","BADGER",3,1,30,"no effect"
"ssfOUT_30_1_3_BADGER.17",0.0388969179303911,-0.26497441580601,0.342768251666792,"ssf","mf.is","exp","unif",15,"ssfOUT_30_1_3_BADGER","BADGER",3,1,30,"no effect"
"ssfOUT_30_1_3_BADGER.18",-0.00372871734499747,-0.29734271459904,0.289885279909046,"ssf","mf.is","exp","unif",50,"ssfOUT_30_1_3_BADGER","BADGER",3,1,30,"no effect"
"ssfOUT_30_1_3_BADGER.19",0.0692282156278073,-0.222892009011436,0.361348440267051,"ssf","mf.is","exp","unif",158,"ssfOUT_30_1_3_BADGER","BADGER",3,1,30,"no effect"
"ssfOUT_30_1_3_BADGER.20",-0.000202591386852439,-0.290310157450482,0.289904974676777,"ssf","mf.is","exp","unif",500,"ssfOUT_30_1_3_BADGER","BADGER",3,1,30,"no effect"
"ssfOUT_30_1_3_BADGER.21",-0.0686789023166161,-0.394773834990376,0.257416030357144,"ssf","mf.ss","gamma","vonmises",5,"ssfOUT_30_1_3_BADGER","BADGER",3,1,30,"no effect"
"ssfOUT_30_1_3_BADGER.22",-0.0269263646325383,-0.330974333524846,0.27712160425977,"ssf","mf.ss","gamma","vonmises",15,"ssfOUT_30_1_3_BADGER","BADGER",3,1,30,"no effect"
"ssfOUT_30_1_3_BADGER.23",-0.0153409300513052,-0.308849072018192,0.278167211915582,"ssf","mf.ss","gamma","vonmises",50,"ssfOUT_30_1_3_BADGER","BADGER",3,1,30,"no effect"
"ssfOUT_30_1_3_BADGER.24",-0.014478478202237,-0.30560916613884,0.276652209734366,"ssf","mf.ss","gamma","vonmises",158,"ssfOUT_30_1_3_BADGER","BADGER",3,1,30,"no effect"
"ssfOUT_30_1_3_BADGER.25",0.0141206495504612,-0.277645648776641,0.305886947877563,"ssf","mf.ss","gamma","vonmises",500,"ssfOUT_30_1_3_BADGER","BADGER",3,1,30,"no effect"
"ssfOUT_30_1_3_BADGER.26",0.130197206251053,-0.185807044476511,0.446201456978617,"ssf","mf.ss","gamma","unif",5,"ssfOUT_30_1_3_BADGER","BADGER",3,1,30,"no effect"
"ssfOUT_30_1_3_BADGER.27",-0.0286713702749666,-0.322765463594274,0.265422723044341,"ssf","mf.ss","gamma","unif",15,"ssfOUT_30_1_3_BADGER","BADGER",3,1,30,"no effect"
"ssfOUT_30_1_3_BADGER.28",-0.10669799101423,-0.401307926771107,0.187911944742647,"ssf","mf.ss","gamma","unif",50,"ssfOUT_30_1_3_BADGER","BADGER",3,1,30,"no effect"
"ssfOUT_30_1_3_BADGER.29",-0.0142850475795608,-0.304442485688306,0.275872390529184,"ssf","mf.ss","gamma","unif",158,"ssfOUT_30_1_3_BADGER","BADGER",3,1,30,"no effect"
"ssfOUT_30_1_3_BADGER.30",0.0150763210014273,-0.275342894414807,0.305495536417662,"ssf","mf.ss","gamma","unif",500,"ssfOUT_30_1_3_BADGER","BADGER",3,1,30,"no effect"
"ssfOUT_30_1_3_BADGER.31",0.192993877800604,-0.135331927481391,0.521319683082599,"ssf","mf.ss","exp","vonmises",5,"ssfOUT_30_1_3_BADGER","BADGER",3,1,30,"no effect"
"ssfOUT_30_1_3_BADGER.32",-0.020650171749909,-0.322074782844942,0.280774439345124,"ssf","mf.ss","exp","vonmises",15,"ssfOUT_30_1_3_BADGER","BADGER",3,1,30,"no effect"
"ssfOUT_30_1_3_BADGER.33",0.0443711853192674,-0.248744585194556,0.337486955833091,"ssf","mf.ss","exp","vonmises",50,"ssfOUT_30_1_3_BADGER","BADGER",3,1,30,"no effect"
"ssfOUT_30_1_3_BADGER.34",-0.0179042140443259,-0.308669196653009,0.272860768564357,"ssf","mf.ss","exp","vonmises",158,"ssfOUT_30_1_3_BADGER","BADGER",3,1,30,"no effect"
"ssfOUT_30_1_3_BADGER.35",0.024491958998993,-0.267374641027334,0.31635855902532,"ssf","mf.ss","exp","vonmises",500,"ssfOUT_30_1_3_BADGER","BADGER",3,1,30,"no effect"
"ssfOUT_30_1_3_BADGER.36",-0.0208630901149081,-0.344973084923258,0.303246904693442,"ssf","mf.ss","exp","unif",5,"ssfOUT_30_1_3_BADGER","BADGER",3,1,30,"no effect"
"ssfOUT_30_1_3_BADGER.37",0.027913842504215,-0.273980997441375,0.329808682449805,"ssf","mf.ss","exp","unif",15,"ssfOUT_30_1_3_BADGER","BADGER",3,1,30,"no effect"
"ssfOUT_30_1_3_BADGER.38",-0.0158103687092146,-0.308659425315024,0.277038687896595,"ssf","mf.ss","exp","unif",50,"ssfOUT_30_1_3_BADGER","BADGER",3,1,30,"no effect"
"ssfOUT_30_1_3_BADGER.39",0.0562049108581475,-0.235438062123305,0.3478478838396,"ssf","mf.ss","exp","unif",158,"ssfOUT_30_1_3_BADGER","BADGER",3,1,30,"no effect"
"ssfOUT_30_1_3_BADGER.40",-0.00535266355405573,-0.29451689100261,0.283811563894498,"ssf","mf.ss","exp","unif",500,"ssfOUT_30_1_3_BADGER","BADGER",3,1,30,"no effect"
"ssfOUT_30_1_3_VULTURE.1",0.307123401481767,-0.0986507392709447,0.712897542234479,"ssf","mf.is","gamma","vonmises",5,"ssfOUT_30_1_3_VULTURE","VULTURE",3,1,30,"no effect"
"ssfOUT_30_1_3_VULTURE.2",0.253563643105087,-0.135591828505394,0.642719114715567,"ssf","mf.is","gamma","vonmises",15,"ssfOUT_30_1_3_VULTURE","VULTURE",3,1,30,"no effect"
"ssfOUT_30_1_3_VULTURE.3",0.224397409254622,-0.156929905594806,0.60572472410405,"ssf","mf.is","gamma","vonmises",50,"ssfOUT_30_1_3_VULTURE","VULTURE",3,1,30,"no effect"
"ssfOUT_30_1_3_VULTURE.4",0.229313736164835,-0.148191136003138,0.606818608332808,"ssf","mf.is","gamma","vonmises",158,"ssfOUT_30_1_3_VULTURE","VULTURE",3,1,30,"no effect"
"ssfOUT_30_1_3_VULTURE.5",0.22985616821885,-0.147111001594103,0.606823338031804,"ssf","mf.is","gamma","vonmises",500,"ssfOUT_30_1_3_VULTURE","VULTURE",3,1,30,"no effect"
"ssfOUT_30_1_3_VULTURE.6",0.49479878918492,0.101540400563331,0.888057177806509,"ssf","mf.is","gamma","unif",5,"ssfOUT_30_1_3_VULTURE","VULTURE",3,1,30,"preference"
"ssfOUT_30_1_3_VULTURE.7",0.200136377003442,-0.186179423536733,0.586452177543618,"ssf","mf.is","gamma","unif",15,"ssfOUT_30_1_3_VULTURE","VULTURE",3,1,30,"no effect"
"ssfOUT_30_1_3_VULTURE.8",0.174421335235644,-0.205941506733238,0.554784177204525,"ssf","mf.is","gamma","unif",50,"ssfOUT_30_1_3_VULTURE","VULTURE",3,1,30,"no effect"
"ssfOUT_30_1_3_VULTURE.9",0.238027347544513,-0.139272935416316,0.615327630505343,"ssf","mf.is","gamma","unif",158,"ssfOUT_30_1_3_VULTURE","VULTURE",3,1,30,"no effect"
"ssfOUT_30_1_3_VULTURE.10",0.212338641735584,-0.163649196514717,0.588326479985886,"ssf","mf.is","gamma","unif",500,"ssfOUT_30_1_3_VULTURE","VULTURE",3,1,30,"no effect"
"ssfOUT_30_1_3_VULTURE.11",0.501218165081387,0.0771324492804862,0.925303880882288,"ssf","mf.is","exp","vonmises",5,"ssfOUT_30_1_3_VULTURE","VULTURE",3,1,30,"preference"
"ssfOUT_30_1_3_VULTURE.12",0.376861805882374,-0.0105706675270035,0.764294279291751,"ssf","mf.is","exp","vonmises",15,"ssfOUT_30_1_3_VULTURE","VULTURE",3,1,30,"no effect"
"ssfOUT_30_1_3_VULTURE.13",0.260096154319281,-0.120571177966587,0.640763486605148,"ssf","mf.is","exp","vonmises",50,"ssfOUT_30_1_3_VULTURE","VULTURE",3,1,30,"no effect"
"ssfOUT_30_1_3_VULTURE.14",0.186990468883644,-0.189452998122571,0.563433935889858,"ssf","mf.is","exp","vonmises",158,"ssfOUT_30_1_3_VULTURE","VULTURE",3,1,30,"no effect"
"ssfOUT_30_1_3_VULTURE.15",0.24982390147741,-0.126904174773114,0.626551977727933,"ssf","mf.is","exp","vonmises",500,"ssfOUT_30_1_3_VULTURE","VULTURE",3,1,30,"no effect"
"ssfOUT_30_1_3_VULTURE.16",0.326572384633543,-0.0832102753024174,0.736355044569503,"ssf","mf.is","exp","unif",5,"ssfOUT_30_1_3_VULTURE","VULTURE",3,1,30,"no effect"
"ssfOUT_30_1_3_VULTURE.17",0.0661231551139586,-0.328853746402224,0.461100056630141,"ssf","mf.is","exp","unif",15,"ssfOUT_30_1_3_VULTURE","VULTURE",3,1,30,"no effect"
"ssfOUT_30_1_3_VULTURE.18",0.095397800050877,-0.285796266857771,0.476591866959525,"ssf","mf.is","exp","unif",50,"ssfOUT_30_1_3_VULTURE","VULTURE",3,1,30,"no effect"
"ssfOUT_30_1_3_VULTURE.19",0.239533771847451,-0.140271644933891,0.619339188628792,"ssf","mf.is","exp","unif",158,"ssfOUT_30_1_3_VULTURE","VULTURE",3,1,30,"no effect"
"ssfOUT_30_1_3_VULTURE.20",0.210820306436485,-0.166092996513002,0.587733609385972,"ssf","mf.is","exp","unif",500,"ssfOUT_30_1_3_VULTURE","VULTURE",3,1,30,"no effect"
"ssfOUT_30_1_3_VULTURE.21",0.288305685521481,-0.118541680523174,0.695153051566135,"ssf","mf.ss","gamma","vonmises",5,"ssfOUT_30_1_3_VULTURE","VULTURE",3,1,30,"no effect"
"ssfOUT_30_1_3_VULTURE.22",0.248637152753523,-0.140714772132521,0.637989077639566,"ssf","mf.ss","gamma","vonmises",15,"ssfOUT_30_1_3_VULTURE","VULTURE",3,1,30,"no effect"
"ssfOUT_30_1_3_VULTURE.23",0.228949024568903,-0.152665620192261,0.610563669330066,"ssf","mf.ss","gamma","vonmises",50,"ssfOUT_30_1_3_VULTURE","VULTURE",3,1,30,"no effect"
"ssfOUT_30_1_3_VULTURE.24",0.230496712296648,-0.147148214503152,0.608141639096448,"ssf","mf.ss","gamma","vonmises",158,"ssfOUT_30_1_3_VULTURE","VULTURE",3,1,30,"no effect"
"ssfOUT_30_1_3_VULTURE.25",0.230385890703294,-0.146739529606966,0.607511311013554,"ssf","mf.ss","gamma","vonmises",500,"ssfOUT_30_1_3_VULTURE","VULTURE",3,1,30,"no effect"
"ssfOUT_30_1_3_VULTURE.26",0.513569336738297,0.120870892882911,0.906267780593684,"ssf","mf.ss","gamma","unif",5,"ssfOUT_30_1_3_VULTURE","VULTURE",3,1,30,"preference"
"ssfOUT_30_1_3_VULTURE.27",0.213529740896556,-0.172450265180307,0.599509746973419,"ssf","mf.ss","gamma","unif",15,"ssfOUT_30_1_3_VULTURE","VULTURE",3,1,30,"no effect"
"ssfOUT_30_1_3_VULTURE.28",0.183159748631346,-0.197250434567215,0.563569931829908,"ssf","mf.ss","gamma","unif",50,"ssfOUT_30_1_3_VULTURE","VULTURE",3,1,30,"no effect"
"ssfOUT_30_1_3_VULTURE.29",0.2430282066862,-0.13438779880035,0.62044421217275,"ssf","mf.ss","gamma","unif",158,"ssfOUT_30_1_3_VULTURE","VULTURE",3,1,30,"no effect"
"ssfOUT_30_1_3_VULTURE.30",0.216501928674223,-0.159579226169138,0.592583083517583,"ssf","mf.ss","gamma","unif",500,"ssfOUT_30_1_3_VULTURE","VULTURE",3,1,30,"no effect"
"ssfOUT_30_1_3_VULTURE.31",0.409800242144272,0.0028361386603859,0.816764345628157,"ssf","mf.ss","exp","vonmises",5,"ssfOUT_30_1_3_VULTURE","VULTURE",3,1,30,"preference"
"ssfOUT_30_1_3_VULTURE.32",0.287742790500265,-0.0953595864622876,0.670845167462817,"ssf","mf.ss","exp","vonmises",15,"ssfOUT_30_1_3_VULTURE","VULTURE",3,1,30,"no effect"
"ssfOUT_30_1_3_VULTURE.33",0.231285612201162,-0.148785337225347,0.611356561627671,"ssf","mf.ss","exp","vonmises",50,"ssfOUT_30_1_3_VULTURE","VULTURE",3,1,30,"no effect"
"ssfOUT_30_1_3_VULTURE.34",0.197445772125828,-0.179035140252502,0.573926684504159,"ssf","mf.ss","exp","vonmises",158,"ssfOUT_30_1_3_VULTURE","VULTURE",3,1,30,"no effect"
"ssfOUT_30_1_3_VULTURE.35",0.235962960004539,-0.141588154093936,0.613514074103014,"ssf","mf.ss","exp","vonmises",500,"ssfOUT_30_1_3_VULTURE","VULTURE",3,1,30,"no effect"
"ssfOUT_30_1_3_VULTURE.36",0.19433540984678,-0.206583948005911,0.595254767699471,"ssf","mf.ss","exp","unif",5,"ssfOUT_30_1_3_VULTURE","VULTURE",3,1,30,"no effect"
"ssfOUT_30_1_3_VULTURE.37",0.129675965775714,-0.264002717836106,0.523354649387533,"ssf","mf.ss","exp","unif",15,"ssfOUT_30_1_3_VULTURE","VULTURE",3,1,30,"no effect"
"ssfOUT_30_1_3_VULTURE.38",0.153551041852476,-0.227502385480384,0.534604469185336,"ssf","mf.ss","exp","unif",50,"ssfOUT_30_1_3_VULTURE","VULTURE",3,1,30,"no effect"
"ssfOUT_30_1_3_VULTURE.39",0.234041017442328,-0.145168323878489,0.613250358763146,"ssf","mf.ss","exp","unif",158,"ssfOUT_30_1_3_VULTURE","VULTURE",3,1,30,"no effect"
"ssfOUT_30_1_3_VULTURE.40",0.211746721743188,-0.165071498958037,0.588564942444413,"ssf","mf.ss","exp","unif",500,"ssfOUT_30_1_3_VULTURE","VULTURE",3,1,30,"no effect"
"ssfOUT_30_1_3_KINGCOBRA.1",15.4890419089049,-1315.02690199908,1346.00498581689,"ssf","mf.is","gamma","vonmises",5,"ssfOUT_30_1_3_KINGCOBRA","KINGCOBRA",3,1,30,"no effect"
"ssfOUT_30_1_3_KINGCOBRA.2",15.1331410398324,-1394.27825391486,1424.54453599453,"ssf","mf.is","gamma","vonmises",15,"ssfOUT_30_1_3_KINGCOBRA","KINGCOBRA",3,1,30,"no effect"
"ssfOUT_30_1_3_KINGCOBRA.3",14.6212437001724,-1181.79785348714,1211.04034088748,"ssf","mf.is","gamma","vonmises",50,"ssfOUT_30_1_3_KINGCOBRA","KINGCOBRA",3,1,30,"no effect"
"ssfOUT_30_1_3_KINGCOBRA.4",13.8168716164838,-714.103369352907,741.737112585874,"ssf","mf.is","gamma","vonmises",158,"ssfOUT_30_1_3_KINGCOBRA","KINGCOBRA",3,1,30,"no effect"
"ssfOUT_30_1_3_KINGCOBRA.5",13.8544487556787,-690.229114256401,717.938011767758,"ssf","mf.is","gamma","vonmises",500,"ssfOUT_30_1_3_KINGCOBRA","KINGCOBRA",3,1,30,"no effect"
"ssfOUT_30_1_3_KINGCOBRA.6",14.8186214345713,-1359.73480569091,1389.37204856005,"ssf","mf.is","gamma","unif",5,"ssfOUT_30_1_3_KINGCOBRA","KINGCOBRA",3,1,30,"no effect"
"ssfOUT_30_1_3_KINGCOBRA.7",14.5370858511629,-1241.96734979714,1271.04152149946,"ssf","mf.is","gamma","unif",15,"ssfOUT_30_1_3_KINGCOBRA","KINGCOBRA",3,1,30,"no effect"
"ssfOUT_30_1_3_KINGCOBRA.8",15.0224693243451,-1028.96439068002,1059.00932932871,"ssf","mf.is","gamma","unif",50,"ssfOUT_30_1_3_KINGCOBRA","KINGCOBRA",3,1,30,"no effect"
"ssfOUT_30_1_3_KINGCOBRA.9",13.8225006242422,-699.94698750648,727.591988754964,"ssf","mf.is","gamma","unif",158,"ssfOUT_30_1_3_KINGCOBRA","KINGCOBRA",3,1,30,"no effect"
"ssfOUT_30_1_3_KINGCOBRA.10",13.8359610654298,-678.09819827718,705.77012040804,"ssf","mf.is","gamma","unif",500,"ssfOUT_30_1_3_KINGCOBRA","KINGCOBRA",3,1,30,"no effect"
"ssfOUT_30_1_3_KINGCOBRA.11",15.6323392773628,-2060.03159315838,2091.29627171311,"ssf","mf.is","exp","vonmises",5,"ssfOUT_30_1_3_KINGCOBRA","KINGCOBRA",3,1,30,"no effect"
"ssfOUT_30_1_3_KINGCOBRA.12",15.0409571410848,-1536.80091167023,1566.8828259524,"ssf","mf.is","exp","vonmises",15,"ssfOUT_30_1_3_KINGCOBRA","KINGCOBRA",3,1,30,"no effect"
"ssfOUT_30_1_3_KINGCOBRA.13",14.3797444441488,-1108.80053023658,1137.56001912488,"ssf","mf.is","exp","vonmises",50,"ssfOUT_30_1_3_KINGCOBRA","KINGCOBRA",3,1,30,"no effect"
"ssfOUT_30_1_3_KINGCOBRA.14",13.9510490046677,-856.440540610618,884.342638619953,"ssf","mf.is","exp","vonmises",158,"ssfOUT_30_1_3_KINGCOBRA","KINGCOBRA",3,1,30,"no effect"
"ssfOUT_30_1_3_KINGCOBRA.15",13.6346802369299,-733.277070671632,760.546431145492,"ssf","mf.is","exp","vonmises",500,"ssfOUT_30_1_3_KINGCOBRA","KINGCOBRA",3,1,30,"no effect"
"ssfOUT_30_1_3_KINGCOBRA.16",15.0265294457767,-1666.79613488449,1696.84919377605,"ssf","mf.is","exp","unif",5,"ssfOUT_30_1_3_KINGCOBRA","KINGCOBRA",3,1,30,"no effect"
"ssfOUT_30_1_3_KINGCOBRA.17",15.935688202318,-1572.77124978067,1604.64262618531,"ssf","mf.is","exp","unif",15,"ssfOUT_30_1_3_KINGCOBRA","KINGCOBRA",3,1,30,"no effect"
"ssfOUT_30_1_3_KINGCOBRA.18",15.6174060464468,-1244.99254272315,1276.22735481604,"ssf","mf.is","exp","unif",50,"ssfOUT_30_1_3_KINGCOBRA","KINGCOBRA",3,1,30,"no effect"
"ssfOUT_30_1_3_KINGCOBRA.19",14.034191696525,-853.314215982319,881.382599375369,"ssf","mf.is","exp","unif",158,"ssfOUT_30_1_3_KINGCOBRA","KINGCOBRA",3,1,30,"no effect"
"ssfOUT_30_1_3_KINGCOBRA.20",13.4803821904406,-701.54911802495,728.509882405831,"ssf","mf.is","exp","unif",500,"ssfOUT_30_1_3_KINGCOBRA","KINGCOBRA",3,1,30,"no effect"
"ssfOUT_30_1_3_KINGCOBRA.21",15.1755050518951,-1329.53848660485,1359.88949670864,"ssf","mf.ss","gamma","vonmises",5,"ssfOUT_30_1_3_KINGCOBRA","KINGCOBRA",3,1,30,"no effect"
"ssfOUT_30_1_3_KINGCOBRA.22",15.0209536320264,-1365.55693257958,1395.59883984363,"ssf","mf.ss","gamma","vonmises",15,"ssfOUT_30_1_3_KINGCOBRA","KINGCOBRA",3,1,30,"no effect"
"ssfOUT_30_1_3_KINGCOBRA.23",14.4798056543917,-1176.03220574771,1204.99181705649,"ssf","mf.ss","gamma","vonmises",50,"ssfOUT_30_1_3_KINGCOBRA","KINGCOBRA",3,1,30,"no effect"
"ssfOUT_30_1_3_KINGCOBRA.24",13.6481560183667,-713.988468402207,741.28478043894,"ssf","mf.ss","gamma","vonmises",158,"ssfOUT_30_1_3_KINGCOBRA","KINGCOBRA",3,1,30,"no effect"
"ssfOUT_30_1_3_KINGCOBRA.25",13.6965860471893,-689.065925094212,716.459097188591,"ssf","mf.ss","gamma","vonmises",500,"ssfOUT_30_1_3_KINGCOBRA","KINGCOBRA",3,1,30,"no effect"
"ssfOUT_30_1_3_KINGCOBRA.26",14.6688746682632,-1395.47800775846,1424.81575709499,"ssf","mf.ss","gamma","unif",5,"ssfOUT_30_1_3_KINGCOBRA","KINGCOBRA",3,1,30,"no effect"
"ssfOUT_30_1_3_KINGCOBRA.27",14.4468282257691,-1231.09300525175,1259.98666170329,"ssf","mf.ss","gamma","unif",15,"ssfOUT_30_1_3_KINGCOBRA","KINGCOBRA",3,1,30,"no effect"
"ssfOUT_30_1_3_KINGCOBRA.28",14.9037660012435,-1024.01020428165,1053.81773628414,"ssf","mf.ss","gamma","unif",50,"ssfOUT_30_1_3_KINGCOBRA","KINGCOBRA",3,1,30,"no effect"
"ssfOUT_30_1_3_KINGCOBRA.29",13.7163965821569,-694.887714512534,722.320507676848,"ssf","mf.ss","gamma","unif",158,"ssfOUT_30_1_3_KINGCOBRA","KINGCOBRA",3,1,30,"no effect"
"ssfOUT_30_1_3_KINGCOBRA.30",13.727338627178,-674.095683615781,701.550360870138,"ssf","mf.ss","gamma","unif",500,"ssfOUT_30_1_3_KINGCOBRA","KINGCOBRA",3,1,30,"no effect"
"ssfOUT_30_1_3_KINGCOBRA.31",14.8042027849748,-1284.18513796328,1313.79354353323,"ssf","mf.ss","exp","vonmises",5,"ssfOUT_30_1_3_KINGCOBRA","KINGCOBRA",3,1,30,"no effect"
"ssfOUT_30_1_3_KINGCOBRA.32",14.6634147897504,-1140.68759121441,1170.01442079391,"ssf","mf.ss","exp","vonmises",15,"ssfOUT_30_1_3_KINGCOBRA","KINGCOBRA",3,1,30,"no effect"
"ssfOUT_30_1_3_KINGCOBRA.33",14.7415165791134,-1160.53205986124,1190.01509301947,"ssf","mf.ss","exp","vonmises",50,"ssfOUT_30_1_3_KINGCOBRA","KINGCOBRA",3,1,30,"no effect"
"ssfOUT_30_1_3_KINGCOBRA.34",14.8399328487949,-1113.39353259296,1143.07339829055,"ssf","mf.ss","exp","vonmises",158,"ssfOUT_30_1_3_KINGCOBRA","KINGCOBRA",3,1,30,"no effect"
"ssfOUT_30_1_3_KINGCOBRA.35",13.8885772829381,-640.031841978206,667.808996544082,"ssf","mf.ss","exp","vonmises",500,"ssfOUT_30_1_3_KINGCOBRA","KINGCOBRA",3,1,30,"no effect"
"ssfOUT_30_1_3_KINGCOBRA.36",14.9421380953766,-1681.60713578547,1711.49141197622,"ssf","mf.ss","exp","unif",5,"ssfOUT_30_1_3_KINGCOBRA","KINGCOBRA",3,1,30,"no effect"
"ssfOUT_30_1_3_KINGCOBRA.37",15.4809851838945,-1017.28639659902,1048.24836696681,"ssf","mf.ss","exp","unif",15,"ssfOUT_30_1_3_KINGCOBRA","KINGCOBRA",3,1,30,"no effect"
"ssfOUT_30_1_3_KINGCOBRA.38",14.9063395887161,-1090.67468624397,1120.4873654214,"ssf","mf.ss","exp","unif",50,"ssfOUT_30_1_3_KINGCOBRA","KINGCOBRA",3,1,30,"no effect"
"ssfOUT_30_1_3_KINGCOBRA.39",14.9503284179849,-1081.5065919433,1111.40724877927,"ssf","mf.ss","exp","unif",158,"ssfOUT_30_1_3_KINGCOBRA","KINGCOBRA",3,1,30,"no effect"
"ssfOUT_30_1_3_KINGCOBRA.40",13.8792639344834,-637.033724556365,664.792252425331,"ssf","mf.ss","exp","unif",500,"ssfOUT_30_1_3_KINGCOBRA","KINGCOBRA",3,1,30,"no effect"
"ssfOUT_30_1_4_BADGER.1",1.46667253843759,0.985201517131077,1.94814355974411,"ssf","mf.is","gamma","vonmises",5,"ssfOUT_30_1_4_BADGER","BADGER",4,1,30,"preference"
"ssfOUT_30_1_4_BADGER.2",1.07571553404497,0.608280561218522,1.54315050687142,"ssf","mf.is","gamma","vonmises",15,"ssfOUT_30_1_4_BADGER","BADGER",4,1,30,"preference"
"ssfOUT_30_1_4_BADGER.3",1.15268431760652,0.68643390445216,1.61893473076087,"ssf","mf.is","gamma","vonmises",50,"ssfOUT_30_1_4_BADGER","BADGER",4,1,30,"preference"
"ssfOUT_30_1_4_BADGER.4",1.15657301792124,0.693150307475072,1.61999572836741,"ssf","mf.is","gamma","vonmises",158,"ssfOUT_30_1_4_BADGER","BADGER",4,1,30,"preference"
"ssfOUT_30_1_4_BADGER.5",1.16341780009672,0.698121079804617,1.62871452038882,"ssf","mf.is","gamma","vonmises",500,"ssfOUT_30_1_4_BADGER","BADGER",4,1,30,"preference"
"ssfOUT_30_1_4_BADGER.6",1.26683058195585,0.774210923874536,1.75945024003716,"ssf","mf.is","gamma","unif",5,"ssfOUT_30_1_4_BADGER","BADGER",4,1,30,"preference"
"ssfOUT_30_1_4_BADGER.7",1.31168248070399,0.843271269720125,1.78009369168785,"ssf","mf.is","gamma","unif",15,"ssfOUT_30_1_4_BADGER","BADGER",4,1,30,"preference"
"ssfOUT_30_1_4_BADGER.8",1.1074909724362,0.642595152467423,1.57238679240498,"ssf","mf.is","gamma","unif",50,"ssfOUT_30_1_4_BADGER","BADGER",4,1,30,"preference"
"ssfOUT_30_1_4_BADGER.9",1.20306387390367,0.737500415687586,1.66862733211976,"ssf","mf.is","gamma","unif",158,"ssfOUT_30_1_4_BADGER","BADGER",4,1,30,"preference"
"ssfOUT_30_1_4_BADGER.10",1.18586683354543,0.721012886271606,1.65072078081926,"ssf","mf.is","gamma","unif",500,"ssfOUT_30_1_4_BADGER","BADGER",4,1,30,"preference"
"ssfOUT_30_1_4_BADGER.11",1.02566951009966,0.534670209552474,1.51666881064684,"ssf","mf.is","exp","vonmises",5,"ssfOUT_30_1_4_BADGER","BADGER",4,1,30,"preference"
"ssfOUT_30_1_4_BADGER.12",1.27702516886607,0.807657217301302,1.74639312043084,"ssf","mf.is","exp","vonmises",15,"ssfOUT_30_1_4_BADGER","BADGER",4,1,30,"preference"
"ssfOUT_30_1_4_BADGER.13",1.30500717969246,0.836955626165491,1.77305873321944,"ssf","mf.is","exp","vonmises",50,"ssfOUT_30_1_4_BADGER","BADGER",4,1,30,"preference"
"ssfOUT_30_1_4_BADGER.14",1.18484786499688,0.720233081603866,1.6494626483899,"ssf","mf.is","exp","vonmises",158,"ssfOUT_30_1_4_BADGER","BADGER",4,1,30,"preference"
"ssfOUT_30_1_4_BADGER.15",1.17443027449528,0.709870611781406,1.63898993720916,"ssf","mf.is","exp","vonmises",500,"ssfOUT_30_1_4_BADGER","BADGER",4,1,30,"preference"
"ssfOUT_30_1_4_BADGER.16",1.34092457711461,0.855217021008242,1.82663213322099,"ssf","mf.is","exp","unif",5,"ssfOUT_30_1_4_BADGER","BADGER",4,1,30,"preference"
"ssfOUT_30_1_4_BADGER.17",1.23238791616539,0.759042384172849,1.70573344815794,"ssf","mf.is","exp","unif",15,"ssfOUT_30_1_4_BADGER","BADGER",4,1,30,"preference"
"ssfOUT_30_1_4_BADGER.18",1.1700643258172,0.70137856820551,1.63875008342889,"ssf","mf.is","exp","unif",50,"ssfOUT_30_1_4_BADGER","BADGER",4,1,30,"preference"
"ssfOUT_30_1_4_BADGER.19",1.14745168916904,0.682301389149554,1.61260198918852,"ssf","mf.is","exp","unif",158,"ssfOUT_30_1_4_BADGER","BADGER",4,1,30,"preference"
"ssfOUT_30_1_4_BADGER.20",1.18368682383864,0.718772563243345,1.64860108443393,"ssf","mf.is","exp","unif",500,"ssfOUT_30_1_4_BADGER","BADGER",4,1,30,"preference"
"ssfOUT_30_1_4_BADGER.21",1.4469588947063,0.964324742522582,1.92959304689002,"ssf","mf.ss","gamma","vonmises",5,"ssfOUT_30_1_4_BADGER","BADGER",4,1,30,"preference"
"ssfOUT_30_1_4_BADGER.22",1.04244733957472,0.574776374818023,1.51011830433141,"ssf","mf.ss","gamma","vonmises",15,"ssfOUT_30_1_4_BADGER","BADGER",4,1,30,"preference"
"ssfOUT_30_1_4_BADGER.23",1.13734213724543,0.670295162084149,1.60438911240672,"ssf","mf.ss","gamma","vonmises",50,"ssfOUT_30_1_4_BADGER","BADGER",4,1,30,"preference"
"ssfOUT_30_1_4_BADGER.24",1.13854023493004,0.674573952281754,1.60250651757833,"ssf","mf.ss","gamma","vonmises",158,"ssfOUT_30_1_4_BADGER","BADGER",4,1,30,"preference"
"ssfOUT_30_1_4_BADGER.25",1.14598176123806,0.679840231028061,1.61212329144806,"ssf","mf.ss","gamma","vonmises",500,"ssfOUT_30_1_4_BADGER","BADGER",4,1,30,"preference"
"ssfOUT_30_1_4_BADGER.26",1.22802417104387,0.735532770795994,1.72051557129174,"ssf","mf.ss","gamma","unif",5,"ssfOUT_30_1_4_BADGER","BADGER",4,1,30,"preference"
"ssfOUT_30_1_4_BADGER.27",1.28676507480072,0.817337976070043,1.75619217353139,"ssf","mf.ss","gamma","unif",15,"ssfOUT_30_1_4_BADGER","BADGER",4,1,30,"preference"
"ssfOUT_30_1_4_BADGER.28",1.08860481186754,0.623207268384048,1.55400235535103,"ssf","mf.ss","gamma","unif",50,"ssfOUT_30_1_4_BADGER","BADGER",4,1,30,"preference"
"ssfOUT_30_1_4_BADGER.29",1.18967078126951,0.723386061381789,1.65595550115723,"ssf","mf.ss","gamma","unif",158,"ssfOUT_30_1_4_BADGER","BADGER",4,1,30,"preference"
"ssfOUT_30_1_4_BADGER.30",1.17531687522021,0.709717206883188,1.64091654355722,"ssf","mf.ss","gamma","unif",500,"ssfOUT_30_1_4_BADGER","BADGER",4,1,30,"preference"
"ssfOUT_30_1_4_BADGER.31",1.00915975067763,0.519962463698422,1.49835703765684,"ssf","mf.ss","exp","vonmises",5,"ssfOUT_30_1_4_BADGER","BADGER",4,1,30,"preference"
"ssfOUT_30_1_4_BADGER.32",1.31771429481939,0.848256021256677,1.7871725683821,"ssf","mf.ss","exp","vonmises",15,"ssfOUT_30_1_4_BADGER","BADGER",4,1,30,"preference"
"ssfOUT_30_1_4_BADGER.33",1.29398153699141,0.826137459248216,1.76182561473461,"ssf","mf.ss","exp","vonmises",50,"ssfOUT_30_1_4_BADGER","BADGER",4,1,30,"preference"
"ssfOUT_30_1_4_BADGER.34",1.20315301096273,0.738440793802273,1.66786522812319,"ssf","mf.ss","exp","vonmises",158,"ssfOUT_30_1_4_BADGER","BADGER",4,1,30,"preference"
"ssfOUT_30_1_4_BADGER.35",1.18475467001295,0.720923280755838,1.64858605927006,"ssf","mf.ss","exp","vonmises",500,"ssfOUT_30_1_4_BADGER","BADGER",4,1,30,"preference"
"ssfOUT_30_1_4_BADGER.36",1.32466815882584,0.842588610745108,1.80674770690657,"ssf","mf.ss","exp","unif",5,"ssfOUT_30_1_4_BADGER","BADGER",4,1,30,"preference"
"ssfOUT_30_1_4_BADGER.37",1.22113965214249,0.749028446115287,1.69325085816969,"ssf","mf.ss","exp","unif",15,"ssfOUT_30_1_4_BADGER","BADGER",4,1,30,"preference"
"ssfOUT_30_1_4_BADGER.38",1.19794881788272,0.730641204495272,1.66525643127016,"ssf","mf.ss","exp","unif",50,"ssfOUT_30_1_4_BADGER","BADGER",4,1,30,"preference"
"ssfOUT_30_1_4_BADGER.39",1.16894666322413,0.704223614528915,1.63366971191935,"ssf","mf.ss","exp","unif",158,"ssfOUT_30_1_4_BADGER","BADGER",4,1,30,"preference"
"ssfOUT_30_1_4_BADGER.40",1.20259103340219,0.738306524823534,1.66687554198084,"ssf","mf.ss","exp","unif",500,"ssfOUT_30_1_4_BADGER","BADGER",4,1,30,"preference"
"ssfOUT_30_1_4_VULTURE.1",0.360881183879302,0.0274415066687854,0.694320861089819,"ssf","mf.is","gamma","vonmises",5,"ssfOUT_30_1_4_VULTURE","VULTURE",4,1,30,"preference"
"ssfOUT_30_1_4_VULTURE.2",0.322038138489513,-0.000301904227712591,0.644378181206738,"ssf","mf.is","gamma","vonmises",15,"ssfOUT_30_1_4_VULTURE","VULTURE",4,1,30,"no effect"
"ssfOUT_30_1_4_VULTURE.3",0.261756001863647,-0.0554330196917971,0.578945023419091,"ssf","mf.is","gamma","vonmises",50,"ssfOUT_30_1_4_VULTURE","VULTURE",4,1,30,"no effect"
"ssfOUT_30_1_4_VULTURE.4",0.259964760425841,-0.0551380996820024,0.575067620533684,"ssf","mf.is","gamma","vonmises",158,"ssfOUT_30_1_4_VULTURE","VULTURE",4,1,30,"no effect"
"ssfOUT_30_1_4_VULTURE.5",0.254401456371489,-0.0607772182187347,0.569580130961713,"ssf","mf.is","gamma","vonmises",500,"ssfOUT_30_1_4_VULTURE","VULTURE",4,1,30,"no effect"
"ssfOUT_30_1_4_VULTURE.6",0.49436776805469,0.159463215744571,0.829272320364809,"ssf","mf.is","gamma","unif",5,"ssfOUT_30_1_4_VULTURE","VULTURE",4,1,30,"preference"
"ssfOUT_30_1_4_VULTURE.7",0.296311740028029,-0.0257750003999498,0.618398480456008,"ssf","mf.is","gamma","unif",15,"ssfOUT_30_1_4_VULTURE","VULTURE",4,1,30,"no effect"
"ssfOUT_30_1_4_VULTURE.8",0.348045016263855,0.0296710531541242,0.666418979373586,"ssf","mf.is","gamma","unif",50,"ssfOUT_30_1_4_VULTURE","VULTURE",4,1,30,"preference"
"ssfOUT_30_1_4_VULTURE.9",0.240040345262864,-0.0756718860597148,0.555752576585442,"ssf","mf.is","gamma","unif",158,"ssfOUT_30_1_4_VULTURE","VULTURE",4,1,30,"no effect"
"ssfOUT_30_1_4_VULTURE.10",0.243672455661145,-0.0713233722572551,0.558668283579545,"ssf","mf.is","gamma","unif",500,"ssfOUT_30_1_4_VULTURE","VULTURE",4,1,30,"no effect"
"ssfOUT_30_1_4_VULTURE.11",0.401950163058982,0.0605281730851229,0.74337215303284,"ssf","mf.is","exp","vonmises",5,"ssfOUT_30_1_4_VULTURE","VULTURE",4,1,30,"preference"
"ssfOUT_30_1_4_VULTURE.12",0.309355936024622,-0.0212217999046884,0.639933671953932,"ssf","mf.is","exp","vonmises",15,"ssfOUT_30_1_4_VULTURE","VULTURE",4,1,30,"no effect"
"ssfOUT_30_1_4_VULTURE.13",0.295911350444606,-0.022804231028742,0.614626931917955,"ssf","mf.is","exp","vonmises",50,"ssfOUT_30_1_4_VULTURE","VULTURE",4,1,30,"no effect"
"ssfOUT_30_1_4_VULTURE.14",0.204710050628177,-0.11100966015426,0.520429761410613,"ssf","mf.is","exp","vonmises",158,"ssfOUT_30_1_4_VULTURE","VULTURE",4,1,30,"no effect"
"ssfOUT_30_1_4_VULTURE.15",0.267027820360836,-0.048098583339691,0.582154224061363,"ssf","mf.is","exp","vonmises",500,"ssfOUT_30_1_4_VULTURE","VULTURE",4,1,30,"no effect"
"ssfOUT_30_1_4_VULTURE.16",0.423045872028264,0.0725553091323624,0.773536434924165,"ssf","mf.is","exp","unif",5,"ssfOUT_30_1_4_VULTURE","VULTURE",4,1,30,"preference"
"ssfOUT_30_1_4_VULTURE.17",0.0238231484120467,-0.30360929781939,0.351255594643484,"ssf","mf.is","exp","unif",15,"ssfOUT_30_1_4_VULTURE","VULTURE",4,1,30,"no effect"
"ssfOUT_30_1_4_VULTURE.18",0.372475054434503,0.0535850170817812,0.691365091787224,"ssf","mf.is","exp","unif",50,"ssfOUT_30_1_4_VULTURE","VULTURE",4,1,30,"preference"
"ssfOUT_30_1_4_VULTURE.19",0.231638966067494,-0.084183420386173,0.547461352521162,"ssf","mf.is","exp","unif",158,"ssfOUT_30_1_4_VULTURE","VULTURE",4,1,30,"no effect"
"ssfOUT_30_1_4_VULTURE.20",0.266118359905605,-0.0486085024399475,0.580845222251157,"ssf","mf.is","exp","unif",500,"ssfOUT_30_1_4_VULTURE","VULTURE",4,1,30,"no effect"
"ssfOUT_30_1_4_VULTURE.21",0.340837085898987,0.00765762613378368,0.67401654566419,"ssf","mf.ss","gamma","vonmises",5,"ssfOUT_30_1_4_VULTURE","VULTURE",4,1,30,"preference"
"ssfOUT_30_1_4_VULTURE.22",0.323031027625846,0.00101887050507177,0.64504318474662,"ssf","mf.ss","gamma","vonmises",15,"ssfOUT_30_1_4_VULTURE","VULTURE",4,1,30,"preference"
"ssfOUT_30_1_4_VULTURE.23",0.260796165802763,-0.0563462621623582,0.577938593767883,"ssf","mf.ss","gamma","vonmises",50,"ssfOUT_30_1_4_VULTURE","VULTURE",4,1,30,"no effect"
"ssfOUT_30_1_4_VULTURE.24",0.259085840540994,-0.0559362540775957,0.574107935159584,"ssf","mf.ss","gamma","vonmises",158,"ssfOUT_30_1_4_VULTURE","VULTURE",4,1,30,"no effect"
"ssfOUT_30_1_4_VULTURE.25",0.252713742167508,-0.0623839260167908,0.567811410351807,"ssf","mf.ss","gamma","vonmises",500,"ssfOUT_30_1_4_VULTURE","VULTURE",4,1,30,"no effect"
"ssfOUT_30_1_4_VULTURE.26",0.488691654592255,0.154847585555434,0.822535723629077,"ssf","mf.ss","gamma","unif",5,"ssfOUT_30_1_4_VULTURE","VULTURE",4,1,30,"preference"
"ssfOUT_30_1_4_VULTURE.27",0.306393899927571,-0.0148219466618075,0.62760974651695,"ssf","mf.ss","gamma","unif",15,"ssfOUT_30_1_4_VULTURE","VULTURE",4,1,30,"no effect"
"ssfOUT_30_1_4_VULTURE.28",0.3666275404982,0.0486928084958629,0.684562272500538,"ssf","mf.ss","gamma","unif",50,"ssfOUT_30_1_4_VULTURE","VULTURE",4,1,30,"preference"
"ssfOUT_30_1_4_VULTURE.29",0.261482728188762,-0.0540213847830249,0.576986841160548,"ssf","mf.ss","gamma","unif",158,"ssfOUT_30_1_4_VULTURE","VULTURE",4,1,30,"no effect"
"ssfOUT_30_1_4_VULTURE.30",0.267937658431515,-0.0468017785140751,0.582677095377105,"ssf","mf.ss","gamma","unif",500,"ssfOUT_30_1_4_VULTURE","VULTURE",4,1,30,"no effect"
"ssfOUT_30_1_4_VULTURE.31",0.387160466971411,0.0520270858414458,0.722293848101376,"ssf","mf.ss","exp","vonmises",5,"ssfOUT_30_1_4_VULTURE","VULTURE",4,1,30,"preference"
"ssfOUT_30_1_4_VULTURE.32",0.380146884110598,0.0507955628140444,0.709498205407151,"ssf","mf.ss","exp","vonmises",15,"ssfOUT_30_1_4_VULTURE","VULTURE",4,1,30,"preference"
"ssfOUT_30_1_4_VULTURE.33",0.343101683450609,0.0226952341925031,0.663508132708716,"ssf","mf.ss","exp","vonmises",50,"ssfOUT_30_1_4_VULTURE","VULTURE",4,1,30,"preference"
"ssfOUT_30_1_4_VULTURE.34",0.25033657293118,-0.0670121064635745,0.567685252325935,"ssf","mf.ss","exp","vonmises",158,"ssfOUT_30_1_4_VULTURE","VULTURE",4,1,30,"no effect"
"ssfOUT_30_1_4_VULTURE.35",0.316233815904956,-0.000269296609391068,0.632736928419302,"ssf","mf.ss","exp","vonmises",500,"ssfOUT_30_1_4_VULTURE","VULTURE",4,1,30,"no effect"
"ssfOUT_30_1_4_VULTURE.36",0.352318858125258,0.0137761099941486,0.690861606256367,"ssf","mf.ss","exp","unif",5,"ssfOUT_30_1_4_VULTURE","VULTURE",4,1,30,"preference"
"ssfOUT_30_1_4_VULTURE.37",0.194172531877854,-0.13028269873313,0.518627762488838,"ssf","mf.ss","exp","unif",15,"ssfOUT_30_1_4_VULTURE","VULTURE",4,1,30,"no effect"
"ssfOUT_30_1_4_VULTURE.38",0.407721823309528,0.0880142756132549,0.727429371005802,"ssf","mf.ss","exp","unif",50,"ssfOUT_30_1_4_VULTURE","VULTURE",4,1,30,"preference"
"ssfOUT_30_1_4_VULTURE.39",0.325906726535052,0.00845576056797054,0.643357692502133,"ssf","mf.ss","exp","unif",158,"ssfOUT_30_1_4_VULTURE","VULTURE",4,1,30,"preference"
"ssfOUT_30_1_4_VULTURE.40",0.324347075861202,0.00814563007860897,0.640548521643795,"ssf","mf.ss","exp","unif",500,"ssfOUT_30_1_4_VULTURE","VULTURE",4,1,30,"preference"
"ssfOUT_30_1_4_KINGCOBRA.1",0.586957494714718,-0.0575386281548381,1.23145361758427,"ssf","mf.is","gamma","vonmises",5,"ssfOUT_30_1_4_KINGCOBRA","KINGCOBRA",4,1,30,"no effect"
"ssfOUT_30_1_4_KINGCOBRA.2",0.796780395700391,0.168391796996416,1.42516899440437,"ssf","mf.is","gamma","vonmises",15,"ssfOUT_30_1_4_KINGCOBRA","KINGCOBRA",4,1,30,"preference"
"ssfOUT_30_1_4_KINGCOBRA.3",0.745425161515631,0.12634983651731,1.36450048651395,"ssf","mf.is","gamma","vonmises",50,"ssfOUT_30_1_4_KINGCOBRA","KINGCOBRA",4,1,30,"preference"
"ssfOUT_30_1_4_KINGCOBRA.4",0.76374984570357,0.156127275964856,1.37137241544228,"ssf","mf.is","gamma","vonmises",158,"ssfOUT_30_1_4_KINGCOBRA","KINGCOBRA",4,1,30,"preference"
"ssfOUT_30_1_4_KINGCOBRA.5",0.672303326798192,0.0687123112055902,1.27589434239079,"ssf","mf.is","gamma","vonmises",500,"ssfOUT_30_1_4_KINGCOBRA","KINGCOBRA",4,1,30,"preference"
"ssfOUT_30_1_4_KINGCOBRA.6",0.714943980443813,0.0864655728819728,1.34342238800565,"ssf","mf.is","gamma","unif",5,"ssfOUT_30_1_4_KINGCOBRA","KINGCOBRA",4,1,30,"preference"
"ssfOUT_30_1_4_KINGCOBRA.7",0.471976265372239,-0.133879811904472,1.07783234264895,"ssf","mf.is","gamma","unif",15,"ssfOUT_30_1_4_KINGCOBRA","KINGCOBRA",4,1,30,"no effect"
"ssfOUT_30_1_4_KINGCOBRA.8",0.704438625648484,0.103183133494593,1.30569411780238,"ssf","mf.is","gamma","unif",50,"ssfOUT_30_1_4_KINGCOBRA","KINGCOBRA",4,1,30,"preference"
"ssfOUT_30_1_4_KINGCOBRA.9",0.694602563835037,0.0885310183432338,1.30067410932684,"ssf","mf.is","gamma","unif",158,"ssfOUT_30_1_4_KINGCOBRA","KINGCOBRA",4,1,30,"preference"
"ssfOUT_30_1_4_KINGCOBRA.10",0.721541493561066,0.115997503969547,1.32708548315258,"ssf","mf.is","gamma","unif",500,"ssfOUT_30_1_4_KINGCOBRA","KINGCOBRA",4,1,30,"preference"
"ssfOUT_30_1_4_KINGCOBRA.11",0.915360726166724,0.273780543440091,1.55694090889336,"ssf","mf.is","exp","vonmises",5,"ssfOUT_30_1_4_KINGCOBRA","KINGCOBRA",4,1,30,"preference"
"ssfOUT_30_1_4_KINGCOBRA.12",0.398890400663371,-0.217799806402237,1.01558060772898,"ssf","mf.is","exp","vonmises",15,"ssfOUT_30_1_4_KINGCOBRA","KINGCOBRA",4,1,30,"no effect"
"ssfOUT_30_1_4_KINGCOBRA.13",0.843126569195011,0.232886742877815,1.45336639551221,"ssf","mf.is","exp","vonmises",50,"ssfOUT_30_1_4_KINGCOBRA","KINGCOBRA",4,1,30,"preference"
"ssfOUT_30_1_4_KINGCOBRA.14",0.656095350969567,0.0486761865838401,1.26351451535529,"ssf","mf.is","exp","vonmises",158,"ssfOUT_30_1_4_KINGCOBRA","KINGCOBRA",4,1,30,"preference"
"ssfOUT_30_1_4_KINGCOBRA.15",0.698736105333735,0.0725276246123682,1.3249445860551,"ssf","mf.is","exp","vonmises",500,"ssfOUT_30_1_4_KINGCOBRA","KINGCOBRA",4,1,30,"preference"
"ssfOUT_30_1_4_KINGCOBRA.16",0.910840378739833,0.272434560155632,1.54924619732403,"ssf","mf.is","exp","unif",5,"ssfOUT_30_1_4_KINGCOBRA","KINGCOBRA",4,1,30,"preference"
"ssfOUT_30_1_4_KINGCOBRA.17",0.274538782445334,-0.347869201689088,0.896946766579755,"ssf","mf.is","exp","unif",15,"ssfOUT_30_1_4_KINGCOBRA","KINGCOBRA",4,1,30,"no effect"
"ssfOUT_30_1_4_KINGCOBRA.18",0.643231953110247,0.0263764042587277,1.26008750196177,"ssf","mf.is","exp","unif",50,"ssfOUT_30_1_4_KINGCOBRA","KINGCOBRA",4,1,30,"preference"
"ssfOUT_30_1_4_KINGCOBRA.19",0.604043413197314,-0.00441788156953915,1.21250470796417,"ssf","mf.is","exp","unif",158,"ssfOUT_30_1_4_KINGCOBRA","KINGCOBRA",4,1,30,"no effect"
"ssfOUT_30_1_4_KINGCOBRA.20",0.679734606785762,0.0705337956537011,1.28893541791782,"ssf","mf.is","exp","unif",500,"ssfOUT_30_1_4_KINGCOBRA","KINGCOBRA",4,1,30,"preference"
"ssfOUT_30_1_4_KINGCOBRA.21",0.609445005835164,-0.0368113254790127,1.25570133714934,"ssf","mf.ss","gamma","vonmises",5,"ssfOUT_30_1_4_KINGCOBRA","KINGCOBRA",4,1,30,"no effect"
"ssfOUT_30_1_4_KINGCOBRA.22",0.740087396694084,0.110496894556749,1.36967789883142,"ssf","mf.ss","gamma","vonmises",15,"ssfOUT_30_1_4_KINGCOBRA","KINGCOBRA",4,1,30,"preference"
"ssfOUT_30_1_4_KINGCOBRA.23",0.734869821964693,0.116434689394286,1.3533049545351,"ssf","mf.ss","gamma","vonmises",50,"ssfOUT_30_1_4_KINGCOBRA","KINGCOBRA",4,1,30,"preference"
"ssfOUT_30_1_4_KINGCOBRA.24",0.748768037285703,0.141402281218535,1.35613379335287,"ssf","mf.ss","gamma","vonmises",158,"ssfOUT_30_1_4_KINGCOBRA","KINGCOBRA",4,1,30,"preference"
"ssfOUT_30_1_4_KINGCOBRA.25",0.667463054226739,0.064285946126296,1.27064016232718,"ssf","mf.ss","gamma","vonmises",500,"ssfOUT_30_1_4_KINGCOBRA","KINGCOBRA",4,1,30,"preference"
"ssfOUT_30_1_4_KINGCOBRA.26",0.691475524327298,0.063947118436894,1.3190039302177,"ssf","mf.ss","gamma","unif",5,"ssfOUT_30_1_4_KINGCOBRA","KINGCOBRA",4,1,30,"preference"
"ssfOUT_30_1_4_KINGCOBRA.27",0.467751083502868,-0.136960076447134,1.07246224345287,"ssf","mf.ss","gamma","unif",15,"ssfOUT_30_1_4_KINGCOBRA","KINGCOBRA",4,1,30,"no effect"
"ssfOUT_30_1_4_KINGCOBRA.28",0.692442338670024,0.0930717621298495,1.2918129152102,"ssf","mf.ss","gamma","unif",50,"ssfOUT_30_1_4_KINGCOBRA","KINGCOBRA",4,1,30,"preference"
"ssfOUT_30_1_4_KINGCOBRA.29",0.692389106496971,0.0872844278780209,1.29749378511592,"ssf","mf.ss","gamma","unif",158,"ssfOUT_30_1_4_KINGCOBRA","KINGCOBRA",4,1,30,"preference"
"ssfOUT_30_1_4_KINGCOBRA.30",0.713714393199059,0.108784710321198,1.31864407607692,"ssf","mf.ss","gamma","unif",500,"ssfOUT_30_1_4_KINGCOBRA","KINGCOBRA",4,1,30,"preference"
"ssfOUT_30_1_4_KINGCOBRA.31",0.748176268271205,0.11854068391539,1.37781185262702,"ssf","mf.ss","exp","vonmises",5,"ssfOUT_30_1_4_KINGCOBRA","KINGCOBRA",4,1,30,"preference"
"ssfOUT_30_1_4_KINGCOBRA.32",0.194312016210646,-0.41341797533491,0.802042007756203,"ssf","mf.ss","exp","vonmises",15,"ssfOUT_30_1_4_KINGCOBRA","KINGCOBRA",4,1,30,"no effect"
"ssfOUT_30_1_4_KINGCOBRA.33",0.572981619745623,-0.0242945618936704,1.17025780138492,"ssf","mf.ss","exp","vonmises",50,"ssfOUT_30_1_4_KINGCOBRA","KINGCOBRA",4,1,30,"no effect"
"ssfOUT_30_1_4_KINGCOBRA.34",0.486162907058862,-0.112041720857601,1.08436753497532,"ssf","mf.ss","exp","vonmises",158,"ssfOUT_30_1_4_KINGCOBRA","KINGCOBRA",4,1,30,"no effect"
"ssfOUT_30_1_4_KINGCOBRA.35",0.455927632692498,-0.138775105855066,1.05063037124006,"ssf","mf.ss","exp","vonmises",500,"ssfOUT_30_1_4_KINGCOBRA","KINGCOBRA",4,1,30,"no effect"
"ssfOUT_30_1_4_KINGCOBRA.36",0.628118879990007,0.00577926963949293,1.25045849034052,"ssf","mf.ss","exp","unif",5,"ssfOUT_30_1_4_KINGCOBRA","KINGCOBRA",4,1,30,"preference"
"ssfOUT_30_1_4_KINGCOBRA.37",0.288596335311447,-0.320403233749917,0.89759590437281,"ssf","mf.ss","exp","unif",15,"ssfOUT_30_1_4_KINGCOBRA","KINGCOBRA",4,1,30,"no effect"
"ssfOUT_30_1_4_KINGCOBRA.38",0.502414915397361,-0.0954643973632985,1.10029422815802,"ssf","mf.ss","exp","unif",50,"ssfOUT_30_1_4_KINGCOBRA","KINGCOBRA",4,1,30,"no effect"
"ssfOUT_30_1_4_KINGCOBRA.39",0.482292348855315,-0.113428449149975,1.0780131468606,"ssf","mf.ss","exp","unif",158,"ssfOUT_30_1_4_KINGCOBRA","KINGCOBRA",4,1,30,"no effect"
"ssfOUT_30_1_4_KINGCOBRA.40",0.50092949500612,-0.0948494774034382,1.09670846741568,"ssf","mf.ss","exp","unif",500,"ssfOUT_30_1_4_KINGCOBRA","KINGCOBRA",4,1,30,"no effect"
"ssfOUT_30_2_1_BADGER.1",0.209731705013167,-0.592909428718459,1.01237283874479,"ssf","mf.is","gamma","vonmises",5,"ssfOUT_30_2_1_BADGER","BADGER",1,0.5,30,"no effect"
"ssfOUT_30_2_1_BADGER.2",0.110480065305998,-0.633134357605512,0.854094488217508,"ssf","mf.is","gamma","vonmises",15,"ssfOUT_30_2_1_BADGER","BADGER",1,0.5,30,"no effect"
"ssfOUT_30_2_1_BADGER.3",0.376033523637926,-0.359067287360468,1.11113433463632,"ssf","mf.is","gamma","vonmises",50,"ssfOUT_30_2_1_BADGER","BADGER",1,0.5,30,"no effect"
"ssfOUT_30_2_1_BADGER.4",0.450509211814355,-0.291753625042183,1.19277204867089,"ssf","mf.is","gamma","vonmises",158,"ssfOUT_30_2_1_BADGER","BADGER",1,0.5,30,"no effect"
"ssfOUT_30_2_1_BADGER.5",0.519295951055104,-0.215519597675449,1.25411149978566,"ssf","mf.is","gamma","vonmises",500,"ssfOUT_30_2_1_BADGER","BADGER",1,0.5,30,"no effect"
"ssfOUT_30_2_1_BADGER.6",0.124755378058674,-0.663800221640078,0.913310977757426,"ssf","mf.is","gamma","unif",5,"ssfOUT_30_2_1_BADGER","BADGER",1,0.5,30,"no effect"
"ssfOUT_30_2_1_BADGER.7",0.639486559142551,-0.117338102547677,1.39631122083278,"ssf","mf.is","gamma","unif",15,"ssfOUT_30_2_1_BADGER","BADGER",1,0.5,30,"no effect"
"ssfOUT_30_2_1_BADGER.8",0.307252686429319,-0.42982389798974,1.04432927084838,"ssf","mf.is","gamma","unif",50,"ssfOUT_30_2_1_BADGER","BADGER",1,0.5,30,"no effect"
"ssfOUT_30_2_1_BADGER.9",0.445284823603987,-0.290742054026924,1.1813117012349,"ssf","mf.is","gamma","unif",158,"ssfOUT_30_2_1_BADGER","BADGER",1,0.5,30,"no effect"
"ssfOUT_30_2_1_BADGER.10",0.492122256473783,-0.243236893010501,1.22748140595807,"ssf","mf.is","gamma","unif",500,"ssfOUT_30_2_1_BADGER","BADGER",1,0.5,30,"no effect"
"ssfOUT_30_2_1_BADGER.11",1.08692749748229,0.321436528683332,1.85241846628124,"ssf","mf.is","exp","vonmises",5,"ssfOUT_30_2_1_BADGER","BADGER",1,0.5,30,"preference"
"ssfOUT_30_2_1_BADGER.12",0.641619229544174,-0.119405172174533,1.40264363126288,"ssf","mf.is","exp","vonmises",15,"ssfOUT_30_2_1_BADGER","BADGER",1,0.5,30,"no effect"
"ssfOUT_30_2_1_BADGER.13",0.518236184402583,-0.223319369239254,1.25979173804442,"ssf","mf.is","exp","vonmises",50,"ssfOUT_30_2_1_BADGER","BADGER",1,0.5,30,"no effect"
"ssfOUT_30_2_1_BADGER.14",0.527587406917879,-0.212424530157606,1.26759934399336,"ssf","mf.is","exp","vonmises",158,"ssfOUT_30_2_1_BADGER","BADGER",1,0.5,30,"no effect"
"ssfOUT_30_2_1_BADGER.15",0.428520717215578,-0.306857299663089,1.16389873409424,"ssf","mf.is","exp","vonmises",500,"ssfOUT_30_2_1_BADGER","BADGER",1,0.5,30,"no effect"
"ssfOUT_30_2_1_BADGER.16",0.578072858578253,-0.207877108139783,1.36402282529629,"ssf","mf.is","exp","unif",5,"ssfOUT_30_2_1_BADGER","BADGER",1,0.5,30,"no effect"
"ssfOUT_30_2_1_BADGER.17",0.456890015621818,-0.298483415373796,1.21226344661743,"ssf","mf.is","exp","unif",15,"ssfOUT_30_2_1_BADGER","BADGER",1,0.5,30,"no effect"
"ssfOUT_30_2_1_BADGER.18",0.456704931973341,-0.27890220702038,1.19231207096706,"ssf","mf.is","exp","unif",50,"ssfOUT_30_2_1_BADGER","BADGER",1,0.5,30,"no effect"
"ssfOUT_30_2_1_BADGER.19",0.446256636508422,-0.291264216467828,1.18377748948467,"ssf","mf.is","exp","unif",158,"ssfOUT_30_2_1_BADGER","BADGER",1,0.5,30,"no effect"
"ssfOUT_30_2_1_BADGER.20",0.479029923818027,-0.258299196644453,1.21635904428051,"ssf","mf.is","exp","unif",500,"ssfOUT_30_2_1_BADGER","BADGER",1,0.5,30,"no effect"
"ssfOUT_30_2_1_BADGER.21",0.19211346718609,-0.602427511956969,0.98665444632915,"ssf","mf.ss","gamma","vonmises",5,"ssfOUT_30_2_1_BADGER","BADGER",1,0.5,30,"no effect"
"ssfOUT_30_2_1_BADGER.22",0.0936158329607919,-0.646953447351164,0.834185113272747,"ssf","mf.ss","gamma","vonmises",15,"ssfOUT_30_2_1_BADGER","BADGER",1,0.5,30,"no effect"
"ssfOUT_30_2_1_BADGER.23",0.299650882615345,-0.433489361969713,1.0327911272004,"ssf","mf.ss","gamma","vonmises",50,"ssfOUT_30_2_1_BADGER","BADGER",1,0.5,30,"no effect"
"ssfOUT_30_2_1_BADGER.24",0.385253901397908,-0.35669112402881,1.12719892682463,"ssf","mf.ss","gamma","vonmises",158,"ssfOUT_30_2_1_BADGER","BADGER",1,0.5,30,"no effect"
"ssfOUT_30_2_1_BADGER.25",0.43619056588601,-0.29823338760373,1.17061451937575,"ssf","mf.ss","gamma","vonmises",500,"ssfOUT_30_2_1_BADGER","BADGER",1,0.5,30,"no effect"
"ssfOUT_30_2_1_BADGER.26",0.142879395754669,-0.643704695723586,0.929463487232924,"ssf","mf.ss","gamma","unif",5,"ssfOUT_30_2_1_BADGER","BADGER",1,0.5,30,"no effect"
"ssfOUT_30_2_1_BADGER.27",0.586294837735256,-0.168862464204113,1.34145213967462,"ssf","mf.ss","gamma","unif",15,"ssfOUT_30_2_1_BADGER","BADGER",1,0.5,30,"no effect"
"ssfOUT_30_2_1_BADGER.28",0.305274255232529,-0.430523626345456,1.04107213681051,"ssf","mf.ss","gamma","unif",50,"ssfOUT_30_2_1_BADGER","BADGER",1,0.5,30,"no effect"
"ssfOUT_30_2_1_BADGER.29",0.409891860046573,-0.324529781350846,1.14431350144399,"ssf","mf.ss","gamma","unif",158,"ssfOUT_30_2_1_BADGER","BADGER",1,0.5,30,"no effect"
"ssfOUT_30_2_1_BADGER.30",0.444795188453335,-0.289525432646658,1.17911580955333,"ssf","mf.ss","gamma","unif",500,"ssfOUT_30_2_1_BADGER","BADGER",1,0.5,30,"no effect"
"ssfOUT_30_2_1_BADGER.31",0.773063860594129,0.0204696598927413,1.52565806129552,"ssf","mf.ss","exp","vonmises",5,"ssfOUT_30_2_1_BADGER","BADGER",1,0.5,30,"preference"
"ssfOUT_30_2_1_BADGER.32",0.458335411813473,-0.294356796750472,1.21102762037742,"ssf","mf.ss","exp","vonmises",15,"ssfOUT_30_2_1_BADGER","BADGER",1,0.5,30,"no effect"
"ssfOUT_30_2_1_BADGER.33",0.299378803510389,-0.437208502310432,1.03596610933121,"ssf","mf.ss","exp","vonmises",50,"ssfOUT_30_2_1_BADGER","BADGER",1,0.5,30,"no effect"
"ssfOUT_30_2_1_BADGER.34",0.342323531848377,-0.39098181231681,1.07562887601356,"ssf","mf.ss","exp","vonmises",158,"ssfOUT_30_2_1_BADGER","BADGER",1,0.5,30,"no effect"
"ssfOUT_30_2_1_BADGER.35",0.250807424848937,-0.480491711970941,0.982106561668816,"ssf","mf.ss","exp","vonmises",500,"ssfOUT_30_2_1_BADGER","BADGER",1,0.5,30,"no effect"
"ssfOUT_30_2_1_BADGER.36",0.460920161304886,-0.310764862543154,1.23260518515293,"ssf","mf.ss","exp","unif",5,"ssfOUT_30_2_1_BADGER","BADGER",1,0.5,30,"no effect"
"ssfOUT_30_2_1_BADGER.37",0.33008577087025,-0.418307022780407,1.07847856452091,"ssf","mf.ss","exp","unif",15,"ssfOUT_30_2_1_BADGER","BADGER",1,0.5,30,"no effect"
"ssfOUT_30_2_1_BADGER.38",0.389368883820745,-0.343603092136447,1.12234085977794,"ssf","mf.ss","exp","unif",50,"ssfOUT_30_2_1_BADGER","BADGER",1,0.5,30,"no effect"
"ssfOUT_30_2_1_BADGER.39",0.26352527215336,-0.470402178245585,0.997452722552305,"ssf","mf.ss","exp","unif",158,"ssfOUT_30_2_1_BADGER","BADGER",1,0.5,30,"no effect"
"ssfOUT_30_2_1_BADGER.40",0.342570324796449,-0.392003275405784,1.07714392499868,"ssf","mf.ss","exp","unif",500,"ssfOUT_30_2_1_BADGER","BADGER",1,0.5,30,"no effect"
"ssfOUT_30_2_1_VULTURE.1",0.983922917380113,0.228061124954075,1.73978470980615,"ssf","mf.is","gamma","vonmises",5,"ssfOUT_30_2_1_VULTURE","VULTURE",1,0.5,30,"preference"
"ssfOUT_30_2_1_VULTURE.2",0.654799883389138,-0.0862318748489527,1.39583164162723,"ssf","mf.is","gamma","vonmises",15,"ssfOUT_30_2_1_VULTURE","VULTURE",1,0.5,30,"no effect"
"ssfOUT_30_2_1_VULTURE.3",0.570060728509738,-0.158269149912877,1.29839060693235,"ssf","mf.is","gamma","vonmises",50,"ssfOUT_30_2_1_VULTURE","VULTURE",1,0.5,30,"no effect"
"ssfOUT_30_2_1_VULTURE.4",0.56851419455219,-0.154942748644352,1.29197113774873,"ssf","mf.is","gamma","vonmises",158,"ssfOUT_30_2_1_VULTURE","VULTURE",1,0.5,30,"no effect"
"ssfOUT_30_2_1_VULTURE.5",0.577949822977878,-0.143516261095588,1.29941590705134,"ssf","mf.is","gamma","vonmises",500,"ssfOUT_30_2_1_VULTURE","VULTURE",1,0.5,30,"no effect"
"ssfOUT_30_2_1_VULTURE.6",0.39424411211407,-0.385251749143045,1.17373997337119,"ssf","mf.is","gamma","unif",5,"ssfOUT_30_2_1_VULTURE","VULTURE",1,0.5,30,"no effect"
"ssfOUT_30_2_1_VULTURE.7",0.734418066207148,0.000527696022432189,1.46830843639186,"ssf","mf.is","gamma","unif",15,"ssfOUT_30_2_1_VULTURE","VULTURE",1,0.5,30,"preference"
"ssfOUT_30_2_1_VULTURE.8",0.546818910713291,-0.181933352220258,1.27557117364684,"ssf","mf.is","gamma","unif",50,"ssfOUT_30_2_1_VULTURE","VULTURE",1,0.5,30,"no effect"
"ssfOUT_30_2_1_VULTURE.9",0.511352415970777,-0.212028777210548,1.2347336091521,"ssf","mf.is","gamma","unif",158,"ssfOUT_30_2_1_VULTURE","VULTURE",1,0.5,30,"no effect"
"ssfOUT_30_2_1_VULTURE.10",0.617530752779382,-0.104308496596193,1.33937000215496,"ssf","mf.is","gamma","unif",500,"ssfOUT_30_2_1_VULTURE","VULTURE",1,0.5,30,"no effect"
"ssfOUT_30_2_1_VULTURE.11",1.16590442952817,0.393648646243538,1.93816021281279,"ssf","mf.is","exp","vonmises",5,"ssfOUT_30_2_1_VULTURE","VULTURE",1,0.5,30,"preference"
"ssfOUT_30_2_1_VULTURE.12",0.746405404537629,0.00236765863637367,1.49044315043888,"ssf","mf.is","exp","vonmises",15,"ssfOUT_30_2_1_VULTURE","VULTURE",1,0.5,30,"preference"
"ssfOUT_30_2_1_VULTURE.13",0.67483742852742,-0.0535378126786986,1.40321266973354,"ssf","mf.is","exp","vonmises",50,"ssfOUT_30_2_1_VULTURE","VULTURE",1,0.5,30,"no effect"
"ssfOUT_30_2_1_VULTURE.14",0.6125782461813,-0.109395825154183,1.33455231751678,"ssf","mf.is","exp","vonmises",158,"ssfOUT_30_2_1_VULTURE","VULTURE",1,0.5,30,"no effect"
"ssfOUT_30_2_1_VULTURE.15",0.551630461622643,-0.170915064385839,1.27417598763113,"ssf","mf.is","exp","vonmises",500,"ssfOUT_30_2_1_VULTURE","VULTURE",1,0.5,30,"no effect"
"ssfOUT_30_2_1_VULTURE.16",0.422743005666675,-0.396204911187077,1.24169092252043,"ssf","mf.is","exp","unif",5,"ssfOUT_30_2_1_VULTURE","VULTURE",1,0.5,30,"no effect"
"ssfOUT_30_2_1_VULTURE.17",0.698469075582066,-0.0444890596178392,1.44142721078197,"ssf","mf.is","exp","unif",15,"ssfOUT_30_2_1_VULTURE","VULTURE",1,0.5,30,"no effect"
"ssfOUT_30_2_1_VULTURE.18",0.579430949430394,-0.145869988669529,1.30473188753032,"ssf","mf.is","exp","unif",50,"ssfOUT_30_2_1_VULTURE","VULTURE",1,0.5,30,"no effect"
"ssfOUT_30_2_1_VULTURE.19",0.59971344792065,-0.123465999716941,1.32289289555824,"ssf","mf.is","exp","unif",158,"ssfOUT_30_2_1_VULTURE","VULTURE",1,0.5,30,"no effect"
"ssfOUT_30_2_1_VULTURE.20",0.571711288755381,-0.150679280932284,1.29410185844305,"ssf","mf.is","exp","unif",500,"ssfOUT_30_2_1_VULTURE","VULTURE",1,0.5,30,"no effect"
"ssfOUT_30_2_1_VULTURE.21",0.97114981696645,0.216828707088835,1.72547092684406,"ssf","mf.ss","gamma","vonmises",5,"ssfOUT_30_2_1_VULTURE","VULTURE",1,0.5,30,"preference"
"ssfOUT_30_2_1_VULTURE.22",0.607406521270434,-0.13260965025176,1.34742269279263,"ssf","mf.ss","gamma","vonmises",15,"ssfOUT_30_2_1_VULTURE","VULTURE",1,0.5,30,"no effect"
"ssfOUT_30_2_1_VULTURE.23",0.530992381649139,-0.19667579849614,1.25866056179442,"ssf","mf.ss","gamma","vonmises",50,"ssfOUT_30_2_1_VULTURE","VULTURE",1,0.5,30,"no effect"
"ssfOUT_30_2_1_VULTURE.24",0.538213030120859,-0.185134062099277,1.26156012234099,"ssf","mf.ss","gamma","vonmises",158,"ssfOUT_30_2_1_VULTURE","VULTURE",1,0.5,30,"no effect"
"ssfOUT_30_2_1_VULTURE.25",0.550693248557125,-0.170620712634814,1.27200720974906,"ssf","mf.ss","gamma","vonmises",500,"ssfOUT_30_2_1_VULTURE","VULTURE",1,0.5,30,"no effect"
"ssfOUT_30_2_1_VULTURE.26",0.383148045501672,-0.39466504753211,1.16096113853545,"ssf","mf.ss","gamma","unif",5,"ssfOUT_30_2_1_VULTURE","VULTURE",1,0.5,30,"no effect"
"ssfOUT_30_2_1_VULTURE.27",0.716592653913375,-0.0174141172394467,1.4505994250662,"ssf","mf.ss","gamma","unif",15,"ssfOUT_30_2_1_VULTURE","VULTURE",1,0.5,30,"no effect"
"ssfOUT_30_2_1_VULTURE.28",0.523406246857586,-0.204915446091213,1.25172793980638,"ssf","mf.ss","gamma","unif",50,"ssfOUT_30_2_1_VULTURE","VULTURE",1,0.5,30,"no effect"
"ssfOUT_30_2_1_VULTURE.29",0.490978053830607,-0.232222197877448,1.21417830553866,"ssf","mf.ss","gamma","unif",158,"ssfOUT_30_2_1_VULTURE","VULTURE",1,0.5,30,"no effect"
"ssfOUT_30_2_1_VULTURE.30",0.600596411199845,-0.121016256529856,1.32220907892955,"ssf","mf.ss","gamma","unif",500,"ssfOUT_30_2_1_VULTURE","VULTURE",1,0.5,30,"no effect"
"ssfOUT_30_2_1_VULTURE.31",1.04528517363781,0.283756428148629,1.806813919127,"ssf","mf.ss","exp","vonmises",5,"ssfOUT_30_2_1_VULTURE","VULTURE",1,0.5,30,"preference"
"ssfOUT_30_2_1_VULTURE.32",0.647697921597316,-0.0873126209184542,1.38270846411309,"ssf","mf.ss","exp","vonmises",15,"ssfOUT_30_2_1_VULTURE","VULTURE",1,0.5,30,"no effect"
"ssfOUT_30_2_1_VULTURE.33",0.653083910207761,-0.0759007600131159,1.38206858042864,"ssf","mf.ss","exp","vonmises",50,"ssfOUT_30_2_1_VULTURE","VULTURE",1,0.5,30,"no effect"
"ssfOUT_30_2_1_VULTURE.34",0.618595702175449,-0.102958808265229,1.34015021261613,"ssf","mf.ss","exp","vonmises",158,"ssfOUT_30_2_1_VULTURE","VULTURE",1,0.5,30,"no effect"
"ssfOUT_30_2_1_VULTURE.35",0.577464986337295,-0.1448055890436,1.29973556171819,"ssf","mf.ss","exp","vonmises",500,"ssfOUT_30_2_1_VULTURE","VULTURE",1,0.5,30,"no effect"
"ssfOUT_30_2_1_VULTURE.36",0.381784954547453,-0.430557399011861,1.19412730810677,"ssf","mf.ss","exp","unif",5,"ssfOUT_30_2_1_VULTURE","VULTURE",1,0.5,30,"no effect"
"ssfOUT_30_2_1_VULTURE.37",0.730075188024144,-0.00700747431894133,1.46715785036723,"ssf","mf.ss","exp","unif",15,"ssfOUT_30_2_1_VULTURE","VULTURE",1,0.5,30,"no effect"
"ssfOUT_30_2_1_VULTURE.38",0.576978744091811,-0.14572934268203,1.29968683086565,"ssf","mf.ss","exp","unif",50,"ssfOUT_30_2_1_VULTURE","VULTURE",1,0.5,30,"no effect"
"ssfOUT_30_2_1_VULTURE.39",0.613290522034674,-0.108328223730461,1.33490926779981,"ssf","mf.ss","exp","unif",158,"ssfOUT_30_2_1_VULTURE","VULTURE",1,0.5,30,"no effect"
"ssfOUT_30_2_1_VULTURE.40",0.606358363999619,-0.115103034293952,1.32781976229319,"ssf","mf.ss","exp","unif",500,"ssfOUT_30_2_1_VULTURE","VULTURE",1,0.5,30,"no effect"
"ssfOUT_30_2_1_KINGCOBRA.1",0.516926902051566,-0.314380211885473,1.34823401598861,"ssf","mf.is","gamma","vonmises",5,"ssfOUT_30_2_1_KINGCOBRA","KINGCOBRA",1,0.5,30,"no effect"
"ssfOUT_30_2_1_KINGCOBRA.2",1.08520993636247,0.268796022980831,1.9016238497441,"ssf","mf.is","gamma","vonmises",15,"ssfOUT_30_2_1_KINGCOBRA","KINGCOBRA",1,0.5,30,"preference"
"ssfOUT_30_2_1_KINGCOBRA.3",0.433359032280299,-0.472887992632621,1.33960605719322,"ssf","mf.is","gamma","vonmises",50,"ssfOUT_30_2_1_KINGCOBRA","KINGCOBRA",1,0.5,30,"no effect"
"ssfOUT_30_2_1_KINGCOBRA.4",0.503747081443119,-0.375139780104458,1.3826339429907,"ssf","mf.is","gamma","vonmises",158,"ssfOUT_30_2_1_KINGCOBRA","KINGCOBRA",1,0.5,30,"no effect"
"ssfOUT_30_2_1_KINGCOBRA.5",0.428233081923318,-0.43370313415673,1.29016929800337,"ssf","mf.is","gamma","vonmises",500,"ssfOUT_30_2_1_KINGCOBRA","KINGCOBRA",1,0.5,30,"no effect"
"ssfOUT_30_2_1_KINGCOBRA.6",0.895549422081279,0.0649732269723533,1.7261256171902,"ssf","mf.is","gamma","unif",5,"ssfOUT_30_2_1_KINGCOBRA","KINGCOBRA",1,0.5,30,"preference"
"ssfOUT_30_2_1_KINGCOBRA.7",0.330580419775923,-0.505223544350105,1.16638438390195,"ssf","mf.is","gamma","unif",15,"ssfOUT_30_2_1_KINGCOBRA","KINGCOBRA",1,0.5,30,"no effect"
"ssfOUT_30_2_1_KINGCOBRA.8",0.422963903647286,-0.422638587016064,1.26856639431064,"ssf","mf.is","gamma","unif",50,"ssfOUT_30_2_1_KINGCOBRA","KINGCOBRA",1,0.5,30,"no effect"
"ssfOUT_30_2_1_KINGCOBRA.9",0.448201511411112,-0.410496779725816,1.30689980254804,"ssf","mf.is","gamma","unif",158,"ssfOUT_30_2_1_KINGCOBRA","KINGCOBRA",1,0.5,30,"no effect"
"ssfOUT_30_2_1_KINGCOBRA.10",0.500518829415642,-0.363241771226604,1.36427943005789,"ssf","mf.is","gamma","unif",500,"ssfOUT_30_2_1_KINGCOBRA","KINGCOBRA",1,0.5,30,"no effect"
"ssfOUT_30_2_1_KINGCOBRA.11",-0.910453608606899,-1.84914780056976,0.0282405833559589,"ssf","mf.is","exp","vonmises",5,"ssfOUT_30_2_1_KINGCOBRA","KINGCOBRA",1,0.5,30,"no effect"
"ssfOUT_30_2_1_KINGCOBRA.12",0.065427925197638,-0.806623107449512,0.937478957844788,"ssf","mf.is","exp","vonmises",15,"ssfOUT_30_2_1_KINGCOBRA","KINGCOBRA",1,0.5,30,"no effect"
"ssfOUT_30_2_1_KINGCOBRA.13",0.0388625726214642,-0.791526357919808,0.869251503162736,"ssf","mf.is","exp","vonmises",50,"ssfOUT_30_2_1_KINGCOBRA","KINGCOBRA",1,0.5,30,"no effect"
"ssfOUT_30_2_1_KINGCOBRA.14",0.748059273486846,-0.106434738079442,1.60255328505313,"ssf","mf.is","exp","vonmises",158,"ssfOUT_30_2_1_KINGCOBRA","KINGCOBRA",1,0.5,30,"no effect"
"ssfOUT_30_2_1_KINGCOBRA.15",0.39604130660121,-0.452641556270691,1.24472416947311,"ssf","mf.is","exp","vonmises",500,"ssfOUT_30_2_1_KINGCOBRA","KINGCOBRA",1,0.5,30,"no effect"
"ssfOUT_30_2_1_KINGCOBRA.16",-0.0710158865115458,-0.917029776596692,0.774998003573601,"ssf","mf.is","exp","unif",5,"ssfOUT_30_2_1_KINGCOBRA","KINGCOBRA",1,0.5,30,"no effect"
"ssfOUT_30_2_1_KINGCOBRA.17",0.177028927361337,-0.634454221144258,0.988512075866931,"ssf","mf.is","exp","unif",15,"ssfOUT_30_2_1_KINGCOBRA","KINGCOBRA",1,0.5,30,"no effect"
"ssfOUT_30_2_1_KINGCOBRA.18",0.587521065793765,-0.350485201351129,1.52552733293866,"ssf","mf.is","exp","unif",50,"ssfOUT_30_2_1_KINGCOBRA","KINGCOBRA",1,0.5,30,"no effect"
"ssfOUT_30_2_1_KINGCOBRA.19",0.233117180768584,-0.589363087742835,1.05559744928,"ssf","mf.is","exp","unif",158,"ssfOUT_30_2_1_KINGCOBRA","KINGCOBRA",1,0.5,30,"no effect"
"ssfOUT_30_2_1_KINGCOBRA.20",0.565964776568273,-0.316201715897077,1.44813126903362,"ssf","mf.is","exp","unif",500,"ssfOUT_30_2_1_KINGCOBRA","KINGCOBRA",1,0.5,30,"no effect"
"ssfOUT_30_2_1_KINGCOBRA.21",0.992290141825576,0.156425113232217,1.82815517041894,"ssf","mf.ss","gamma","vonmises",5,"ssfOUT_30_2_1_KINGCOBRA","KINGCOBRA",1,0.5,30,"preference"
"ssfOUT_30_2_1_KINGCOBRA.22",1.44848798255946,0.61326822058293,2.28370774453598,"ssf","mf.ss","gamma","vonmises",15,"ssfOUT_30_2_1_KINGCOBRA","KINGCOBRA",1,0.5,30,"preference"
"ssfOUT_30_2_1_KINGCOBRA.23",1.11789781464024,0.195264379436186,2.0405312498443,"ssf","mf.ss","gamma","vonmises",50,"ssfOUT_30_2_1_KINGCOBRA","KINGCOBRA",1,0.5,30,"preference"
"ssfOUT_30_2_1_KINGCOBRA.24",1.06090977568674,0.178450694325868,1.9433688570476,"ssf","mf.ss","gamma","vonmises",158,"ssfOUT_30_2_1_KINGCOBRA","KINGCOBRA",1,0.5,30,"preference"
"ssfOUT_30_2_1_KINGCOBRA.25",0.937260651847641,0.0543245323365513,1.82019677135873,"ssf","mf.ss","gamma","vonmises",500,"ssfOUT_30_2_1_KINGCOBRA","KINGCOBRA",1,0.5,30,"preference"
"ssfOUT_30_2_1_KINGCOBRA.26",0.999710504648134,0.176539517583634,1.82288149171263,"ssf","mf.ss","gamma","unif",5,"ssfOUT_30_2_1_KINGCOBRA","KINGCOBRA",1,0.5,30,"preference"
"ssfOUT_30_2_1_KINGCOBRA.27",0.67607081404774,-0.155966304890654,1.50810793298613,"ssf","mf.ss","gamma","unif",15,"ssfOUT_30_2_1_KINGCOBRA","KINGCOBRA",1,0.5,30,"no effect"
"ssfOUT_30_2_1_KINGCOBRA.28",0.95643172880249,0.0897322419065514,1.82313121569843,"ssf","mf.ss","gamma","unif",50,"ssfOUT_30_2_1_KINGCOBRA","KINGCOBRA",1,0.5,30,"preference"
"ssfOUT_30_2_1_KINGCOBRA.29",0.928915060908125,0.0549481248578442,1.80288199695841,"ssf","mf.ss","gamma","unif",158,"ssfOUT_30_2_1_KINGCOBRA","KINGCOBRA",1,0.5,30,"preference"
"ssfOUT_30_2_1_KINGCOBRA.30",0.991813581021896,0.113733937127879,1.86989322491591,"ssf","mf.ss","gamma","unif",500,"ssfOUT_30_2_1_KINGCOBRA","KINGCOBRA",1,0.5,30,"preference"
"ssfOUT_30_2_1_KINGCOBRA.31",0.792110687194185,-0.172740696219454,1.75696207060782,"ssf","mf.ss","exp","vonmises",5,"ssfOUT_30_2_1_KINGCOBRA","KINGCOBRA",1,0.5,30,"no effect"
"ssfOUT_30_2_1_KINGCOBRA.32",0.885986036383271,0.0676897562989166,1.70428231646763,"ssf","mf.ss","exp","vonmises",15,"ssfOUT_30_2_1_KINGCOBRA","KINGCOBRA",1,0.5,30,"preference"
"ssfOUT_30_2_1_KINGCOBRA.33",0.84951626959564,0.0156641583823554,1.68336838080893,"ssf","mf.ss","exp","vonmises",50,"ssfOUT_30_2_1_KINGCOBRA","KINGCOBRA",1,0.5,30,"preference"
"ssfOUT_30_2_1_KINGCOBRA.34",0.947069501951736,0.114174298533694,1.77996470536978,"ssf","mf.ss","exp","vonmises",158,"ssfOUT_30_2_1_KINGCOBRA","KINGCOBRA",1,0.5,30,"preference"
"ssfOUT_30_2_1_KINGCOBRA.35",0.839552298600124,-0.00128910968604845,1.6803937068863,"ssf","mf.ss","exp","vonmises",500,"ssfOUT_30_2_1_KINGCOBRA","KINGCOBRA",1,0.5,30,"no effect"
"ssfOUT_30_2_1_KINGCOBRA.36",0.720313803213235,-0.0769457580170481,1.51757336444352,"ssf","mf.ss","exp","unif",5,"ssfOUT_30_2_1_KINGCOBRA","KINGCOBRA",1,0.5,30,"no effect"
"ssfOUT_30_2_1_KINGCOBRA.37",0.562625369673539,-0.216330413216523,1.3415811525636,"ssf","mf.ss","exp","unif",15,"ssfOUT_30_2_1_KINGCOBRA","KINGCOBRA",1,0.5,30,"no effect"
"ssfOUT_30_2_1_KINGCOBRA.38",0.575899604969022,-0.227471270304617,1.37927048024266,"ssf","mf.ss","exp","unif",50,"ssfOUT_30_2_1_KINGCOBRA","KINGCOBRA",1,0.5,30,"no effect"
"ssfOUT_30_2_1_KINGCOBRA.39",0.64638950390887,-0.177902322864912,1.47068133068265,"ssf","mf.ss","exp","unif",158,"ssfOUT_30_2_1_KINGCOBRA","KINGCOBRA",1,0.5,30,"no effect"
"ssfOUT_30_2_1_KINGCOBRA.40",0.758865296510966,-0.0618141017088417,1.57954469473077,"ssf","mf.ss","exp","unif",500,"ssfOUT_30_2_1_KINGCOBRA","KINGCOBRA",1,0.5,30,"no effect"
"ssfOUT_30_2_2_BADGER.1",0.759713190713652,0.25128338014006,1.26814300128724,"ssf","mf.is","gamma","vonmises",5,"ssfOUT_30_2_2_BADGER","BADGER",2,0.5,30,"preference"
"ssfOUT_30_2_2_BADGER.2",0.775514611868151,0.274043165684268,1.27698605805203,"ssf","mf.is","gamma","vonmises",15,"ssfOUT_30_2_2_BADGER","BADGER",2,0.5,30,"preference"
"ssfOUT_30_2_2_BADGER.3",0.922497789892706,0.428114634667274,1.41688094511814,"ssf","mf.is","gamma","vonmises",50,"ssfOUT_30_2_2_BADGER","BADGER",2,0.5,30,"preference"
"ssfOUT_30_2_2_BADGER.4",0.888085999004289,0.396620432153309,1.37955156585527,"ssf","mf.is","gamma","vonmises",158,"ssfOUT_30_2_2_BADGER","BADGER",2,0.5,30,"preference"
"ssfOUT_30_2_2_BADGER.5",0.923587496188496,0.43044427418722,1.41673071818977,"ssf","mf.is","gamma","vonmises",500,"ssfOUT_30_2_2_BADGER","BADGER",2,0.5,30,"preference"
"ssfOUT_30_2_2_BADGER.6",0.739709065983347,0.223793544476736,1.25562458748996,"ssf","mf.is","gamma","unif",5,"ssfOUT_30_2_2_BADGER","BADGER",2,0.5,30,"preference"
"ssfOUT_30_2_2_BADGER.7",0.771530493792219,0.273401070053477,1.26965991753096,"ssf","mf.is","gamma","unif",15,"ssfOUT_30_2_2_BADGER","BADGER",2,0.5,30,"preference"
"ssfOUT_30_2_2_BADGER.8",1.0156813512192,0.519768272747218,1.51159442969118,"ssf","mf.is","gamma","unif",50,"ssfOUT_30_2_2_BADGER","BADGER",2,0.5,30,"preference"
"ssfOUT_30_2_2_BADGER.9",0.881411434698156,0.394163220023072,1.36865964937324,"ssf","mf.is","gamma","unif",158,"ssfOUT_30_2_2_BADGER","BADGER",2,0.5,30,"preference"
"ssfOUT_30_2_2_BADGER.10",0.904759272275979,0.414146382775497,1.39537216177646,"ssf","mf.is","gamma","unif",500,"ssfOUT_30_2_2_BADGER","BADGER",2,0.5,30,"preference"
"ssfOUT_30_2_2_BADGER.11",0.72242310333347,0.209894794652924,1.23495141201402,"ssf","mf.is","exp","vonmises",5,"ssfOUT_30_2_2_BADGER","BADGER",2,0.5,30,"preference"
"ssfOUT_30_2_2_BADGER.12",0.761430086986582,0.261556087899868,1.2613040860733,"ssf","mf.is","exp","vonmises",15,"ssfOUT_30_2_2_BADGER","BADGER",2,0.5,30,"preference"
"ssfOUT_30_2_2_BADGER.13",0.781390951413447,0.2854569678176,1.27732493500929,"ssf","mf.is","exp","vonmises",50,"ssfOUT_30_2_2_BADGER","BADGER",2,0.5,30,"preference"
"ssfOUT_30_2_2_BADGER.14",0.887066905056259,0.397995426424324,1.37613838368819,"ssf","mf.is","exp","vonmises",158,"ssfOUT_30_2_2_BADGER","BADGER",2,0.5,30,"preference"
"ssfOUT_30_2_2_BADGER.15",0.915728076975553,0.425705498143497,1.40575065580761,"ssf","mf.is","exp","vonmises",500,"ssfOUT_30_2_2_BADGER","BADGER",2,0.5,30,"preference"
"ssfOUT_30_2_2_BADGER.16",0.841752064816538,0.33042718815147,1.35307694148161,"ssf","mf.is","exp","unif",5,"ssfOUT_30_2_2_BADGER","BADGER",2,0.5,30,"preference"
"ssfOUT_30_2_2_BADGER.17",0.573534721873869,0.0695857900722128,1.07748365367553,"ssf","mf.is","exp","unif",15,"ssfOUT_30_2_2_BADGER","BADGER",2,0.5,30,"preference"
"ssfOUT_30_2_2_BADGER.18",0.90502878215739,0.417878649416126,1.39217891489865,"ssf","mf.is","exp","unif",50,"ssfOUT_30_2_2_BADGER","BADGER",2,0.5,30,"preference"
"ssfOUT_30_2_2_BADGER.19",0.935604111625953,0.441179955132318,1.43002826811959,"ssf","mf.is","exp","unif",158,"ssfOUT_30_2_2_BADGER","BADGER",2,0.5,30,"preference"
"ssfOUT_30_2_2_BADGER.20",0.897296317022142,0.406028263785295,1.38856437025899,"ssf","mf.is","exp","unif",500,"ssfOUT_30_2_2_BADGER","BADGER",2,0.5,30,"preference"
"ssfOUT_30_2_2_BADGER.21",0.750657979403415,0.239105983044197,1.26220997576263,"ssf","mf.ss","gamma","vonmises",5,"ssfOUT_30_2_2_BADGER","BADGER",2,0.5,30,"preference"
"ssfOUT_30_2_2_BADGER.22",0.78588783828798,0.283393215395922,1.28838246118004,"ssf","mf.ss","gamma","vonmises",15,"ssfOUT_30_2_2_BADGER","BADGER",2,0.5,30,"preference"
"ssfOUT_30_2_2_BADGER.23",0.888915434261097,0.392326863443555,1.38550400507864,"ssf","mf.ss","gamma","vonmises",50,"ssfOUT_30_2_2_BADGER","BADGER",2,0.5,30,"preference"
"ssfOUT_30_2_2_BADGER.24",0.850765479549181,0.356961956599816,1.34456900249855,"ssf","mf.ss","gamma","vonmises",158,"ssfOUT_30_2_2_BADGER","BADGER",2,0.5,30,"preference"
"ssfOUT_30_2_2_BADGER.25",0.884509106260854,0.388972680067337,1.38004553245437,"ssf","mf.ss","gamma","vonmises",500,"ssfOUT_30_2_2_BADGER","BADGER",2,0.5,30,"preference"
"ssfOUT_30_2_2_BADGER.26",0.763140600354995,0.250428609309853,1.27585259140014,"ssf","mf.ss","gamma","unif",5,"ssfOUT_30_2_2_BADGER","BADGER",2,0.5,30,"preference"
"ssfOUT_30_2_2_BADGER.27",0.774989726138892,0.277733222717845,1.27224622955994,"ssf","mf.ss","gamma","unif",15,"ssfOUT_30_2_2_BADGER","BADGER",2,0.5,30,"preference"
"ssfOUT_30_2_2_BADGER.28",0.99407789298509,0.49507880077169,1.49307698519849,"ssf","mf.ss","gamma","unif",50,"ssfOUT_30_2_2_BADGER","BADGER",2,0.5,30,"preference"
"ssfOUT_30_2_2_BADGER.29",0.875691825410065,0.385397688787891,1.36598596203224,"ssf","mf.ss","gamma","unif",158,"ssfOUT_30_2_2_BADGER","BADGER",2,0.5,30,"preference"
"ssfOUT_30_2_2_BADGER.30",0.897781336504626,0.404319801969837,1.39124287103941,"ssf","mf.ss","gamma","unif",500,"ssfOUT_30_2_2_BADGER","BADGER",2,0.5,30,"preference"
"ssfOUT_30_2_2_BADGER.31",0.782982043068554,0.271043669169055,1.29492041696805,"ssf","mf.ss","exp","vonmises",5,"ssfOUT_30_2_2_BADGER","BADGER",2,0.5,30,"preference"
"ssfOUT_30_2_2_BADGER.32",0.702940453657819,0.208062190313966,1.19781871700167,"ssf","mf.ss","exp","vonmises",15,"ssfOUT_30_2_2_BADGER","BADGER",2,0.5,30,"preference"
"ssfOUT_30_2_2_BADGER.33",0.863566949565507,0.371371307777897,1.35576259135312,"ssf","mf.ss","exp","vonmises",50,"ssfOUT_30_2_2_BADGER","BADGER",2,0.5,30,"preference"
"ssfOUT_30_2_2_BADGER.34",0.918673463441238,0.432443435342757,1.40490349153972,"ssf","mf.ss","exp","vonmises",158,"ssfOUT_30_2_2_BADGER","BADGER",2,0.5,30,"preference"
"ssfOUT_30_2_2_BADGER.35",0.923968095821579,0.438386479028785,1.40954971261437,"ssf","mf.ss","exp","vonmises",500,"ssfOUT_30_2_2_BADGER","BADGER",2,0.5,30,"preference"
"ssfOUT_30_2_2_BADGER.36",0.948840014421427,0.442246015006003,1.45543401383685,"ssf","mf.ss","exp","unif",5,"ssfOUT_30_2_2_BADGER","BADGER",2,0.5,30,"preference"
"ssfOUT_30_2_2_BADGER.37",0.646650469517083,0.14660727749049,1.14669366154368,"ssf","mf.ss","exp","unif",15,"ssfOUT_30_2_2_BADGER","BADGER",2,0.5,30,"preference"
"ssfOUT_30_2_2_BADGER.38",0.941998029556147,0.456058532822026,1.42793752629027,"ssf","mf.ss","exp","unif",50,"ssfOUT_30_2_2_BADGER","BADGER",2,0.5,30,"preference"
"ssfOUT_30_2_2_BADGER.39",0.922309572895273,0.433888500836206,1.41073064495434,"ssf","mf.ss","exp","unif",158,"ssfOUT_30_2_2_BADGER","BADGER",2,0.5,30,"preference"
"ssfOUT_30_2_2_BADGER.40",0.93785438460353,0.450204579361589,1.42550418984547,"ssf","mf.ss","exp","unif",500,"ssfOUT_30_2_2_BADGER","BADGER",2,0.5,30,"preference"
"ssfOUT_30_2_2_VULTURE.1",0.874846656536719,0.261505585603436,1.48818772747,"ssf","mf.is","gamma","vonmises",5,"ssfOUT_30_2_2_VULTURE","VULTURE",2,0.5,30,"preference"
"ssfOUT_30_2_2_VULTURE.2",0.710415355789455,0.112489728380929,1.30834098319798,"ssf","mf.is","gamma","vonmises",15,"ssfOUT_30_2_2_VULTURE","VULTURE",2,0.5,30,"preference"
"ssfOUT_30_2_2_VULTURE.3",0.714819332472032,0.125565156956009,1.30407350798806,"ssf","mf.is","gamma","vonmises",50,"ssfOUT_30_2_2_VULTURE","VULTURE",2,0.5,30,"preference"
"ssfOUT_30_2_2_VULTURE.4",0.826921835566775,0.240384807792446,1.4134588633411,"ssf","mf.is","gamma","vonmises",158,"ssfOUT_30_2_2_VULTURE","VULTURE",2,0.5,30,"preference"
"ssfOUT_30_2_2_VULTURE.5",0.759571662843352,0.173004407118504,1.3461389185682,"ssf","mf.is","gamma","vonmises",500,"ssfOUT_30_2_2_VULTURE","VULTURE",2,0.5,30,"preference"
"ssfOUT_30_2_2_VULTURE.6",0.68372973360616,0.066660706709225,1.30079876050309,"ssf","mf.is","gamma","unif",5,"ssfOUT_30_2_2_VULTURE","VULTURE",2,0.5,30,"preference"
"ssfOUT_30_2_2_VULTURE.7",0.746873715063862,0.149943293128223,1.3438041369995,"ssf","mf.is","gamma","unif",15,"ssfOUT_30_2_2_VULTURE","VULTURE",2,0.5,30,"preference"
"ssfOUT_30_2_2_VULTURE.8",0.761651548747475,0.173480526726529,1.34982257076842,"ssf","mf.is","gamma","unif",50,"ssfOUT_30_2_2_VULTURE","VULTURE",2,0.5,30,"preference"
"ssfOUT_30_2_2_VULTURE.9",0.78415724369923,0.196661564962441,1.37165292243602,"ssf","mf.is","gamma","unif",158,"ssfOUT_30_2_2_VULTURE","VULTURE",2,0.5,30,"preference"
"ssfOUT_30_2_2_VULTURE.10",0.77144828460427,0.184925293404638,1.3579712758039,"ssf","mf.is","gamma","unif",500,"ssfOUT_30_2_2_VULTURE","VULTURE",2,0.5,30,"preference"
"ssfOUT_30_2_2_VULTURE.11",1.04219003786905,0.429785445916337,1.65459462982176,"ssf","mf.is","exp","vonmises",5,"ssfOUT_30_2_2_VULTURE","VULTURE",2,0.5,30,"preference"
"ssfOUT_30_2_2_VULTURE.12",0.532395262789189,-0.0689613098622083,1.13375183544059,"ssf","mf.is","exp","vonmises",15,"ssfOUT_30_2_2_VULTURE","VULTURE",2,0.5,30,"no effect"
"ssfOUT_30_2_2_VULTURE.13",0.739635390495049,0.150058214882259,1.32921256610784,"ssf","mf.is","exp","vonmises",50,"ssfOUT_30_2_2_VULTURE","VULTURE",2,0.5,30,"preference"
"ssfOUT_30_2_2_VULTURE.14",0.755794842488565,0.168338326521399,1.34325135845573,"ssf","mf.is","exp","vonmises",158,"ssfOUT_30_2_2_VULTURE","VULTURE",2,0.5,30,"preference"
"ssfOUT_30_2_2_VULTURE.15",0.750060288183966,0.163444193083671,1.33667638328426,"ssf","mf.is","exp","vonmises",500,"ssfOUT_30_2_2_VULTURE","VULTURE",2,0.5,30,"preference"
"ssfOUT_30_2_2_VULTURE.16",0.738179333870421,0.117799663250202,1.35855900449064,"ssf","mf.is","exp","unif",5,"ssfOUT_30_2_2_VULTURE","VULTURE",2,0.5,30,"preference"
"ssfOUT_30_2_2_VULTURE.17",0.817543064819941,0.222661206095009,1.41242492354487,"ssf","mf.is","exp","unif",15,"ssfOUT_30_2_2_VULTURE","VULTURE",2,0.5,30,"preference"
"ssfOUT_30_2_2_VULTURE.18",0.738156299611756,0.148003858101062,1.32830874112245,"ssf","mf.is","exp","unif",50,"ssfOUT_30_2_2_VULTURE","VULTURE",2,0.5,30,"preference"
"ssfOUT_30_2_2_VULTURE.19",0.733453600153608,0.146148475801546,1.32075872450567,"ssf","mf.is","exp","unif",158,"ssfOUT_30_2_2_VULTURE","VULTURE",2,0.5,30,"preference"
"ssfOUT_30_2_2_VULTURE.20",0.742403453634989,0.155745258224959,1.32906164904502,"ssf","mf.is","exp","unif",500,"ssfOUT_30_2_2_VULTURE","VULTURE",2,0.5,30,"preference"
"ssfOUT_30_2_2_VULTURE.21",0.84706719594887,0.235020243274195,1.45911414862355,"ssf","mf.ss","gamma","vonmises",5,"ssfOUT_30_2_2_VULTURE","VULTURE",2,0.5,30,"preference"
"ssfOUT_30_2_2_VULTURE.22",0.701568769962035,0.103750999756183,1.29938654016789,"ssf","mf.ss","gamma","vonmises",15,"ssfOUT_30_2_2_VULTURE","VULTURE",2,0.5,30,"preference"
"ssfOUT_30_2_2_VULTURE.23",0.702932797015517,0.113693733782498,1.29217186024854,"ssf","mf.ss","gamma","vonmises",50,"ssfOUT_30_2_2_VULTURE","VULTURE",2,0.5,30,"preference"
"ssfOUT_30_2_2_VULTURE.24",0.819395047375914,0.233029747420831,1.405760347331,"ssf","mf.ss","gamma","vonmises",158,"ssfOUT_30_2_2_VULTURE","VULTURE",2,0.5,30,"preference"
"ssfOUT_30_2_2_VULTURE.25",0.75168391896845,0.16524448995563,1.33812334798127,"ssf","mf.ss","gamma","vonmises",500,"ssfOUT_30_2_2_VULTURE","VULTURE",2,0.5,30,"preference"
"ssfOUT_30_2_2_VULTURE.26",0.683433115046483,0.0668670287780496,1.29999920131492,"ssf","mf.ss","gamma","unif",5,"ssfOUT_30_2_2_VULTURE","VULTURE",2,0.5,30,"preference"
"ssfOUT_30_2_2_VULTURE.27",0.737297229154291,0.140356750521973,1.33423770778661,"ssf","mf.ss","gamma","unif",15,"ssfOUT_30_2_2_VULTURE","VULTURE",2,0.5,30,"preference"
"ssfOUT_30_2_2_VULTURE.28",0.751076421386693,0.162913854223328,1.33923898855006,"ssf","mf.ss","gamma","unif",50,"ssfOUT_30_2_2_VULTURE","VULTURE",2,0.5,30,"preference"
"ssfOUT_30_2_2_VULTURE.29",0.777323529677035,0.189848976189128,1.36479808316494,"ssf","mf.ss","gamma","unif",158,"ssfOUT_30_2_2_VULTURE","VULTURE",2,0.5,30,"preference"
"ssfOUT_30_2_2_VULTURE.30",0.76496975475327,0.178549805847868,1.35138970365867,"ssf","mf.ss","gamma","unif",500,"ssfOUT_30_2_2_VULTURE","VULTURE",2,0.5,30,"preference"
"ssfOUT_30_2_2_VULTURE.31",0.89807604014994,0.2902349638199,1.50591711647998,"ssf","mf.ss","exp","vonmises",5,"ssfOUT_30_2_2_VULTURE","VULTURE",2,0.5,30,"preference"
"ssfOUT_30_2_2_VULTURE.32",0.55484246846492,-0.0461423527796284,1.15582728970947,"ssf","mf.ss","exp","vonmises",15,"ssfOUT_30_2_2_VULTURE","VULTURE",2,0.5,30,"no effect"
"ssfOUT_30_2_2_VULTURE.33",0.756092744238908,0.1649218488088,1.34726363966902,"ssf","mf.ss","exp","vonmises",50,"ssfOUT_30_2_2_VULTURE","VULTURE",2,0.5,30,"preference"
"ssfOUT_30_2_2_VULTURE.34",0.747552395555419,0.158433977970486,1.33667081314035,"ssf","mf.ss","exp","vonmises",158,"ssfOUT_30_2_2_VULTURE","VULTURE",2,0.5,30,"preference"
"ssfOUT_30_2_2_VULTURE.35",0.759581882619327,0.17072627399635,1.3484374912423,"ssf","mf.ss","exp","vonmises",500,"ssfOUT_30_2_2_VULTURE","VULTURE",2,0.5,30,"preference"
"ssfOUT_30_2_2_VULTURE.36",0.748044213741042,0.136870061615064,1.35921836586702,"ssf","mf.ss","exp","unif",5,"ssfOUT_30_2_2_VULTURE","VULTURE",2,0.5,30,"preference"
"ssfOUT_30_2_2_VULTURE.37",0.810338562394409,0.215475149413001,1.40520197537582,"ssf","mf.ss","exp","unif",15,"ssfOUT_30_2_2_VULTURE","VULTURE",2,0.5,30,"preference"
"ssfOUT_30_2_2_VULTURE.38",0.703276298193418,0.112631697136966,1.29392089924987,"ssf","mf.ss","exp","unif",50,"ssfOUT_30_2_2_VULTURE","VULTURE",2,0.5,30,"preference"
"ssfOUT_30_2_2_VULTURE.39",0.714342907875664,0.125812742827225,1.3028730729241,"ssf","mf.ss","exp","unif",158,"ssfOUT_30_2_2_VULTURE","VULTURE",2,0.5,30,"preference"
"ssfOUT_30_2_2_VULTURE.40",0.729355820387528,0.140551787993934,1.31815985278112,"ssf","mf.ss","exp","unif",500,"ssfOUT_30_2_2_VULTURE","VULTURE",2,0.5,30,"preference"
"ssfOUT_30_2_2_KINGCOBRA.1",0.222068579044015,-0.578237845043335,1.02237500313137,"ssf","mf.is","gamma","vonmises",5,"ssfOUT_30_2_2_KINGCOBRA","KINGCOBRA",2,0.5,30,"no effect"
"ssfOUT_30_2_2_KINGCOBRA.2",0.980531052184146,0.214421263594141,1.74664084077415,"ssf","mf.is","gamma","vonmises",15,"ssfOUT_30_2_2_KINGCOBRA","KINGCOBRA",2,0.5,30,"preference"
"ssfOUT_30_2_2_KINGCOBRA.3",0.832007800418919,0.077051749257028,1.58696385158081,"ssf","mf.is","gamma","vonmises",50,"ssfOUT_30_2_2_KINGCOBRA","KINGCOBRA",2,0.5,30,"preference"
"ssfOUT_30_2_2_KINGCOBRA.4",0.839868200142731,0.0786279924607127,1.60110840782475,"ssf","mf.is","gamma","vonmises",158,"ssfOUT_30_2_2_KINGCOBRA","KINGCOBRA",2,0.5,30,"preference"
"ssfOUT_30_2_2_KINGCOBRA.5",0.844417163773308,0.0843253836553858,1.60450894389123,"ssf","mf.is","gamma","vonmises",500,"ssfOUT_30_2_2_KINGCOBRA","KINGCOBRA",2,0.5,30,"preference"
"ssfOUT_30_2_2_KINGCOBRA.6",0.735775523623985,-0.118541727025787,1.59009277427376,"ssf","mf.is","gamma","unif",5,"ssfOUT_30_2_2_KINGCOBRA","KINGCOBRA",2,0.5,30,"no effect"
"ssfOUT_30_2_2_KINGCOBRA.7",0.870356994030679,0.0774909747953246,1.66322301326603,"ssf","mf.is","gamma","unif",15,"ssfOUT_30_2_2_KINGCOBRA","KINGCOBRA",2,0.5,30,"preference"
"ssfOUT_30_2_2_KINGCOBRA.8",0.727583730639849,-0.0422269216366964,1.49739438291639,"ssf","mf.is","gamma","unif",50,"ssfOUT_30_2_2_KINGCOBRA","KINGCOBRA",2,0.5,30,"no effect"
"ssfOUT_30_2_2_KINGCOBRA.9",0.885191802247972,0.119841840739382,1.65054176375656,"ssf","mf.is","gamma","unif",158,"ssfOUT_30_2_2_KINGCOBRA","KINGCOBRA",2,0.5,30,"preference"
"ssfOUT_30_2_2_KINGCOBRA.10",0.879623919953081,0.118121374043843,1.64112646586232,"ssf","mf.is","gamma","unif",500,"ssfOUT_30_2_2_KINGCOBRA","KINGCOBRA",2,0.5,30,"preference"
"ssfOUT_30_2_2_KINGCOBRA.11",0.492456813408664,-0.35905421010379,1.34396783692112,"ssf","mf.is","exp","vonmises",5,"ssfOUT_30_2_2_KINGCOBRA","KINGCOBRA",2,0.5,30,"no effect"
"ssfOUT_30_2_2_KINGCOBRA.12",1.21835420139817,0.366634485944441,2.0700739168519,"ssf","mf.is","exp","vonmises",15,"ssfOUT_30_2_2_KINGCOBRA","KINGCOBRA",2,0.5,30,"preference"
"ssfOUT_30_2_2_KINGCOBRA.13",0.878531174290424,0.101300229740309,1.65576211884054,"ssf","mf.is","exp","vonmises",50,"ssfOUT_30_2_2_KINGCOBRA","KINGCOBRA",2,0.5,30,"preference"
"ssfOUT_30_2_2_KINGCOBRA.14",0.790552780140625,0.0246748173035894,1.55643074297766,"ssf","mf.is","exp","vonmises",158,"ssfOUT_30_2_2_KINGCOBRA","KINGCOBRA",2,0.5,30,"preference"
"ssfOUT_30_2_2_KINGCOBRA.15",0.880422127229429,0.111451442146142,1.64939281231272,"ssf","mf.is","exp","vonmises",500,"ssfOUT_30_2_2_KINGCOBRA","KINGCOBRA",2,0.5,30,"preference"
"ssfOUT_30_2_2_KINGCOBRA.16",0.7376231349305,-0.0692443157399305,1.54449058560093,"ssf","mf.is","exp","unif",5,"ssfOUT_30_2_2_KINGCOBRA","KINGCOBRA",2,0.5,30,"no effect"
"ssfOUT_30_2_2_KINGCOBRA.17",0.648827913214102,-0.0935932206002894,1.39124904702849,"ssf","mf.is","exp","unif",15,"ssfOUT_30_2_2_KINGCOBRA","KINGCOBRA",2,0.5,30,"no effect"
"ssfOUT_30_2_2_KINGCOBRA.18",0.64965375902305,-0.0986666664619453,1.39797418450805,"ssf","mf.is","exp","unif",50,"ssfOUT_30_2_2_KINGCOBRA","KINGCOBRA",2,0.5,30,"no effect"
"ssfOUT_30_2_2_KINGCOBRA.19",0.689137693792113,-0.0731573234370585,1.45143271102128,"ssf","mf.is","exp","unif",158,"ssfOUT_30_2_2_KINGCOBRA","KINGCOBRA",2,0.5,30,"no effect"
"ssfOUT_30_2_2_KINGCOBRA.20",0.816768892109943,0.0580045032094872,1.5755332810104,"ssf","mf.is","exp","unif",500,"ssfOUT_30_2_2_KINGCOBRA","KINGCOBRA",2,0.5,30,"preference"
"ssfOUT_30_2_2_KINGCOBRA.21",0.284685510845554,-0.508128536636892,1.077499558328,"ssf","mf.ss","gamma","vonmises",5,"ssfOUT_30_2_2_KINGCOBRA","KINGCOBRA",2,0.5,30,"no effect"
"ssfOUT_30_2_2_KINGCOBRA.22",1.04642273004568,0.272813390978115,1.82003206911324,"ssf","mf.ss","gamma","vonmises",15,"ssfOUT_30_2_2_KINGCOBRA","KINGCOBRA",2,0.5,30,"preference"
"ssfOUT_30_2_2_KINGCOBRA.23",0.935147566601723,0.175940317113054,1.69435481609039,"ssf","mf.ss","gamma","vonmises",50,"ssfOUT_30_2_2_KINGCOBRA","KINGCOBRA",2,0.5,30,"preference"
"ssfOUT_30_2_2_KINGCOBRA.24",0.868786018346807,0.109325137733551,1.62824689896006,"ssf","mf.ss","gamma","vonmises",158,"ssfOUT_30_2_2_KINGCOBRA","KINGCOBRA",2,0.5,30,"preference"
"ssfOUT_30_2_2_KINGCOBRA.25",0.910513704457753,0.149272277931855,1.67175513098365,"ssf","mf.ss","gamma","vonmises",500,"ssfOUT_30_2_2_KINGCOBRA","KINGCOBRA",2,0.5,30,"preference"
"ssfOUT_30_2_2_KINGCOBRA.26",0.809144702635984,-0.0338210608138677,1.65211046608584,"ssf","mf.ss","gamma","unif",5,"ssfOUT_30_2_2_KINGCOBRA","KINGCOBRA",2,0.5,30,"no effect"
"ssfOUT_30_2_2_KINGCOBRA.27",0.838326488407443,0.0559085554711234,1.62074442134376,"ssf","mf.ss","gamma","unif",15,"ssfOUT_30_2_2_KINGCOBRA","KINGCOBRA",2,0.5,30,"preference"
"ssfOUT_30_2_2_KINGCOBRA.28",0.760286190070903,-0.00904523898999576,1.5296176191318,"ssf","mf.ss","gamma","unif",50,"ssfOUT_30_2_2_KINGCOBRA","KINGCOBRA",2,0.5,30,"no effect"
"ssfOUT_30_2_2_KINGCOBRA.29",0.920663187628446,0.153810645237853,1.68751573001904,"ssf","mf.ss","gamma","unif",158,"ssfOUT_30_2_2_KINGCOBRA","KINGCOBRA",2,0.5,30,"preference"
"ssfOUT_30_2_2_KINGCOBRA.30",0.901936934417568,0.139915891201976,1.66395797763316,"ssf","mf.ss","gamma","unif",500,"ssfOUT_30_2_2_KINGCOBRA","KINGCOBRA",2,0.5,30,"preference"
"ssfOUT_30_2_2_KINGCOBRA.31",0.8062183993558,0.0193712372398535,1.59306556147175,"ssf","mf.ss","exp","vonmises",5,"ssfOUT_30_2_2_KINGCOBRA","KINGCOBRA",2,0.5,30,"preference"
"ssfOUT_30_2_2_KINGCOBRA.32",1.06754867109478,0.318078617556238,1.81701872463332,"ssf","mf.ss","exp","vonmises",15,"ssfOUT_30_2_2_KINGCOBRA","KINGCOBRA",2,0.5,30,"preference"
"ssfOUT_30_2_2_KINGCOBRA.33",1.05653730232728,0.326519115171408,1.78655548948316,"ssf","mf.ss","exp","vonmises",50,"ssfOUT_30_2_2_KINGCOBRA","KINGCOBRA",2,0.5,30,"preference"
"ssfOUT_30_2_2_KINGCOBRA.34",0.999246709037413,0.264247104498682,1.73424631357614,"ssf","mf.ss","exp","vonmises",158,"ssfOUT_30_2_2_KINGCOBRA","KINGCOBRA",2,0.5,30,"preference"
"ssfOUT_30_2_2_KINGCOBRA.35",1.02138821920396,0.290191123402324,1.75258531500559,"ssf","mf.ss","exp","vonmises",500,"ssfOUT_30_2_2_KINGCOBRA","KINGCOBRA",2,0.5,30,"preference"
"ssfOUT_30_2_2_KINGCOBRA.36",1.28375404131042,0.517804534969132,2.04970354765171,"ssf","mf.ss","exp","unif",5,"ssfOUT_30_2_2_KINGCOBRA","KINGCOBRA",2,0.5,30,"preference"
"ssfOUT_30_2_2_KINGCOBRA.37",1.17687093384968,0.434044008256298,1.91969785944306,"ssf","mf.ss","exp","unif",15,"ssfOUT_30_2_2_KINGCOBRA","KINGCOBRA",2,0.5,30,"preference"
"ssfOUT_30_2_2_KINGCOBRA.38",1.0010858037607,0.276873454827669,1.72529815269373,"ssf","mf.ss","exp","unif",50,"ssfOUT_30_2_2_KINGCOBRA","KINGCOBRA",2,0.5,30,"preference"
"ssfOUT_30_2_2_KINGCOBRA.39",1.05907027902216,0.330754171021823,1.78738638702249,"ssf","mf.ss","exp","unif",158,"ssfOUT_30_2_2_KINGCOBRA","KINGCOBRA",2,0.5,30,"preference"
"ssfOUT_30_2_2_KINGCOBRA.40",0.981330569238275,0.253623216751739,1.70903792172481,"ssf","mf.ss","exp","unif",500,"ssfOUT_30_2_2_KINGCOBRA","KINGCOBRA",2,0.5,30,"preference"
"ssfOUT_30_2_3_BADGER.1",-0.121724593931537,-0.542899105567039,0.299449917703966,"ssf","mf.is","gamma","vonmises",5,"ssfOUT_30_2_3_BADGER","BADGER",3,0.5,30,"no effect"
"ssfOUT_30_2_3_BADGER.2",0.0272024421791173,-0.365636784802968,0.420041669161202,"ssf","mf.is","gamma","vonmises",15,"ssfOUT_30_2_3_BADGER","BADGER",3,0.5,30,"no effect"
"ssfOUT_30_2_3_BADGER.3",0.057450910628393,-0.325319856126455,0.440221677383241,"ssf","mf.is","gamma","vonmises",50,"ssfOUT_30_2_3_BADGER","BADGER",3,0.5,30,"no effect"
"ssfOUT_30_2_3_BADGER.4",0.0632917553408019,-0.319295985133083,0.445879495814687,"ssf","mf.is","gamma","vonmises",158,"ssfOUT_30_2_3_BADGER","BADGER",3,0.5,30,"no effect"
"ssfOUT_30_2_3_BADGER.5",0.0786956303239771,-0.302421043006789,0.459812303654743,"ssf","mf.is","gamma","vonmises",500,"ssfOUT_30_2_3_BADGER","BADGER",3,0.5,30,"no effect"
"ssfOUT_30_2_3_BADGER.6",-0.0252995735865168,-0.442443561134826,0.391844413961792,"ssf","mf.is","gamma","unif",5,"ssfOUT_30_2_3_BADGER","BADGER",3,0.5,30,"no effect"
"ssfOUT_30_2_3_BADGER.7",-0.0459295101524454,-0.441451325200149,0.349592304895258,"ssf","mf.is","gamma","unif",15,"ssfOUT_30_2_3_BADGER","BADGER",3,0.5,30,"no effect"
"ssfOUT_30_2_3_BADGER.8",0.123994764405806,-0.261799703281673,0.509789232093284,"ssf","mf.is","gamma","unif",50,"ssfOUT_30_2_3_BADGER","BADGER",3,0.5,30,"no effect"
"ssfOUT_30_2_3_BADGER.9",0.0592010800695897,-0.322942403946805,0.441344564085985,"ssf","mf.is","gamma","unif",158,"ssfOUT_30_2_3_BADGER","BADGER",3,0.5,30,"no effect"
"ssfOUT_30_2_3_BADGER.10",0.0944599319466371,-0.2861135648093,0.475033428702574,"ssf","mf.is","gamma","unif",500,"ssfOUT_30_2_3_BADGER","BADGER",3,0.5,30,"no effect"
"ssfOUT_30_2_3_BADGER.11",-0.214170971650051,-0.63212801970372,0.203786076403618,"ssf","mf.is","exp","vonmises",5,"ssfOUT_30_2_3_BADGER","BADGER",3,0.5,30,"no effect"
"ssfOUT_30_2_3_BADGER.12",0.0606898958447176,-0.329628198973168,0.451007990662603,"ssf","mf.is","exp","vonmises",15,"ssfOUT_30_2_3_BADGER","BADGER",3,0.5,30,"no effect"
"ssfOUT_30_2_3_BADGER.13",0.129300651276065,-0.252898115924782,0.511499418476912,"ssf","mf.is","exp","vonmises",50,"ssfOUT_30_2_3_BADGER","BADGER",3,0.5,30,"no effect"
"ssfOUT_30_2_3_BADGER.14",0.0771531415738915,-0.304469087853481,0.458775371001264,"ssf","mf.is","exp","vonmises",158,"ssfOUT_30_2_3_BADGER","BADGER",3,0.5,30,"no effect"
"ssfOUT_30_2_3_BADGER.15",0.0579940314637791,-0.322848834489268,0.438836897416826,"ssf","mf.is","exp","vonmises",500,"ssfOUT_30_2_3_BADGER","BADGER",3,0.5,30,"no effect"
"ssfOUT_30_2_3_BADGER.16",0.193516004301453,-0.21340586949583,0.600437878098736,"ssf","mf.is","exp","unif",5,"ssfOUT_30_2_3_BADGER","BADGER",3,0.5,30,"no effect"
"ssfOUT_30_2_3_BADGER.17",0.211650820561954,-0.18188921765138,0.605190858775288,"ssf","mf.is","exp","unif",15,"ssfOUT_30_2_3_BADGER","BADGER",3,0.5,30,"no effect"
"ssfOUT_30_2_3_BADGER.18",0.0396169693969707,-0.34491059521757,0.424144534011511,"ssf","mf.is","exp","unif",50,"ssfOUT_30_2_3_BADGER","BADGER",3,0.5,30,"no effect"
"ssfOUT_30_2_3_BADGER.19",0.0834673694856359,-0.300215520779389,0.46715025975066,"ssf","mf.is","exp","unif",158,"ssfOUT_30_2_3_BADGER","BADGER",3,0.5,30,"no effect"
"ssfOUT_30_2_3_BADGER.20",0.110887484949183,-0.270288191395514,0.492063161293881,"ssf","mf.is","exp","unif",500,"ssfOUT_30_2_3_BADGER","BADGER",3,0.5,30,"no effect"
"ssfOUT_30_2_3_BADGER.21",-0.106566781656901,-0.526478237995985,0.313344674682184,"ssf","mf.ss","gamma","vonmises",5,"ssfOUT_30_2_3_BADGER","BADGER",3,0.5,30,"no effect"
"ssfOUT_30_2_3_BADGER.22",0.03012843125243,-0.362723140386172,0.422980002891033,"ssf","mf.ss","gamma","vonmises",15,"ssfOUT_30_2_3_BADGER","BADGER",3,0.5,30,"no effect"
"ssfOUT_30_2_3_BADGER.23",0.0580425489208083,-0.324589033463628,0.440674131305245,"ssf","mf.ss","gamma","vonmises",50,"ssfOUT_30_2_3_BADGER","BADGER",3,0.5,30,"no effect"
"ssfOUT_30_2_3_BADGER.24",0.0599053069970652,-0.322866967206418,0.442677581200548,"ssf","mf.ss","gamma","vonmises",158,"ssfOUT_30_2_3_BADGER","BADGER",3,0.5,30,"no effect"
"ssfOUT_30_2_3_BADGER.25",0.0801994585834523,-0.300880582881604,0.461279500048509,"ssf","mf.ss","gamma","vonmises",500,"ssfOUT_30_2_3_BADGER","BADGER",3,0.5,30,"no effect"
"ssfOUT_30_2_3_BADGER.26",-0.0176932064089444,-0.434195855338504,0.398809442520616,"ssf","mf.ss","gamma","unif",5,"ssfOUT_30_2_3_BADGER","BADGER",3,0.5,30,"no effect"
"ssfOUT_30_2_3_BADGER.27",-0.044967598919147,-0.439584431076332,0.349649233238038,"ssf","mf.ss","gamma","unif",15,"ssfOUT_30_2_3_BADGER","BADGER",3,0.5,30,"no effect"
"ssfOUT_30_2_3_BADGER.28",0.122150701994767,-0.26351403338235,0.507815437371884,"ssf","mf.ss","gamma","unif",50,"ssfOUT_30_2_3_BADGER","BADGER",3,0.5,30,"no effect"
"ssfOUT_30_2_3_BADGER.29",0.0601535974919771,-0.321807398855428,0.442114593839382,"ssf","mf.ss","gamma","unif",158,"ssfOUT_30_2_3_BADGER","BADGER",3,0.5,30,"no effect"
"ssfOUT_30_2_3_BADGER.30",0.0972553571673788,-0.28311691677694,0.477627631111698,"ssf","mf.ss","gamma","unif",500,"ssfOUT_30_2_3_BADGER","BADGER",3,0.5,30,"no effect"
"ssfOUT_30_2_3_BADGER.31",-0.226763156195719,-0.644109656916458,0.19058334452502,"ssf","mf.ss","exp","vonmises",5,"ssfOUT_30_2_3_BADGER","BADGER",3,0.5,30,"no effect"
"ssfOUT_30_2_3_BADGER.32",0.0605637031158088,-0.330396526999136,0.451523933230753,"ssf","mf.ss","exp","vonmises",15,"ssfOUT_30_2_3_BADGER","BADGER",3,0.5,30,"no effect"
"ssfOUT_30_2_3_BADGER.33",0.132110776970534,-0.251073792981667,0.515295346922736,"ssf","mf.ss","exp","vonmises",50,"ssfOUT_30_2_3_BADGER","BADGER",3,0.5,30,"no effect"
"ssfOUT_30_2_3_BADGER.34",0.083253048595923,-0.299138268420358,0.465644365612204,"ssf","mf.ss","exp","vonmises",158,"ssfOUT_30_2_3_BADGER","BADGER",3,0.5,30,"no effect"
"ssfOUT_30_2_3_BADGER.35",0.0633426934950534,-0.318513906572422,0.445199293562529,"ssf","mf.ss","exp","vonmises",500,"ssfOUT_30_2_3_BADGER","BADGER",3,0.5,30,"no effect"
"ssfOUT_30_2_3_BADGER.36",0.212717820451312,-0.194446664673771,0.619882305576395,"ssf","mf.ss","exp","unif",5,"ssfOUT_30_2_3_BADGER","BADGER",3,0.5,30,"no effect"
"ssfOUT_30_2_3_BADGER.37",0.211007369102277,-0.182967773653029,0.604982511857584,"ssf","mf.ss","exp","unif",15,"ssfOUT_30_2_3_BADGER","BADGER",3,0.5,30,"no effect"
"ssfOUT_30_2_3_BADGER.38",0.0525724441877042,-0.332648165215636,0.437793053591044,"ssf","mf.ss","exp","unif",50,"ssfOUT_30_2_3_BADGER","BADGER",3,0.5,30,"no effect"
"ssfOUT_30_2_3_BADGER.39",0.0955783906932526,-0.289084353795715,0.48024113518222,"ssf","mf.ss","exp","unif",158,"ssfOUT_30_2_3_BADGER","BADGER",3,0.5,30,"no effect"
"ssfOUT_30_2_3_BADGER.40",0.120133512066042,-0.2615955196758,0.501862543807883,"ssf","mf.ss","exp","unif",500,"ssfOUT_30_2_3_BADGER","BADGER",3,0.5,30,"no effect"
"ssfOUT_30_2_3_VULTURE.1",-0.00320917030757869,-0.530231630821295,0.523813290206138,"ssf","mf.is","gamma","vonmises",5,"ssfOUT_30_2_3_VULTURE","VULTURE",3,0.5,30,"no effect"
"ssfOUT_30_2_3_VULTURE.2",0.0466033866947704,-0.439380574066641,0.532587347456182,"ssf","mf.is","gamma","vonmises",15,"ssfOUT_30_2_3_VULTURE","VULTURE",3,0.5,30,"no effect"
"ssfOUT_30_2_3_VULTURE.3",0.199959732795428,-0.27367474114519,0.673594206736046,"ssf","mf.is","gamma","vonmises",50,"ssfOUT_30_2_3_VULTURE","VULTURE",3,0.5,30,"no effect"
"ssfOUT_30_2_3_VULTURE.4",0.194028676957465,-0.271682833467353,0.659740187382282,"ssf","mf.is","gamma","vonmises",158,"ssfOUT_30_2_3_VULTURE","VULTURE",3,0.5,30,"no effect"
"ssfOUT_30_2_3_VULTURE.5",0.15757396228217,-0.309180031666815,0.624327956231154,"ssf","mf.is","gamma","vonmises",500,"ssfOUT_30_2_3_VULTURE","VULTURE",3,0.5,30,"no effect"
"ssfOUT_30_2_3_VULTURE.6",0.0220640106960429,-0.497564911799906,0.541692933191991,"ssf","mf.is","gamma","unif",5,"ssfOUT_30_2_3_VULTURE","VULTURE",3,0.5,30,"no effect"
"ssfOUT_30_2_3_VULTURE.7",0.127674573542451,-0.357358894792432,0.612708041877334,"ssf","mf.is","gamma","unif",15,"ssfOUT_30_2_3_VULTURE","VULTURE",3,0.5,30,"no effect"
"ssfOUT_30_2_3_VULTURE.8",0.132326691482572,-0.342106535197343,0.606759918162488,"ssf","mf.is","gamma","unif",50,"ssfOUT_30_2_3_VULTURE","VULTURE",3,0.5,30,"no effect"
"ssfOUT_30_2_3_VULTURE.9",0.0963163692330738,-0.371077894217426,0.563710632683574,"ssf","mf.is","gamma","unif",158,"ssfOUT_30_2_3_VULTURE","VULTURE",3,0.5,30,"no effect"
"ssfOUT_30_2_3_VULTURE.10",0.13736621003338,-0.328918720491471,0.603651140558231,"ssf","mf.is","gamma","unif",500,"ssfOUT_30_2_3_VULTURE","VULTURE",3,0.5,30,"no effect"
"ssfOUT_30_2_3_VULTURE.11",0.303121385045224,-0.24430546177616,0.850548231866608,"ssf","mf.is","exp","vonmises",5,"ssfOUT_30_2_3_VULTURE","VULTURE",3,0.5,30,"no effect"
"ssfOUT_30_2_3_VULTURE.12",0.10633756093595,-0.372498301955694,0.585173423827594,"ssf","mf.is","exp","vonmises",15,"ssfOUT_30_2_3_VULTURE","VULTURE",3,0.5,30,"no effect"
"ssfOUT_30_2_3_VULTURE.13",0.198283023041016,-0.272034459034982,0.668600505117014,"ssf","mf.is","exp","vonmises",50,"ssfOUT_30_2_3_VULTURE","VULTURE",3,0.5,30,"no effect"
"ssfOUT_30_2_3_VULTURE.14",0.205660718402183,-0.264116396935135,0.675437833739501,"ssf","mf.is","exp","vonmises",158,"ssfOUT_30_2_3_VULTURE","VULTURE",3,0.5,30,"no effect"
"ssfOUT_30_2_3_VULTURE.15",0.128253969571518,-0.338519604459938,0.595027543602974,"ssf","mf.is","exp","vonmises",500,"ssfOUT_30_2_3_VULTURE","VULTURE",3,0.5,30,"no effect"
"ssfOUT_30_2_3_VULTURE.16",0.50048325473396,-0.0212407187774747,1.0222072282454,"ssf","mf.is","exp","unif",5,"ssfOUT_30_2_3_VULTURE","VULTURE",3,0.5,30,"no effect"
"ssfOUT_30_2_3_VULTURE.17",0.335260480402358,-0.14281587355357,0.813336834358286,"ssf","mf.is","exp","unif",15,"ssfOUT_30_2_3_VULTURE","VULTURE",3,0.5,30,"no effect"
"ssfOUT_30_2_3_VULTURE.18",0.0480918727366497,-0.425961593079918,0.522145338553218,"ssf","mf.is","exp","unif",50,"ssfOUT_30_2_3_VULTURE","VULTURE",3,0.5,30,"no effect"
"ssfOUT_30_2_3_VULTURE.19",0.212053890190239,-0.256562791421843,0.680670571802321,"ssf","mf.is","exp","unif",158,"ssfOUT_30_2_3_VULTURE","VULTURE",3,0.5,30,"no effect"
"ssfOUT_30_2_3_VULTURE.20",0.128971904768148,-0.337222418881201,0.595166228417496,"ssf","mf.is","exp","unif",500,"ssfOUT_30_2_3_VULTURE","VULTURE",3,0.5,30,"no effect"
"ssfOUT_30_2_3_VULTURE.21",0.0974580504964828,-0.425517823000047,0.620433923993012,"ssf","mf.ss","gamma","vonmises",5,"ssfOUT_30_2_3_VULTURE","VULTURE",3,0.5,30,"no effect"
"ssfOUT_30_2_3_VULTURE.22",0.0573702849603861,-0.428420523121018,0.54316109304179,"ssf","mf.ss","gamma","vonmises",15,"ssfOUT_30_2_3_VULTURE","VULTURE",3,0.5,30,"no effect"
"ssfOUT_30_2_3_VULTURE.23",0.190407646561904,-0.282569827812319,0.663385120936128,"ssf","mf.ss","gamma","vonmises",50,"ssfOUT_30_2_3_VULTURE","VULTURE",3,0.5,30,"no effect"
"ssfOUT_30_2_3_VULTURE.24",0.187937109160193,-0.277688002986002,0.653562221306388,"ssf","mf.ss","gamma","vonmises",158,"ssfOUT_30_2_3_VULTURE","VULTURE",3,0.5,30,"no effect"
"ssfOUT_30_2_3_VULTURE.25",0.150650973919559,-0.315797193633156,0.617099141472274,"ssf","mf.ss","gamma","vonmises",500,"ssfOUT_30_2_3_VULTURE","VULTURE",3,0.5,30,"no effect"
"ssfOUT_30_2_3_VULTURE.26",0.0855286709522904,-0.429923230673869,0.60098057257845,"ssf","mf.ss","gamma","unif",5,"ssfOUT_30_2_3_VULTURE","VULTURE",3,0.5,30,"no effect"
"ssfOUT_30_2_3_VULTURE.27",0.136367800272946,-0.346685111140819,0.619420711686711,"ssf","mf.ss","gamma","unif",15,"ssfOUT_30_2_3_VULTURE","VULTURE",3,0.5,30,"no effect"
"ssfOUT_30_2_3_VULTURE.28",0.127762687841413,-0.345521693336213,0.60104706901904,"ssf","mf.ss","gamma","unif",50,"ssfOUT_30_2_3_VULTURE","VULTURE",3,0.5,30,"no effect"
"ssfOUT_30_2_3_VULTURE.29",0.104197434235091,-0.362853619770941,0.571248488241123,"ssf","mf.ss","gamma","unif",158,"ssfOUT_30_2_3_VULTURE","VULTURE",3,0.5,30,"no effect"
"ssfOUT_30_2_3_VULTURE.30",0.144236721508537,-0.322160403489008,0.610633846506083,"ssf","mf.ss","gamma","unif",500,"ssfOUT_30_2_3_VULTURE","VULTURE",3,0.5,30,"no effect"
"ssfOUT_30_2_3_VULTURE.31",0.165943336305168,-0.3769655455793,0.708852218189637,"ssf","mf.ss","exp","vonmises",5,"ssfOUT_30_2_3_VULTURE","VULTURE",3,0.5,30,"no effect"
"ssfOUT_30_2_3_VULTURE.32",0.119075477458389,-0.361375322088428,0.599526277005206,"ssf","mf.ss","exp","vonmises",15,"ssfOUT_30_2_3_VULTURE","VULTURE",3,0.5,30,"no effect"
"ssfOUT_30_2_3_VULTURE.33",0.181643914427181,-0.289120273866688,0.652408102721049,"ssf","mf.ss","exp","vonmises",50,"ssfOUT_30_2_3_VULTURE","VULTURE",3,0.5,30,"no effect"
"ssfOUT_30_2_3_VULTURE.34",0.200879601056249,-0.27271318477852,0.674472386891018,"ssf","mf.ss","exp","vonmises",158,"ssfOUT_30_2_3_VULTURE","VULTURE",3,0.5,30,"no effect"
"ssfOUT_30_2_3_VULTURE.35",0.147940022488498,-0.321258521233837,0.617138566210832,"ssf","mf.ss","exp","vonmises",500,"ssfOUT_30_2_3_VULTURE","VULTURE",3,0.5,30,"no effect"
"ssfOUT_30_2_3_VULTURE.36",0.347256267286035,-0.163852622106873,0.858365156678943,"ssf","mf.ss","exp","unif",5,"ssfOUT_30_2_3_VULTURE","VULTURE",3,0.5,30,"no effect"
"ssfOUT_30_2_3_VULTURE.37",0.359622296230562,-0.117006861447416,0.83625145390854,"ssf","mf.ss","exp","unif",15,"ssfOUT_30_2_3_VULTURE","VULTURE",3,0.5,30,"no effect"
"ssfOUT_30_2_3_VULTURE.38",0.109229187417976,-0.364307130096985,0.582765504932938,"ssf","mf.ss","exp","unif",50,"ssfOUT_30_2_3_VULTURE","VULTURE",3,0.5,30,"no effect"
"ssfOUT_30_2_3_VULTURE.39",0.19454304111895,-0.275356153083706,0.664442235321607,"ssf","mf.ss","exp","unif",158,"ssfOUT_30_2_3_VULTURE","VULTURE",3,0.5,30,"no effect"
"ssfOUT_30_2_3_VULTURE.40",0.151322221267866,-0.317408572428543,0.620053014964276,"ssf","mf.ss","exp","unif",500,"ssfOUT_30_2_3_VULTURE","VULTURE",3,0.5,30,"no effect"
"ssfOUT_30_2_3_KINGCOBRA.1",14.785311197946,-1729.91517389408,1759.48579628997,"ssf","mf.is","gamma","vonmises",5,"ssfOUT_30_2_3_KINGCOBRA","KINGCOBRA",3,0.5,30,"no effect"
"ssfOUT_30_2_3_KINGCOBRA.2",16.0049745053652,-1904.23186862337,1936.2418176341,"ssf","mf.is","gamma","vonmises",15,"ssfOUT_30_2_3_KINGCOBRA","KINGCOBRA",3,0.5,30,"no effect"
"ssfOUT_30_2_3_KINGCOBRA.3",14.7536737280796,-1453.63800858952,1483.14535604568,"ssf","mf.is","gamma","vonmises",50,"ssfOUT_30_2_3_KINGCOBRA","KINGCOBRA",3,0.5,30,"no effect"
"ssfOUT_30_2_3_KINGCOBRA.4",14.8020050000398,-1169.01756649874,1198.62157649882,"ssf","mf.is","gamma","vonmises",158,"ssfOUT_30_2_3_KINGCOBRA","KINGCOBRA",3,0.5,30,"no effect"
"ssfOUT_30_2_3_KINGCOBRA.5",14.8582829059354,-1229.50927579314,1259.22584160501,"ssf","mf.is","gamma","vonmises",500,"ssfOUT_30_2_3_KINGCOBRA","KINGCOBRA",3,0.5,30,"no effect"
"ssfOUT_30_2_3_KINGCOBRA.6",16.3861113005469,-2319.21448396251,2351.98670656361,"ssf","mf.is","gamma","unif",5,"ssfOUT_30_2_3_KINGCOBRA","KINGCOBRA",3,0.5,30,"no effect"
"ssfOUT_30_2_3_KINGCOBRA.7",16.0782086841674,-1909.47683412749,1941.63325149583,"ssf","mf.is","gamma","unif",15,"ssfOUT_30_2_3_KINGCOBRA","KINGCOBRA",3,0.5,30,"no effect"
"ssfOUT_30_2_3_KINGCOBRA.8",14.7348919773431,-1290.37911758852,1319.84890154321,"ssf","mf.is","gamma","unif",50,"ssfOUT_30_2_3_KINGCOBRA","KINGCOBRA",3,0.5,30,"no effect"
"ssfOUT_30_2_3_KINGCOBRA.9",14.8024078095527,-1166.60262764979,1196.20744326889,"ssf","mf.is","gamma","unif",158,"ssfOUT_30_2_3_KINGCOBRA","KINGCOBRA",3,0.5,30,"no effect"
"ssfOUT_30_2_3_KINGCOBRA.10",14.8009405626636,-1207.44737396062,1237.04925508595,"ssf","mf.is","gamma","unif",500,"ssfOUT_30_2_3_KINGCOBRA","KINGCOBRA",3,0.5,30,"no effect"
"ssfOUT_30_2_3_KINGCOBRA.11",20.8594520357102,-2629.7364415482,2671.45534561962,"ssf","mf.is","exp","vonmises",5,"ssfOUT_30_2_3_KINGCOBRA","KINGCOBRA",3,0.5,30,"no effect"
"ssfOUT_30_2_3_KINGCOBRA.12",14.4845074960236,-1688.56598996131,1717.53500495336,"ssf","mf.is","exp","vonmises",15,"ssfOUT_30_2_3_KINGCOBRA","KINGCOBRA",3,0.5,30,"no effect"
"ssfOUT_30_2_3_KINGCOBRA.13",15.525433776185,-1451.53999987926,1482.59086743163,"ssf","mf.is","exp","vonmises",50,"ssfOUT_30_2_3_KINGCOBRA","KINGCOBRA",3,0.5,30,"no effect"
"ssfOUT_30_2_3_KINGCOBRA.14",16.5904788538094,-1637.40419210549,1670.58514981311,"ssf","mf.is","exp","vonmises",158,"ssfOUT_30_2_3_KINGCOBRA","KINGCOBRA",3,0.5,30,"no effect"
"ssfOUT_30_2_3_KINGCOBRA.15",14.7479144296361,-1004.95955498054,1034.45538383981,"ssf","mf.is","exp","vonmises",500,"ssfOUT_30_2_3_KINGCOBRA","KINGCOBRA",3,0.5,30,"no effect"
"ssfOUT_30_2_3_KINGCOBRA.16",15.223565437776,-2053.21286153648,2083.65999241203,"ssf","mf.is","exp","unif",5,"ssfOUT_30_2_3_KINGCOBRA","KINGCOBRA",3,0.5,30,"no effect"
"ssfOUT_30_2_3_KINGCOBRA.17",14.55420329346,-1702.54210657401,1731.65051316093,"ssf","mf.is","exp","unif",15,"ssfOUT_30_2_3_KINGCOBRA","KINGCOBRA",3,0.5,30,"no effect"
"ssfOUT_30_2_3_KINGCOBRA.18",14.5876151395003,-1475.6136470312,1504.7888773102,"ssf","mf.is","exp","unif",50,"ssfOUT_30_2_3_KINGCOBRA","KINGCOBRA",3,0.5,30,"no effect"
"ssfOUT_30_2_3_KINGCOBRA.19",16.21565275533,-1430.70142986751,1463.13273537817,"ssf","mf.is","exp","unif",158,"ssfOUT_30_2_3_KINGCOBRA","KINGCOBRA",3,0.5,30,"no effect"
"ssfOUT_30_2_3_KINGCOBRA.20",14.3912619242161,-1126.46197450128,1155.24449834971,"ssf","mf.is","exp","unif",500,"ssfOUT_30_2_3_KINGCOBRA","KINGCOBRA",3,0.5,30,"no effect"
"ssfOUT_30_2_3_KINGCOBRA.21",15.18567879784,-1701.53333781911,1731.90469541479,"ssf","mf.ss","gamma","vonmises",5,"ssfOUT_30_2_3_KINGCOBRA","KINGCOBRA",3,0.5,30,"no effect"
"ssfOUT_30_2_3_KINGCOBRA.22",15.9148833195006,-1847.42799239745,1879.25775903645,"ssf","mf.ss","gamma","vonmises",15,"ssfOUT_30_2_3_KINGCOBRA","KINGCOBRA",3,0.5,30,"no effect"
"ssfOUT_30_2_3_KINGCOBRA.23",14.8291825362083,-1413.03187920647,1442.69024427888,"ssf","mf.ss","gamma","vonmises",50,"ssfOUT_30_2_3_KINGCOBRA","KINGCOBRA",3,0.5,30,"no effect"
"ssfOUT_30_2_3_KINGCOBRA.24",14.8486025751734,-1138.1987313173,1167.89593646764,"ssf","mf.ss","gamma","vonmises",158,"ssfOUT_30_2_3_KINGCOBRA","KINGCOBRA",3,0.5,30,"no effect"
"ssfOUT_30_2_3_KINGCOBRA.25",14.8804667361301,-1196.39744848693,1226.15838195919,"ssf","mf.ss","gamma","vonmises",500,"ssfOUT_30_2_3_KINGCOBRA","KINGCOBRA",3,0.5,30,"no effect"
"ssfOUT_30_2_3_KINGCOBRA.26",16.1675240188671,-2195.09160070848,2227.42664874621,"ssf","mf.ss","gamma","unif",5,"ssfOUT_30_2_3_KINGCOBRA","KINGCOBRA",3,0.5,30,"no effect"
"ssfOUT_30_2_3_KINGCOBRA.27",16.053608660896,-1868.00380253573,1900.11101985752,"ssf","mf.ss","gamma","unif",15,"ssfOUT_30_2_3_KINGCOBRA","KINGCOBRA",3,0.5,30,"no effect"
"ssfOUT_30_2_3_KINGCOBRA.28",14.7281782925942,-1259.0905258569,1288.54688244209,"ssf","mf.ss","gamma","unif",50,"ssfOUT_30_2_3_KINGCOBRA","KINGCOBRA",3,0.5,30,"no effect"
"ssfOUT_30_2_3_KINGCOBRA.29",14.75248650701,-1141.43719427038,1170.9421672844,"ssf","mf.ss","gamma","unif",158,"ssfOUT_30_2_3_KINGCOBRA","KINGCOBRA",3,0.5,30,"no effect"
"ssfOUT_30_2_3_KINGCOBRA.30",14.7879567233529,-1184.0553387449,1213.63125219161,"ssf","mf.ss","gamma","unif",500,"ssfOUT_30_2_3_KINGCOBRA","KINGCOBRA",3,0.5,30,"no effect"
"ssfOUT_30_2_3_KINGCOBRA.31",14.6582201311898,-1647.0500826862,1676.36652294857,"ssf","mf.ss","exp","vonmises",5,"ssfOUT_30_2_3_KINGCOBRA","KINGCOBRA",3,0.5,30,"no effect"
"ssfOUT_30_2_3_KINGCOBRA.32",15.0464470837614,-1310.21644696534,1340.30934113286,"ssf","mf.ss","exp","vonmises",15,"ssfOUT_30_2_3_KINGCOBRA","KINGCOBRA",3,0.5,30,"no effect"
"ssfOUT_30_2_3_KINGCOBRA.33",15.0694793967373,-1139.18082349098,1169.31978228445,"ssf","mf.ss","exp","vonmises",50,"ssfOUT_30_2_3_KINGCOBRA","KINGCOBRA",3,0.5,30,"no effect"
"ssfOUT_30_2_3_KINGCOBRA.34",15.0460481858891,-1222.16212309406,1252.25421946584,"ssf","mf.ss","exp","vonmises",158,"ssfOUT_30_2_3_KINGCOBRA","KINGCOBRA",3,0.5,30,"no effect"
"ssfOUT_30_2_3_KINGCOBRA.35",15.1195918039094,-1231.34054729989,1261.57973090771,"ssf","mf.ss","exp","vonmises",500,"ssfOUT_30_2_3_KINGCOBRA","KINGCOBRA",3,0.5,30,"no effect"
"ssfOUT_30_2_3_KINGCOBRA.36",15.9172328787104,-2123.64535316628,2155.4798189237,"ssf","mf.ss","exp","unif",5,"ssfOUT_30_2_3_KINGCOBRA","KINGCOBRA",3,0.5,30,"no effect"
"ssfOUT_30_2_3_KINGCOBRA.37",14.6672303673171,-1411.62957488533,1440.96403561997,"ssf","mf.ss","exp","unif",15,"ssfOUT_30_2_3_KINGCOBRA","KINGCOBRA",3,0.5,30,"no effect"
"ssfOUT_30_2_3_KINGCOBRA.38",14.9142742441697,-1515.05597452235,1544.88452301069,"ssf","mf.ss","exp","unif",50,"ssfOUT_30_2_3_KINGCOBRA","KINGCOBRA",3,0.5,30,"no effect"
"ssfOUT_30_2_3_KINGCOBRA.39",14.9896126269575,-1262.25644226777,1292.23566752168,"ssf","mf.ss","exp","unif",158,"ssfOUT_30_2_3_KINGCOBRA","KINGCOBRA",3,0.5,30,"no effect"
"ssfOUT_30_2_3_KINGCOBRA.40",15.0447986631009,-1212.52920143187,1242.61879875807,"ssf","mf.ss","exp","unif",500,"ssfOUT_30_2_3_KINGCOBRA","KINGCOBRA",3,0.5,30,"no effect"
"ssfOUT_30_2_4_BADGER.1",1.40334805505388,0.788507821121638,2.01818828898612,"ssf","mf.is","gamma","vonmises",5,"ssfOUT_30_2_4_BADGER","BADGER",4,0.5,30,"preference"
"ssfOUT_30_2_4_BADGER.2",1.03810707991083,0.440961058801701,1.63525310101996,"ssf","mf.is","gamma","vonmises",15,"ssfOUT_30_2_4_BADGER","BADGER",4,0.5,30,"preference"
"ssfOUT_30_2_4_BADGER.3",1.23356629124756,0.641245242680723,1.82588733981439,"ssf","mf.is","gamma","vonmises",50,"ssfOUT_30_2_4_BADGER","BADGER",4,0.5,30,"preference"
"ssfOUT_30_2_4_BADGER.4",1.14916718748358,0.557443398953223,1.74089097601394,"ssf","mf.is","gamma","vonmises",158,"ssfOUT_30_2_4_BADGER","BADGER",4,0.5,30,"preference"
"ssfOUT_30_2_4_BADGER.5",1.16457289215407,0.572514486230275,1.75663129807786,"ssf","mf.is","gamma","vonmises",500,"ssfOUT_30_2_4_BADGER","BADGER",4,0.5,30,"preference"
"ssfOUT_30_2_4_BADGER.6",0.908506936417999,0.283407274983864,1.53360659785213,"ssf","mf.is","gamma","unif",5,"ssfOUT_30_2_4_BADGER","BADGER",4,0.5,30,"preference"
"ssfOUT_30_2_4_BADGER.7",1.21778445940855,0.617464523169695,1.81810439564741,"ssf","mf.is","gamma","unif",15,"ssfOUT_30_2_4_BADGER","BADGER",4,0.5,30,"preference"
"ssfOUT_30_2_4_BADGER.8",1.04158635611737,0.448434758997817,1.63473795323692,"ssf","mf.is","gamma","unif",50,"ssfOUT_30_2_4_BADGER","BADGER",4,0.5,30,"preference"
"ssfOUT_30_2_4_BADGER.9",1.11635542488181,0.524775767312327,1.70793508245129,"ssf","mf.is","gamma","unif",158,"ssfOUT_30_2_4_BADGER","BADGER",4,0.5,30,"preference"
"ssfOUT_30_2_4_BADGER.10",1.15114940808475,0.559975119479841,1.74232369668966,"ssf","mf.is","gamma","unif",500,"ssfOUT_30_2_4_BADGER","BADGER",4,0.5,30,"preference"
"ssfOUT_30_2_4_BADGER.11",1.33350276826674,0.711137372655951,1.95586816387752,"ssf","mf.is","exp","vonmises",5,"ssfOUT_30_2_4_BADGER","BADGER",4,0.5,30,"preference"
"ssfOUT_30_2_4_BADGER.12",1.14302991485029,0.54599078403035,1.74006904567023,"ssf","mf.is","exp","vonmises",15,"ssfOUT_30_2_4_BADGER","BADGER",4,0.5,30,"preference"
"ssfOUT_30_2_4_BADGER.13",1.22445598224465,0.630668840601769,1.81824312388753,"ssf","mf.is","exp","vonmises",50,"ssfOUT_30_2_4_BADGER","BADGER",4,0.5,30,"preference"
"ssfOUT_30_2_4_BADGER.14",1.16765975555943,0.575370211616333,1.75994929950253,"ssf","mf.is","exp","vonmises",158,"ssfOUT_30_2_4_BADGER","BADGER",4,0.5,30,"preference"
"ssfOUT_30_2_4_BADGER.15",1.16345221116004,0.572488717849317,1.75441570447076,"ssf","mf.is","exp","vonmises",500,"ssfOUT_30_2_4_BADGER","BADGER",4,0.5,30,"preference"
"ssfOUT_30_2_4_BADGER.16",0.732181273734619,0.106790193803398,1.35757235366584,"ssf","mf.is","exp","unif",5,"ssfOUT_30_2_4_BADGER","BADGER",4,0.5,30,"preference"
"ssfOUT_30_2_4_BADGER.17",1.09115102946958,0.487383797769158,1.69491826117001,"ssf","mf.is","exp","unif",15,"ssfOUT_30_2_4_BADGER","BADGER",4,0.5,30,"preference"
"ssfOUT_30_2_4_BADGER.18",1.13128906229929,0.538037803288134,1.72454032131044,"ssf","mf.is","exp","unif",50,"ssfOUT_30_2_4_BADGER","BADGER",4,0.5,30,"preference"
"ssfOUT_30_2_4_BADGER.19",1.1346380842989,0.544178214132441,1.72509795446536,"ssf","mf.is","exp","unif",158,"ssfOUT_30_2_4_BADGER","BADGER",4,0.5,30,"preference"
"ssfOUT_30_2_4_BADGER.20",1.17089011092929,0.5805034878221,1.76127673403648,"ssf","mf.is","exp","unif",500,"ssfOUT_30_2_4_BADGER","BADGER",4,0.5,30,"preference"
"ssfOUT_30_2_4_BADGER.21",1.33734347782414,0.722952776134027,1.95173417951425,"ssf","mf.ss","gamma","vonmises",5,"ssfOUT_30_2_4_BADGER","BADGER",4,0.5,30,"preference"
"ssfOUT_30_2_4_BADGER.22",1.00376130465642,0.406727163909269,1.60079544540357,"ssf","mf.ss","gamma","vonmises",15,"ssfOUT_30_2_4_BADGER","BADGER",4,0.5,30,"preference"
"ssfOUT_30_2_4_BADGER.23",1.20295632529134,0.610374511933737,1.79553813864893,"ssf","mf.ss","gamma","vonmises",50,"ssfOUT_30_2_4_BADGER","BADGER",4,0.5,30,"preference"
"ssfOUT_30_2_4_BADGER.24",1.12678360959423,0.534867694134399,1.71869952505406,"ssf","mf.ss","gamma","vonmises",158,"ssfOUT_30_2_4_BADGER","BADGER",4,0.5,30,"preference"
"ssfOUT_30_2_4_BADGER.25",1.14762921167659,0.555090614466669,1.74016780888651,"ssf","mf.ss","gamma","vonmises",500,"ssfOUT_30_2_4_BADGER","BADGER",4,0.5,30,"preference"
"ssfOUT_30_2_4_BADGER.26",0.888390136391174,0.26480417559172,1.51197609719063,"ssf","mf.ss","gamma","unif",5,"ssfOUT_30_2_4_BADGER","BADGER",4,0.5,30,"preference"
"ssfOUT_30_2_4_BADGER.27",1.19248479270675,0.591842064221742,1.79312752119177,"ssf","mf.ss","gamma","unif",15,"ssfOUT_30_2_4_BADGER","BADGER",4,0.5,30,"preference"
"ssfOUT_30_2_4_BADGER.28",1.02610026714349,0.432767862903306,1.61943267138368,"ssf","mf.ss","gamma","unif",50,"ssfOUT_30_2_4_BADGER","BADGER",4,0.5,30,"preference"
"ssfOUT_30_2_4_BADGER.29",1.10694224902496,0.515258716189432,1.69862578186048,"ssf","mf.ss","gamma","unif",158,"ssfOUT_30_2_4_BADGER","BADGER",4,0.5,30,"preference"
"ssfOUT_30_2_4_BADGER.30",1.13852599854113,0.54717716751759,1.72987482956466,"ssf","mf.ss","gamma","unif",500,"ssfOUT_30_2_4_BADGER","BADGER",4,0.5,30,"preference"
"ssfOUT_30_2_4_BADGER.31",1.31803064087974,0.694621909040164,1.94143937271932,"ssf","mf.ss","exp","vonmises",5,"ssfOUT_30_2_4_BADGER","BADGER",4,0.5,30,"preference"
"ssfOUT_30_2_4_BADGER.32",1.13663613379995,0.539780376451493,1.73349189114841,"ssf","mf.ss","exp","vonmises",15,"ssfOUT_30_2_4_BADGER","BADGER",4,0.5,30,"preference"
"ssfOUT_30_2_4_BADGER.33",1.22308728356876,0.629132204498852,1.81704236263866,"ssf","mf.ss","exp","vonmises",50,"ssfOUT_30_2_4_BADGER","BADGER",4,0.5,30,"preference"
"ssfOUT_30_2_4_BADGER.34",1.17642657932354,0.584147962206179,1.7687051964409,"ssf","mf.ss","exp","vonmises",158,"ssfOUT_30_2_4_BADGER","BADGER",4,0.5,30,"preference"
"ssfOUT_30_2_4_BADGER.35",1.16135995965942,0.570443868400492,1.75227605091835,"ssf","mf.ss","exp","vonmises",500,"ssfOUT_30_2_4_BADGER","BADGER",4,0.5,30,"preference"
"ssfOUT_30_2_4_BADGER.36",0.760939860977508,0.1373550399865,1.38452468196852,"ssf","mf.ss","exp","unif",5,"ssfOUT_30_2_4_BADGER","BADGER",4,0.5,30,"preference"
"ssfOUT_30_2_4_BADGER.37",1.10113247505203,0.49763993397461,1.70462501612946,"ssf","mf.ss","exp","unif",15,"ssfOUT_30_2_4_BADGER","BADGER",4,0.5,30,"preference"
"ssfOUT_30_2_4_BADGER.38",1.13258879072472,0.539303158197917,1.72587442325151,"ssf","mf.ss","exp","unif",50,"ssfOUT_30_2_4_BADGER","BADGER",4,0.5,30,"preference"
"ssfOUT_30_2_4_BADGER.39",1.13165571249535,0.541384289005854,1.72192713598484,"ssf","mf.ss","exp","unif",158,"ssfOUT_30_2_4_BADGER","BADGER",4,0.5,30,"preference"
"ssfOUT_30_2_4_BADGER.40",1.17113792695841,0.580995578970826,1.76128027494599,"ssf","mf.ss","exp","unif",500,"ssfOUT_30_2_4_BADGER","BADGER",4,0.5,30,"preference"
"ssfOUT_30_2_4_VULTURE.1",0.0602851387084146,-0.413012916267804,0.533583193684633,"ssf","mf.is","gamma","vonmises",5,"ssfOUT_30_2_4_VULTURE","VULTURE",4,0.5,30,"no effect"
"ssfOUT_30_2_4_VULTURE.2",0.381151575078498,-0.0497428300340139,0.81204598019101,"ssf","mf.is","gamma","vonmises",15,"ssfOUT_30_2_4_VULTURE","VULTURE",4,0.5,30,"no effect"
"ssfOUT_30_2_4_VULTURE.3",0.393775527961552,-0.0307163959183883,0.818267451841492,"ssf","mf.is","gamma","vonmises",50,"ssfOUT_30_2_4_VULTURE","VULTURE",4,0.5,30,"no effect"
"ssfOUT_30_2_4_VULTURE.4",0.425872961670358,0.00509228080421747,0.846653642536499,"ssf","mf.is","gamma","vonmises",158,"ssfOUT_30_2_4_VULTURE","VULTURE",4,0.5,30,"preference"
"ssfOUT_30_2_4_VULTURE.5",0.35624666607558,-0.064431164990057,0.776924497141217,"ssf","mf.is","gamma","vonmises",500,"ssfOUT_30_2_4_VULTURE","VULTURE",4,0.5,30,"no effect"
"ssfOUT_30_2_4_VULTURE.6",0.343332254873067,-0.108144845894662,0.794809355640795,"ssf","mf.is","gamma","unif",5,"ssfOUT_30_2_4_VULTURE","VULTURE",4,0.5,30,"no effect"
"ssfOUT_30_2_4_VULTURE.7",0.0503532391611368,-0.385642603955665,0.486349082277939,"ssf","mf.is","gamma","unif",15,"ssfOUT_30_2_4_VULTURE","VULTURE",4,0.5,30,"no effect"
"ssfOUT_30_2_4_VULTURE.8",0.315842442115845,-0.106835359670397,0.738520243902087,"ssf","mf.is","gamma","unif",50,"ssfOUT_30_2_4_VULTURE","VULTURE",4,0.5,30,"no effect"
"ssfOUT_30_2_4_VULTURE.9",0.379395315995269,-0.041928982574621,0.800719614565158,"ssf","mf.is","gamma","unif",158,"ssfOUT_30_2_4_VULTURE","VULTURE",4,0.5,30,"no effect"
"ssfOUT_30_2_4_VULTURE.10",0.390012626807955,-0.0303918804734322,0.810417134089342,"ssf","mf.is","gamma","unif",500,"ssfOUT_30_2_4_VULTURE","VULTURE",4,0.5,30,"no effect"
"ssfOUT_30_2_4_VULTURE.11",0.0732499426737941,-0.389709298357713,0.536209183705301,"ssf","mf.is","exp","vonmises",5,"ssfOUT_30_2_4_VULTURE","VULTURE",4,0.5,30,"no effect"
"ssfOUT_30_2_4_VULTURE.12",0.66008966686175,0.228467476190532,1.09171185753297,"ssf","mf.is","exp","vonmises",15,"ssfOUT_30_2_4_VULTURE","VULTURE",4,0.5,30,"preference"
"ssfOUT_30_2_4_VULTURE.13",0.296520432118082,-0.128092402093657,0.721133266329822,"ssf","mf.is","exp","vonmises",50,"ssfOUT_30_2_4_VULTURE","VULTURE",4,0.5,30,"no effect"
"ssfOUT_30_2_4_VULTURE.14",0.343759857740748,-0.0784043898628294,0.765924105344326,"ssf","mf.is","exp","vonmises",158,"ssfOUT_30_2_4_VULTURE","VULTURE",4,0.5,30,"no effect"
"ssfOUT_30_2_4_VULTURE.15",0.383764108319282,-0.0367055344940895,0.804233751132653,"ssf","mf.is","exp","vonmises",500,"ssfOUT_30_2_4_VULTURE","VULTURE",4,0.5,30,"no effect"
"ssfOUT_30_2_4_VULTURE.16",0.062200593947099,-0.405397140408493,0.52979832830269,"ssf","mf.is","exp","unif",5,"ssfOUT_30_2_4_VULTURE","VULTURE",4,0.5,30,"no effect"
"ssfOUT_30_2_4_VULTURE.17",0.297267495493363,-0.136924539770959,0.731459530757686,"ssf","mf.is","exp","unif",15,"ssfOUT_30_2_4_VULTURE","VULTURE",4,0.5,30,"no effect"
"ssfOUT_30_2_4_VULTURE.18",0.33180941577788,-0.0931929230385805,0.756811754594341,"ssf","mf.is","exp","unif",50,"ssfOUT_30_2_4_VULTURE","VULTURE",4,0.5,30,"no effect"
"ssfOUT_30_2_4_VULTURE.19",0.393192285115038,-0.027689006032655,0.814073576262732,"ssf","mf.is","exp","unif",158,"ssfOUT_30_2_4_VULTURE","VULTURE",4,0.5,30,"no effect"
"ssfOUT_30_2_4_VULTURE.20",0.367740652979976,-0.0527192500798578,0.788200556039811,"ssf","mf.is","exp","unif",500,"ssfOUT_30_2_4_VULTURE","VULTURE",4,0.5,30,"no effect"
"ssfOUT_30_2_4_VULTURE.21",0.0502350413233622,-0.422891242450012,0.523361325096736,"ssf","mf.ss","gamma","vonmises",5,"ssfOUT_30_2_4_VULTURE","VULTURE",4,0.5,30,"no effect"
"ssfOUT_30_2_4_VULTURE.22",0.386501042453297,-0.0438312337823784,0.816833318688973,"ssf","mf.ss","gamma","vonmises",15,"ssfOUT_30_2_4_VULTURE","VULTURE",4,0.5,30,"no effect"
"ssfOUT_30_2_4_VULTURE.23",0.387050221774645,-0.0371379369041344,0.811238380453425,"ssf","mf.ss","gamma","vonmises",50,"ssfOUT_30_2_4_VULTURE","VULTURE",4,0.5,30,"no effect"
"ssfOUT_30_2_4_VULTURE.24",0.422936291008585,0.00244131474954445,0.843431267267626,"ssf","mf.ss","gamma","vonmises",158,"ssfOUT_30_2_4_VULTURE","VULTURE",4,0.5,30,"preference"
"ssfOUT_30_2_4_VULTURE.25",0.351318310883744,-0.0691124633159498,0.771749085083439,"ssf","mf.ss","gamma","vonmises",500,"ssfOUT_30_2_4_VULTURE","VULTURE",4,0.5,30,"no effect"
"ssfOUT_30_2_4_VULTURE.26",0.42771716551462,-0.0212375062302023,0.876671837259442,"ssf","mf.ss","gamma","unif",5,"ssfOUT_30_2_4_VULTURE","VULTURE",4,0.5,30,"no effect"
"ssfOUT_30_2_4_VULTURE.27",0.0828735219563143,-0.35202781713501,0.517774861047638,"ssf","mf.ss","gamma","unif",15,"ssfOUT_30_2_4_VULTURE","VULTURE",4,0.5,30,"no effect"
"ssfOUT_30_2_4_VULTURE.28",0.349866777239841,-0.0723895096278456,0.772123064107527,"ssf","mf.ss","gamma","unif",50,"ssfOUT_30_2_4_VULTURE","VULTURE",4,0.5,30,"no effect"
"ssfOUT_30_2_4_VULTURE.29",0.404519849838888,-0.0164455964376852,0.825485296115462,"ssf","mf.ss","gamma","unif",158,"ssfOUT_30_2_4_VULTURE","VULTURE",4,0.5,30,"no effect"
"ssfOUT_30_2_4_VULTURE.30",0.412861504055026,-0.00725633808707549,0.832979346197127,"ssf","mf.ss","gamma","unif",500,"ssfOUT_30_2_4_VULTURE","VULTURE",4,0.5,30,"no effect"
"ssfOUT_30_2_4_VULTURE.31",0.0982554780324351,-0.359747427833413,0.556258383898283,"ssf","mf.ss","exp","vonmises",5,"ssfOUT_30_2_4_VULTURE","VULTURE",4,0.5,30,"no effect"
"ssfOUT_30_2_4_VULTURE.32",0.551583346112954,0.121429376356581,0.981737315869327,"ssf","mf.ss","exp","vonmises",15,"ssfOUT_30_2_4_VULTURE","VULTURE",4,0.5,30,"preference"
"ssfOUT_30_2_4_VULTURE.33",0.328233958461324,-0.0965406428867612,0.753008559809409,"ssf","mf.ss","exp","vonmises",50,"ssfOUT_30_2_4_VULTURE","VULTURE",4,0.5,30,"no effect"
"ssfOUT_30_2_4_VULTURE.34",0.350494316107942,-0.0736336700281334,0.774622302244017,"ssf","mf.ss","exp","vonmises",158,"ssfOUT_30_2_4_VULTURE","VULTURE",4,0.5,30,"no effect"
"ssfOUT_30_2_4_VULTURE.35",0.389302099695376,-0.0332013824563425,0.811805581847095,"ssf","mf.ss","exp","vonmises",500,"ssfOUT_30_2_4_VULTURE","VULTURE",4,0.5,30,"no effect"
"ssfOUT_30_2_4_VULTURE.36",0.0334634776211052,-0.428313690000421,0.495240645242631,"ssf","mf.ss","exp","unif",5,"ssfOUT_30_2_4_VULTURE","VULTURE",4,0.5,30,"no effect"
"ssfOUT_30_2_4_VULTURE.37",0.324008712473708,-0.108045366634802,0.756062791582218,"ssf","mf.ss","exp","unif",15,"ssfOUT_30_2_4_VULTURE","VULTURE",4,0.5,30,"no effect"
"ssfOUT_30_2_4_VULTURE.38",0.376791130496976,-0.0484799676915854,0.802062228685537,"ssf","mf.ss","exp","unif",50,"ssfOUT_30_2_4_VULTURE","VULTURE",4,0.5,30,"no effect"
"ssfOUT_30_2_4_VULTURE.39",0.418159746633833,-0.00445892459237501,0.840778417860042,"ssf","mf.ss","exp","unif",158,"ssfOUT_30_2_4_VULTURE","VULTURE",4,0.5,30,"no effect"
"ssfOUT_30_2_4_VULTURE.40",0.406541527624045,-0.015997617265759,0.82908067251385,"ssf","mf.ss","exp","unif",500,"ssfOUT_30_2_4_VULTURE","VULTURE",4,0.5,30,"no effect"
"ssfOUT_30_2_4_KINGCOBRA.1",1.0049811003297,-0.095216374811135,2.10517857547053,"ssf","mf.is","gamma","vonmises",5,"ssfOUT_30_2_4_KINGCOBRA","KINGCOBRA",4,0.5,30,"no effect"
"ssfOUT_30_2_4_KINGCOBRA.2",0.879016587741396,-0.159726032888131,1.91775920837092,"ssf","mf.is","gamma","vonmises",15,"ssfOUT_30_2_4_KINGCOBRA","KINGCOBRA",4,0.5,30,"no effect"
"ssfOUT_30_2_4_KINGCOBRA.3",1.11609669647022,0.0971661350479156,2.13502725789252,"ssf","mf.is","gamma","vonmises",50,"ssfOUT_30_2_4_KINGCOBRA","KINGCOBRA",4,0.5,30,"preference"
"ssfOUT_30_2_4_KINGCOBRA.4",1.11956001014051,0.102769604835222,2.1363504154458,"ssf","mf.is","gamma","vonmises",158,"ssfOUT_30_2_4_KINGCOBRA","KINGCOBRA",4,0.5,30,"preference"
"ssfOUT_30_2_4_KINGCOBRA.5",1.08210790128434,0.0654589763500262,2.09875682621865,"ssf","mf.is","gamma","vonmises",500,"ssfOUT_30_2_4_KINGCOBRA","KINGCOBRA",4,0.5,30,"preference"
"ssfOUT_30_2_4_KINGCOBRA.6",1.63048744615676,0.575860329971745,2.68511456234177,"ssf","mf.is","gamma","unif",5,"ssfOUT_30_2_4_KINGCOBRA","KINGCOBRA",4,0.5,30,"preference"
"ssfOUT_30_2_4_KINGCOBRA.7",1.20061086592666,0.174713243923649,2.22650848792967,"ssf","mf.is","gamma","unif",15,"ssfOUT_30_2_4_KINGCOBRA","KINGCOBRA",4,0.5,30,"preference"
"ssfOUT_30_2_4_KINGCOBRA.8",0.886883526665589,-0.127688214297494,1.90145526762867,"ssf","mf.is","gamma","unif",50,"ssfOUT_30_2_4_KINGCOBRA","KINGCOBRA",4,0.5,30,"no effect"
"ssfOUT_30_2_4_KINGCOBRA.9",1.15371277970595,0.138462358440705,2.1689632009712,"ssf","mf.is","gamma","unif",158,"ssfOUT_30_2_4_KINGCOBRA","KINGCOBRA",4,0.5,30,"preference"
"ssfOUT_30_2_4_KINGCOBRA.10",1.12322614965359,0.106506964737963,2.13994533456922,"ssf","mf.is","gamma","unif",500,"ssfOUT_30_2_4_KINGCOBRA","KINGCOBRA",4,0.5,30,"preference"
"ssfOUT_30_2_4_KINGCOBRA.11",0.0649183714914722,-1.05174369288674,1.18158043586968,"ssf","mf.is","exp","vonmises",5,"ssfOUT_30_2_4_KINGCOBRA","KINGCOBRA",4,0.5,30,"no effect"
"ssfOUT_30_2_4_KINGCOBRA.12",1.84872671786959,0.802667057515771,2.89478637822342,"ssf","mf.is","exp","vonmises",15,"ssfOUT_30_2_4_KINGCOBRA","KINGCOBRA",4,0.5,30,"preference"
"ssfOUT_30_2_4_KINGCOBRA.13",1.46610247985239,0.437576969136659,2.49462799056812,"ssf","mf.is","exp","vonmises",50,"ssfOUT_30_2_4_KINGCOBRA","KINGCOBRA",4,0.5,30,"preference"
"ssfOUT_30_2_4_KINGCOBRA.14",0.915381700332387,-0.0977861854063602,1.92854958607113,"ssf","mf.is","exp","vonmises",158,"ssfOUT_30_2_4_KINGCOBRA","KINGCOBRA",4,0.5,30,"no effect"
"ssfOUT_30_2_4_KINGCOBRA.15",1.20042927318906,0.177400929885154,2.22345761649298,"ssf","mf.is","exp","vonmises",500,"ssfOUT_30_2_4_KINGCOBRA","KINGCOBRA",4,0.5,30,"preference"
"ssfOUT_30_2_4_KINGCOBRA.16",1.36507202168904,0.320950155722905,2.40919388765518,"ssf","mf.is","exp","unif",5,"ssfOUT_30_2_4_KINGCOBRA","KINGCOBRA",4,0.5,30,"preference"
"ssfOUT_30_2_4_KINGCOBRA.17",1.4894062361942,0.413121754953145,2.56569071743525,"ssf","mf.is","exp","unif",15,"ssfOUT_30_2_4_KINGCOBRA","KINGCOBRA",4,0.5,30,"preference"
"ssfOUT_30_2_4_KINGCOBRA.18",1.05070571401733,0.0140877308453518,2.08732369718932,"ssf","mf.is","exp","unif",50,"ssfOUT_30_2_4_KINGCOBRA","KINGCOBRA",4,0.5,30,"preference"
"ssfOUT_30_2_4_KINGCOBRA.19",1.05808020401374,0.037745057895658,2.07841535013182,"ssf","mf.is","exp","unif",158,"ssfOUT_30_2_4_KINGCOBRA","KINGCOBRA",4,0.5,30,"preference"
"ssfOUT_30_2_4_KINGCOBRA.20",1.10089289100261,0.0744824493879657,2.12730333261726,"ssf","mf.is","exp","unif",500,"ssfOUT_30_2_4_KINGCOBRA","KINGCOBRA",4,0.5,30,"preference"
"ssfOUT_30_2_4_KINGCOBRA.21",0.852825968931993,-0.224358564738974,1.93001050260296,"ssf","mf.ss","gamma","vonmises",5,"ssfOUT_30_2_4_KINGCOBRA","KINGCOBRA",4,0.5,30,"no effect"
"ssfOUT_30_2_4_KINGCOBRA.22",0.871319408980542,-0.168868734079954,1.91150755204104,"ssf","mf.ss","gamma","vonmises",15,"ssfOUT_30_2_4_KINGCOBRA","KINGCOBRA",4,0.5,30,"no effect"
"ssfOUT_30_2_4_KINGCOBRA.23",1.07036719344943,0.0529827527010271,2.08775163419783,"ssf","mf.ss","gamma","vonmises",50,"ssfOUT_30_2_4_KINGCOBRA","KINGCOBRA",4,0.5,30,"preference"
"ssfOUT_30_2_4_KINGCOBRA.24",1.11220061587669,0.0961751810081588,2.12822605074522,"ssf","mf.ss","gamma","vonmises",158,"ssfOUT_30_2_4_KINGCOBRA","KINGCOBRA",4,0.5,30,"preference"
"ssfOUT_30_2_4_KINGCOBRA.25",1.09987159216375,0.0838081791162428,2.11593500521127,"ssf","mf.ss","gamma","vonmises",500,"ssfOUT_30_2_4_KINGCOBRA","KINGCOBRA",4,0.5,30,"preference"
"ssfOUT_30_2_4_KINGCOBRA.26",1.60919979755841,0.551428574359492,2.66697102075733,"ssf","mf.ss","gamma","unif",5,"ssfOUT_30_2_4_KINGCOBRA","KINGCOBRA",4,0.5,30,"preference"
"ssfOUT_30_2_4_KINGCOBRA.27",1.18416050748911,0.159229080885589,2.20909193409263,"ssf","mf.ss","gamma","unif",15,"ssfOUT_30_2_4_KINGCOBRA","KINGCOBRA",4,0.5,30,"preference"
"ssfOUT_30_2_4_KINGCOBRA.28",0.88437429825661,-0.129780514504352,1.89852911101757,"ssf","mf.ss","gamma","unif",50,"ssfOUT_30_2_4_KINGCOBRA","KINGCOBRA",4,0.5,30,"no effect"
"ssfOUT_30_2_4_KINGCOBRA.29",1.15010113828129,0.135863564025474,2.16433871253711,"ssf","mf.ss","gamma","unif",158,"ssfOUT_30_2_4_KINGCOBRA","KINGCOBRA",4,0.5,30,"preference"
"ssfOUT_30_2_4_KINGCOBRA.30",1.13664534680949,0.121176217401231,2.15211447621775,"ssf","mf.ss","gamma","unif",500,"ssfOUT_30_2_4_KINGCOBRA","KINGCOBRA",4,0.5,30,"preference"
"ssfOUT_30_2_4_KINGCOBRA.31",0.55792326695767,-0.503254503413182,1.61910103732852,"ssf","mf.ss","exp","vonmises",5,"ssfOUT_30_2_4_KINGCOBRA","KINGCOBRA",4,0.5,30,"no effect"
"ssfOUT_30_2_4_KINGCOBRA.32",1.38536800976887,0.370743479995088,2.39999253954265,"ssf","mf.ss","exp","vonmises",15,"ssfOUT_30_2_4_KINGCOBRA","KINGCOBRA",4,0.5,30,"preference"
"ssfOUT_30_2_4_KINGCOBRA.33",1.24249336079147,0.229090004951665,2.25589671663127,"ssf","mf.ss","exp","vonmises",50,"ssfOUT_30_2_4_KINGCOBRA","KINGCOBRA",4,0.5,30,"preference"
"ssfOUT_30_2_4_KINGCOBRA.34",1.07725887766746,0.0691066709676349,2.08541108436729,"ssf","mf.ss","exp","vonmises",158,"ssfOUT_30_2_4_KINGCOBRA","KINGCOBRA",4,0.5,30,"preference"
"ssfOUT_30_2_4_KINGCOBRA.35",1.11634477173615,0.107491214304928,2.12519832916737,"ssf","mf.ss","exp","vonmises",500,"ssfOUT_30_2_4_KINGCOBRA","KINGCOBRA",4,0.5,30,"preference"
"ssfOUT_30_2_4_KINGCOBRA.36",1.29802161132693,0.268736628227255,2.32730659442661,"ssf","mf.ss","exp","unif",5,"ssfOUT_30_2_4_KINGCOBRA","KINGCOBRA",4,0.5,30,"preference"
"ssfOUT_30_2_4_KINGCOBRA.37",1.16137907752877,0.141746044404722,2.18101211065283,"ssf","mf.ss","exp","unif",15,"ssfOUT_30_2_4_KINGCOBRA","KINGCOBRA",4,0.5,30,"preference"
"ssfOUT_30_2_4_KINGCOBRA.38",1.07405400497663,0.0637060973167183,2.08440191263654,"ssf","mf.ss","exp","unif",50,"ssfOUT_30_2_4_KINGCOBRA","KINGCOBRA",4,0.5,30,"preference"
"ssfOUT_30_2_4_KINGCOBRA.39",1.0596801718734,0.0510768773241175,2.06828346642268,"ssf","mf.ss","exp","unif",158,"ssfOUT_30_2_4_KINGCOBRA","KINGCOBRA",4,0.5,30,"preference"
"ssfOUT_30_2_4_KINGCOBRA.40",1.10463999902356,0.0965803397011735,2.11269965834595,"ssf","mf.ss","exp","unif",500,"ssfOUT_30_2_4_KINGCOBRA","KINGCOBRA",4,0.5,30,"preference"
"ssfOUT_30_6_1_BADGER.1",16.5064534197398,-3246.53000238679,3279.54290922627,"ssf","mf.is","gamma","vonmises",5,"ssfOUT_30_6_1_BADGER","BADGER",1,0.166666666666667,30,"no effect"
"ssfOUT_30_6_1_BADGER.2",16.6328163932604,-2549.99398120095,2583.25961398748,"ssf","mf.is","gamma","vonmises",15,"ssfOUT_30_6_1_BADGER","BADGER",1,0.166666666666667,30,"no effect"
"ssfOUT_30_6_1_BADGER.3",16.4921607591734,-2591.79498445787,2624.77930597621,"ssf","mf.is","gamma","vonmises",50,"ssfOUT_30_6_1_BADGER","BADGER",1,0.166666666666667,30,"no effect"
"ssfOUT_30_6_1_BADGER.4",16.3962678862499,-2656.01656650293,2688.80910227543,"ssf","mf.is","gamma","vonmises",158,"ssfOUT_30_6_1_BADGER","BADGER",1,0.166666666666667,30,"no effect"
"ssfOUT_30_6_1_BADGER.5",15.3820459177065,-1614.9891479986,1645.75323983402,"ssf","mf.is","gamma","vonmises",500,"ssfOUT_30_6_1_BADGER","BADGER",1,0.166666666666667,30,"no effect"
"ssfOUT_30_6_1_BADGER.6",16.4498410489802,-3114.07178061674,3146.9714627147,"ssf","mf.is","gamma","unif",5,"ssfOUT_30_6_1_BADGER","BADGER",1,0.166666666666667,30,"no effect"
"ssfOUT_30_6_1_BADGER.7",16.5977728538031,-2657.85698211969,2691.0525278273,"ssf","mf.is","gamma","unif",15,"ssfOUT_30_6_1_BADGER","BADGER",1,0.166666666666667,30,"no effect"
"ssfOUT_30_6_1_BADGER.8",16.3392309208356,-2465.63878286591,2498.31724470758,"ssf","mf.is","gamma","unif",50,"ssfOUT_30_6_1_BADGER","BADGER",1,0.166666666666667,30,"no effect"
"ssfOUT_30_6_1_BADGER.9",16.304811794056,-2606.59355660264,2639.20318019075,"ssf","mf.is","gamma","unif",158,"ssfOUT_30_6_1_BADGER","BADGER",1,0.166666666666667,30,"no effect"
"ssfOUT_30_6_1_BADGER.10",16.3456326102641,-2501.20593461188,2533.89719983241,"ssf","mf.is","gamma","unif",500,"ssfOUT_30_6_1_BADGER","BADGER",1,0.166666666666667,30,"no effect"
"ssfOUT_30_6_1_BADGER.11",18.0083183692096,-3992.24105324558,4028.257689984,"ssf","mf.is","exp","vonmises",5,"ssfOUT_30_6_1_BADGER","BADGER",1,0.166666666666667,30,"no effect"
"ssfOUT_30_6_1_BADGER.12",16.4022184934632,-3244.16261706228,3276.96705404921,"ssf","mf.is","exp","vonmises",15,"ssfOUT_30_6_1_BADGER","BADGER",1,0.166666666666667,30,"no effect"
"ssfOUT_30_6_1_BADGER.13",16.5102105186694,-2614.1133116754,2647.13373271274,"ssf","mf.is","exp","vonmises",50,"ssfOUT_30_6_1_BADGER","BADGER",1,0.166666666666667,30,"no effect"
"ssfOUT_30_6_1_BADGER.14",16.4481503684717,-2569.06716104548,2601.96346178243,"ssf","mf.is","exp","vonmises",158,"ssfOUT_30_6_1_BADGER","BADGER",1,0.166666666666667,30,"no effect"
"ssfOUT_30_6_1_BADGER.15",15.4142426781281,-1607.24626134003,1638.07474669629,"ssf","mf.is","exp","vonmises",500,"ssfOUT_30_6_1_BADGER","BADGER",1,0.166666666666667,30,"no effect"
"ssfOUT_30_6_1_BADGER.16",16.6555449671112,-3160.15307995653,3193.46416989076,"ssf","mf.is","exp","unif",5,"ssfOUT_30_6_1_BADGER","BADGER",1,0.166666666666667,30,"no effect"
"ssfOUT_30_6_1_BADGER.17",16.5795419242276,-2552.75414376509,2585.91322761354,"ssf","mf.is","exp","unif",15,"ssfOUT_30_6_1_BADGER","BADGER",1,0.166666666666667,30,"no effect"
"ssfOUT_30_6_1_BADGER.18",16.2597592491298,-2478.39735613236,2510.91687463062,"ssf","mf.is","exp","unif",50,"ssfOUT_30_6_1_BADGER","BADGER",1,0.166666666666667,30,"no effect"
"ssfOUT_30_6_1_BADGER.19",16.3234931581189,-2580.48969640823,2613.13668272446,"ssf","mf.is","exp","unif",158,"ssfOUT_30_6_1_BADGER","BADGER",1,0.166666666666667,30,"no effect"
"ssfOUT_30_6_1_BADGER.20",15.3172491899339,-1566.72659902859,1597.36109740846,"ssf","mf.is","exp","unif",500,"ssfOUT_30_6_1_BADGER","BADGER",1,0.166666666666667,30,"no effect"
"ssfOUT_30_6_1_BADGER.21",16.5528248746985,-3201.06311333208,3234.16876308147,"ssf","mf.ss","gamma","vonmises",5,"ssfOUT_30_6_1_BADGER","BADGER",1,0.166666666666667,30,"no effect"
"ssfOUT_30_6_1_BADGER.22",16.3499820346432,-2561.4319177219,2594.13188179119,"ssf","mf.ss","gamma","vonmises",15,"ssfOUT_30_6_1_BADGER","BADGER",1,0.166666666666667,30,"no effect"
"ssfOUT_30_6_1_BADGER.23",16.3088238907058,-2604.81165053893,2637.42929832034,"ssf","mf.ss","gamma","vonmises",50,"ssfOUT_30_6_1_BADGER","BADGER",1,0.166666666666667,30,"no effect"
"ssfOUT_30_6_1_BADGER.24",16.2615035114523,-2650.45338789138,2682.97639491428,"ssf","mf.ss","gamma","vonmises",158,"ssfOUT_30_6_1_BADGER","BADGER",1,0.166666666666667,30,"no effect"
"ssfOUT_30_6_1_BADGER.25",15.2632922069812,-1614.87251797815,1645.39910239211,"ssf","mf.ss","gamma","vonmises",500,"ssfOUT_30_6_1_BADGER","BADGER",1,0.166666666666667,30,"no effect"
"ssfOUT_30_6_1_BADGER.26",16.4609234105479,-3144.68504015388,3177.60688697498,"ssf","mf.ss","gamma","unif",5,"ssfOUT_30_6_1_BADGER","BADGER",1,0.166666666666667,30,"no effect"
"ssfOUT_30_6_1_BADGER.27",16.5181492232278,-2651.13598868142,2684.17228712788,"ssf","mf.ss","gamma","unif",15,"ssfOUT_30_6_1_BADGER","BADGER",1,0.166666666666667,30,"no effect"
"ssfOUT_30_6_1_BADGER.28",16.2766947966392,-2466.40967322071,2498.96306281399,"ssf","mf.ss","gamma","unif",50,"ssfOUT_30_6_1_BADGER","BADGER",1,0.166666666666667,30,"no effect"
"ssfOUT_30_6_1_BADGER.29",16.2600436610649,-2587.72481750956,2620.24490483169,"ssf","mf.ss","gamma","unif",158,"ssfOUT_30_6_1_BADGER","BADGER",1,0.166666666666667,30,"no effect"
"ssfOUT_30_6_1_BADGER.30",16.2901514167964,-2491.05743696225,2523.63773979584,"ssf","mf.ss","gamma","unif",500,"ssfOUT_30_6_1_BADGER","BADGER",1,0.166666666666667,30,"no effect"
"ssfOUT_30_6_1_BADGER.31",17.5278661225698,-4245.03356688426,4280.0892991294,"ssf","mf.ss","exp","vonmises",5,"ssfOUT_30_6_1_BADGER","BADGER",1,0.166666666666667,30,"no effect"
"ssfOUT_30_6_1_BADGER.32",16.2944131313691,-3142.63203792343,3175.22086418616,"ssf","mf.ss","exp","vonmises",15,"ssfOUT_30_6_1_BADGER","BADGER",1,0.166666666666667,30,"no effect"
"ssfOUT_30_6_1_BADGER.33",16.2717712079282,-2660.91413571893,2693.45767813478,"ssf","mf.ss","exp","vonmises",50,"ssfOUT_30_6_1_BADGER","BADGER",1,0.166666666666667,30,"no effect"
"ssfOUT_30_6_1_BADGER.34",16.2434554292745,-2582.68307906158,2615.16998992013,"ssf","mf.ss","exp","vonmises",158,"ssfOUT_30_6_1_BADGER","BADGER",1,0.166666666666667,30,"no effect"
"ssfOUT_30_6_1_BADGER.35",15.2514540196235,-1583.9407176478,1614.44362568705,"ssf","mf.ss","exp","vonmises",500,"ssfOUT_30_6_1_BADGER","BADGER",1,0.166666666666667,30,"no effect"
"ssfOUT_30_6_1_BADGER.36",16.424942449059,-3142.06220799481,3174.91209289293,"ssf","mf.ss","exp","unif",5,"ssfOUT_30_6_1_BADGER","BADGER",1,0.166666666666667,30,"no effect"
"ssfOUT_30_6_1_BADGER.37",16.4217897919904,-2530.70923825067,2563.55281783465,"ssf","mf.ss","exp","unif",15,"ssfOUT_30_6_1_BADGER","BADGER",1,0.166666666666667,30,"no effect"
"ssfOUT_30_6_1_BADGER.38",16.2448619348983,-2594.20688716141,2626.69661103121,"ssf","mf.ss","exp","unif",50,"ssfOUT_30_6_1_BADGER","BADGER",1,0.166666666666667,30,"no effect"
"ssfOUT_30_6_1_BADGER.39",16.2365262384161,-2533.38617694195,2565.85922941878,"ssf","mf.ss","exp","unif",158,"ssfOUT_30_6_1_BADGER","BADGER",1,0.166666666666667,30,"no effect"
"ssfOUT_30_6_1_BADGER.40",15.241140954933,-1554.64160408516,1585.12388599503,"ssf","mf.ss","exp","unif",500,"ssfOUT_30_6_1_BADGER","BADGER",1,0.166666666666667,30,"no effect"
"ssfOUT_30_6_1_VULTURE.1",17.6509510955178,-4132.83473006918,4168.13663226021,"ssf","mf.is","gamma","vonmises",5,"ssfOUT_30_6_1_VULTURE","VULTURE",1,0.166666666666667,30,"no effect"
"ssfOUT_30_6_1_VULTURE.2",16.780476485451,-2654.39483574972,2687.95578872062,"ssf","mf.is","gamma","vonmises",15,"ssfOUT_30_6_1_VULTURE","VULTURE",1,0.166666666666667,30,"no effect"
"ssfOUT_30_6_1_VULTURE.3",16.467351251885,-2689.65100258105,2722.58570508482,"ssf","mf.is","gamma","vonmises",50,"ssfOUT_30_6_1_VULTURE","VULTURE",1,0.166666666666667,30,"no effect"
"ssfOUT_30_6_1_VULTURE.4",16.5828529380528,-2749.31662785176,2782.48233372787,"ssf","mf.is","gamma","vonmises",158,"ssfOUT_30_6_1_VULTURE","VULTURE",1,0.166666666666667,30,"no effect"
"ssfOUT_30_6_1_VULTURE.5",15.4878476934652,-1598.11721080469,1629.09290619162,"ssf","mf.is","gamma","vonmises",500,"ssfOUT_30_6_1_VULTURE","VULTURE",1,0.166666666666667,30,"no effect"
"ssfOUT_30_6_1_VULTURE.6",17.8161069841739,-3898.32551631054,3933.95773027889,"ssf","mf.is","gamma","unif",5,"ssfOUT_30_6_1_VULTURE","VULTURE",1,0.166666666666667,30,"no effect"
"ssfOUT_30_6_1_VULTURE.7",17.5133291850176,-3550.53041480777,3585.5570731778,"ssf","mf.is","gamma","unif",15,"ssfOUT_30_6_1_VULTURE","VULTURE",1,0.166666666666667,30,"no effect"
"ssfOUT_30_6_1_VULTURE.8",16.4725981153697,-2445.46359229825,2478.40878852899,"ssf","mf.is","gamma","unif",50,"ssfOUT_30_6_1_VULTURE","VULTURE",1,0.166666666666667,30,"no effect"
"ssfOUT_30_6_1_VULTURE.9",16.4795819326594,-2537.34218433866,2570.30134820398,"ssf","mf.is","gamma","unif",158,"ssfOUT_30_6_1_VULTURE","VULTURE",1,0.166666666666667,30,"no effect"
"ssfOUT_30_6_1_VULTURE.10",15.4802722273184,-1565.28536116601,1596.24590562065,"ssf","mf.is","gamma","unif",500,"ssfOUT_30_6_1_VULTURE","VULTURE",1,0.166666666666667,30,"no effect"
"ssfOUT_30_6_1_VULTURE.11",16.7612721125146,-3121.9901658591,3155.51271008413,"ssf","mf.is","exp","vonmises",5,"ssfOUT_30_6_1_VULTURE","VULTURE",1,0.166666666666667,30,"no effect"
"ssfOUT_30_6_1_VULTURE.12",16.783411154965,-2703.53211103942,2737.09893334935,"ssf","mf.is","exp","vonmises",15,"ssfOUT_30_6_1_VULTURE","VULTURE",1,0.166666666666667,30,"no effect"
"ssfOUT_30_6_1_VULTURE.13",16.6636294952612,-2901.58271630226,2934.90997529278,"ssf","mf.is","exp","vonmises",50,"ssfOUT_30_6_1_VULTURE","VULTURE",1,0.166666666666667,30,"no effect"
"ssfOUT_30_6_1_VULTURE.14",16.4288257447791,-2801.58535633132,2834.44300782088,"ssf","mf.is","exp","vonmises",158,"ssfOUT_30_6_1_VULTURE","VULTURE",1,0.166666666666667,30,"no effect"
"ssfOUT_30_6_1_VULTURE.15",15.5270904751766,-1593.58590108424,1624.64008203459,"ssf","mf.is","exp","vonmises",500,"ssfOUT_30_6_1_VULTURE","VULTURE",1,0.166666666666667,30,"no effect"
"ssfOUT_30_6_1_VULTURE.16",17.7444728010571,-4776.56659113508,4812.05553673719,"ssf","mf.is","exp","unif",5,"ssfOUT_30_6_1_VULTURE","VULTURE",1,0.166666666666667,30,"no effect"
"ssfOUT_30_6_1_VULTURE.17",16.8535335603576,-2989.80122635639,3023.5082934771,"ssf","mf.is","exp","unif",15,"ssfOUT_30_6_1_VULTURE","VULTURE",1,0.166666666666667,30,"no effect"
"ssfOUT_30_6_1_VULTURE.18",16.4757043888897,-2559.1936179851,2592.14502676288,"ssf","mf.is","exp","unif",50,"ssfOUT_30_6_1_VULTURE","VULTURE",1,0.166666666666667,30,"no effect"
"ssfOUT_30_6_1_VULTURE.19",16.5585057224659,-2589.94334262324,2623.06035406818,"ssf","mf.is","exp","unif",158,"ssfOUT_30_6_1_VULTURE","VULTURE",1,0.166666666666667,30,"no effect"
"ssfOUT_30_6_1_VULTURE.20",16.495435870119,-2507.06782982316,2540.0587015634,"ssf","mf.is","exp","unif",500,"ssfOUT_30_6_1_VULTURE","VULTURE",1,0.166666666666667,30,"no effect"
"ssfOUT_30_6_1_VULTURE.21",17.5358543708167,-4271.69300068936,4306.76470943099,"ssf","mf.ss","gamma","vonmises",5,"ssfOUT_30_6_1_VULTURE","VULTURE",1,0.166666666666667,30,"no effect"
"ssfOUT_30_6_1_VULTURE.22",16.4505976908443,-2637.48358404157,2670.38477942326,"ssf","mf.ss","gamma","vonmises",15,"ssfOUT_30_6_1_VULTURE","VULTURE",1,0.166666666666667,30,"no effect"
"ssfOUT_30_6_1_VULTURE.23",16.3845168560994,-2690.82492139181,2723.59395510401,"ssf","mf.ss","gamma","vonmises",50,"ssfOUT_30_6_1_VULTURE","VULTURE",1,0.166666666666667,30,"no effect"
"ssfOUT_30_6_1_VULTURE.24",16.3637371207648,-2731.3432810762,2764.07075531773,"ssf","mf.ss","gamma","vonmises",158,"ssfOUT_30_6_1_VULTURE","VULTURE",1,0.166666666666667,30,"no effect"
"ssfOUT_30_6_1_VULTURE.25",15.3301087053548,-1595.49875698642,1626.15897439713,"ssf","mf.ss","gamma","vonmises",500,"ssfOUT_30_6_1_VULTURE","VULTURE",1,0.166666666666667,30,"no effect"
"ssfOUT_30_6_1_VULTURE.26",17.7851996907087,-3933.558178313,3969.12857769442,"ssf","mf.ss","gamma","unif",5,"ssfOUT_30_6_1_VULTURE","VULTURE",1,0.166666666666667,30,"no effect"
"ssfOUT_30_6_1_VULTURE.27",17.5023917908154,-3566.47916333662,3601.48394691825,"ssf","mf.ss","gamma","unif",15,"ssfOUT_30_6_1_VULTURE","VULTURE",1,0.166666666666667,30,"no effect"
"ssfOUT_30_6_1_VULTURE.28",16.3577543496814,-2429.2671130771,2461.98262177647,"ssf","mf.ss","gamma","unif",50,"ssfOUT_30_6_1_VULTURE","VULTURE",1,0.166666666666667,30,"no effect"
"ssfOUT_30_6_1_VULTURE.29",16.3777434410012,-2523.12267483627,2555.87816171827,"ssf","mf.ss","gamma","unif",158,"ssfOUT_30_6_1_VULTURE","VULTURE",1,0.166666666666667,30,"no effect"
"ssfOUT_30_6_1_VULTURE.30",15.3600230188843,-1553.90376914076,1584.62381517853,"ssf","mf.ss","gamma","unif",500,"ssfOUT_30_6_1_VULTURE","VULTURE",1,0.166666666666667,30,"no effect"
"ssfOUT_30_6_1_VULTURE.31",16.5095363197205,-3160.38941596277,3193.40848860221,"ssf","mf.ss","exp","vonmises",5,"ssfOUT_30_6_1_VULTURE","VULTURE",1,0.166666666666667,30,"no effect"
"ssfOUT_30_6_1_VULTURE.32",16.4247608897254,-2569.46516878364,2602.31469056309,"ssf","mf.ss","exp","vonmises",15,"ssfOUT_30_6_1_VULTURE","VULTURE",1,0.166666666666667,30,"no effect"
"ssfOUT_30_6_1_VULTURE.33",16.3170529466366,-2858.90785697821,2891.54196287149,"ssf","mf.ss","exp","vonmises",50,"ssfOUT_30_6_1_VULTURE","VULTURE",1,0.166666666666667,30,"no effect"
"ssfOUT_30_6_1_VULTURE.34",16.3103261746537,-2734.61772114299,2767.23837349229,"ssf","mf.ss","exp","vonmises",158,"ssfOUT_30_6_1_VULTURE","VULTURE",1,0.166666666666667,30,"no effect"
"ssfOUT_30_6_1_VULTURE.35",15.315888856028,-1565.87150516656,1596.50328287862,"ssf","mf.ss","exp","vonmises",500,"ssfOUT_30_6_1_VULTURE","VULTURE",1,0.166666666666667,30,"no effect"
"ssfOUT_30_6_1_VULTURE.36",17.5655174340158,-4516.73637008964,4551.86740495767,"ssf","mf.ss","exp","unif",5,"ssfOUT_30_6_1_VULTURE","VULTURE",1,0.166666666666667,30,"no effect"
"ssfOUT_30_6_1_VULTURE.37",16.6314236068438,-2878.22930680737,2911.49215402106,"ssf","mf.ss","exp","unif",15,"ssfOUT_30_6_1_VULTURE","VULTURE",1,0.166666666666667,30,"no effect"
"ssfOUT_30_6_1_VULTURE.38",16.3838898069852,-2521.00597469716,2553.77375431113,"ssf","mf.ss","exp","unif",50,"ssfOUT_30_6_1_VULTURE","VULTURE",1,0.166666666666667,30,"no effect"
"ssfOUT_30_6_1_VULTURE.39",16.3338963822684,-2529.94796020266,2562.6157529672,"ssf","mf.ss","exp","unif",158,"ssfOUT_30_6_1_VULTURE","VULTURE",1,0.166666666666667,30,"no effect"
"ssfOUT_30_6_1_VULTURE.40",16.3388977056659,-2464.65149277589,2497.32928818722,"ssf","mf.ss","exp","unif",500,"ssfOUT_30_6_1_VULTURE","VULTURE",1,0.166666666666667,30,"no effect"
"ssfOUT_30_6_1_KINGCOBRA.1",15.651816358152,-3242.000708457,3273.30434117331,"ssf","mf.is","gamma","vonmises",5,"ssfOUT_30_6_1_KINGCOBRA","KINGCOBRA",1,0.166666666666667,30,"no effect"
"ssfOUT_30_6_1_KINGCOBRA.2",16.1660288295005,-3038.7030317164,3071.0350893754,"ssf","mf.is","gamma","vonmises",15,"ssfOUT_30_6_1_KINGCOBRA","KINGCOBRA",1,0.166666666666667,30,"no effect"
"ssfOUT_30_6_1_KINGCOBRA.3",15.4981522409936,-2117.62070623672,2148.61701071871,"ssf","mf.is","gamma","vonmises",50,"ssfOUT_30_6_1_KINGCOBRA","KINGCOBRA",1,0.166666666666667,30,"no effect"
"ssfOUT_30_6_1_KINGCOBRA.4",15.2142612444379,-2442.8417247387,2473.27024722758,"ssf","mf.is","gamma","vonmises",158,"ssfOUT_30_6_1_KINGCOBRA","KINGCOBRA",1,0.166666666666667,30,"no effect"
"ssfOUT_30_6_1_KINGCOBRA.5",15.4399339508967,-2134.36416196599,2165.24402986779,"ssf","mf.is","gamma","vonmises",500,"ssfOUT_30_6_1_KINGCOBRA","KINGCOBRA",1,0.166666666666667,30,"no effect"
"ssfOUT_30_6_1_KINGCOBRA.6",16.3979860030728,-4503.13362068528,4535.92959269143,"ssf","mf.is","gamma","unif",5,"ssfOUT_30_6_1_KINGCOBRA","KINGCOBRA",1,0.166666666666667,30,"no effect"
"ssfOUT_30_6_1_KINGCOBRA.7",16.5504420367514,-3088.97851789068,3122.07940196418,"ssf","mf.is","gamma","unif",15,"ssfOUT_30_6_1_KINGCOBRA","KINGCOBRA",1,0.166666666666667,30,"no effect"
"ssfOUT_30_6_1_KINGCOBRA.8",15.3405460803269,-2103.68556595964,2134.3666581203,"ssf","mf.is","gamma","unif",50,"ssfOUT_30_6_1_KINGCOBRA","KINGCOBRA",1,0.166666666666667,30,"no effect"
"ssfOUT_30_6_1_KINGCOBRA.9",15.2602889179351,-2253.12677785789,2283.64735569376,"ssf","mf.is","gamma","unif",158,"ssfOUT_30_6_1_KINGCOBRA","KINGCOBRA",1,0.166666666666667,30,"no effect"
"ssfOUT_30_6_1_KINGCOBRA.10",15.3967522910705,-2218.36576988761,2249.15927446976,"ssf","mf.is","gamma","unif",500,"ssfOUT_30_6_1_KINGCOBRA","KINGCOBRA",1,0.166666666666667,30,"no effect"
"ssfOUT_30_6_1_KINGCOBRA.11",16.8699166389304,-4971.96567792783,5005.70551120569,"ssf","mf.is","exp","vonmises",5,"ssfOUT_30_6_1_KINGCOBRA","KINGCOBRA",1,0.166666666666667,30,"no effect"
"ssfOUT_30_6_1_KINGCOBRA.12",16.4729014388759,-3088.39921203494,3121.34501491269,"ssf","mf.is","exp","vonmises",15,"ssfOUT_30_6_1_KINGCOBRA","KINGCOBRA",1,0.166666666666667,30,"no effect"
"ssfOUT_30_6_1_KINGCOBRA.13",16.2308063219248,-3569.1260403518,3601.58765299565,"ssf","mf.is","exp","vonmises",50,"ssfOUT_30_6_1_KINGCOBRA","KINGCOBRA",1,0.166666666666667,30,"no effect"
"ssfOUT_30_6_1_KINGCOBRA.14",15.148415913108,-2025.01735877312,2055.31419059934,"ssf","mf.is","exp","vonmises",158,"ssfOUT_30_6_1_KINGCOBRA","KINGCOBRA",1,0.166666666666667,30,"no effect"
"ssfOUT_30_6_1_KINGCOBRA.15",15.1841742052152,-2145.67153287119,2176.03988128162,"ssf","mf.is","exp","vonmises",500,"ssfOUT_30_6_1_KINGCOBRA","KINGCOBRA",1,0.166666666666667,30,"no effect"
"ssfOUT_30_6_1_KINGCOBRA.16",17.1462294838972,-4726.71223927931,4761.00469824711,"ssf","mf.is","exp","unif",5,"ssfOUT_30_6_1_KINGCOBRA","KINGCOBRA",1,0.166666666666667,30,"no effect"
"ssfOUT_30_6_1_KINGCOBRA.17",16.0749769801162,-3134.43087124142,3166.58082520165,"ssf","mf.is","exp","unif",15,"ssfOUT_30_6_1_KINGCOBRA","KINGCOBRA",1,0.166666666666667,30,"no effect"
"ssfOUT_30_6_1_KINGCOBRA.18",16.1942254902701,-3349.33536995652,3381.72382093706,"ssf","mf.is","exp","unif",50,"ssfOUT_30_6_1_KINGCOBRA","KINGCOBRA",1,0.166666666666667,30,"no effect"
"ssfOUT_30_6_1_KINGCOBRA.19",15.2477392851164,-1955.58108125037,1986.0765598206,"ssf","mf.is","exp","unif",158,"ssfOUT_30_6_1_KINGCOBRA","KINGCOBRA",1,0.166666666666667,30,"no effect"
"ssfOUT_30_6_1_KINGCOBRA.20",15.3970749216327,-2290.10238161048,2320.89653145375,"ssf","mf.is","exp","unif",500,"ssfOUT_30_6_1_KINGCOBRA","KINGCOBRA",1,0.166666666666667,30,"no effect"
"ssfOUT_30_6_1_KINGCOBRA.21",16.9718100613856,-3430.61237332855,3464.55599345132,"ssf","mf.ss","gamma","vonmises",5,"ssfOUT_30_6_1_KINGCOBRA","KINGCOBRA",1,0.166666666666667,30,"no effect"
"ssfOUT_30_6_1_KINGCOBRA.22",17.2192088589175,-2539.66534867077,2574.1037663886,"ssf","mf.ss","gamma","vonmises",15,"ssfOUT_30_6_1_KINGCOBRA","KINGCOBRA",1,0.166666666666667,30,"no effect"
"ssfOUT_30_6_1_KINGCOBRA.23",17.242153802384,-2819.82653410504,2854.3108417098,"ssf","mf.ss","gamma","vonmises",50,"ssfOUT_30_6_1_KINGCOBRA","KINGCOBRA",1,0.166666666666667,30,"no effect"
"ssfOUT_30_6_1_KINGCOBRA.24",16.0221034922905,-1837.79555084581,1869.83975783039,"ssf","mf.ss","gamma","vonmises",158,"ssfOUT_30_6_1_KINGCOBRA","KINGCOBRA",1,0.166666666666667,30,"no effect"
"ssfOUT_30_6_1_KINGCOBRA.25",16.0377466691044,-1688.3837060627,1720.45919940091,"ssf","mf.ss","gamma","vonmises",500,"ssfOUT_30_6_1_KINGCOBRA","KINGCOBRA",1,0.166666666666667,30,"no effect"
"ssfOUT_30_6_1_KINGCOBRA.26",16.6177773951957,-3850.25207604114,3883.48763083154,"ssf","mf.ss","gamma","unif",5,"ssfOUT_30_6_1_KINGCOBRA","KINGCOBRA",1,0.166666666666667,30,"no effect"
"ssfOUT_30_6_1_KINGCOBRA.27",16.7681698316462,-2666.1813218258,2699.7176614891,"ssf","mf.ss","gamma","unif",15,"ssfOUT_30_6_1_KINGCOBRA","KINGCOBRA",1,0.166666666666667,30,"no effect"
"ssfOUT_30_6_1_KINGCOBRA.28",16.7124997251729,-2913.79024492407,2947.21524437441,"ssf","mf.ss","gamma","unif",50,"ssfOUT_30_6_1_KINGCOBRA","KINGCOBRA",1,0.166666666666667,30,"no effect"
"ssfOUT_30_6_1_KINGCOBRA.29",15.9856116780203,-1797.41101370868,1829.38223706472,"ssf","mf.ss","gamma","unif",158,"ssfOUT_30_6_1_KINGCOBRA","KINGCOBRA",1,0.166666666666667,30,"no effect"
"ssfOUT_30_6_1_KINGCOBRA.30",16.0109936632695,-1764.94411462356,1796.9661019501,"ssf","mf.ss","gamma","unif",500,"ssfOUT_30_6_1_KINGCOBRA","KINGCOBRA",1,0.166666666666667,30,"no effect"
"ssfOUT_30_6_1_KINGCOBRA.31",16.6317168719909,-2964.96314878632,2998.2265825303,"ssf","mf.ss","exp","vonmises",5,"ssfOUT_30_6_1_KINGCOBRA","KINGCOBRA",1,0.166666666666667,30,"no effect"
"ssfOUT_30_6_1_KINGCOBRA.32",16.6376310643799,-2959.79980238329,2993.07506451205,"ssf","mf.ss","exp","vonmises",15,"ssfOUT_30_6_1_KINGCOBRA","KINGCOBRA",1,0.166666666666667,30,"no effect"
"ssfOUT_30_6_1_KINGCOBRA.33",15.7856242170675,-1945.40109109551,1976.97233952965,"ssf","mf.ss","exp","vonmises",50,"ssfOUT_30_6_1_KINGCOBRA","KINGCOBRA",1,0.166666666666667,30,"no effect"
"ssfOUT_30_6_1_KINGCOBRA.34",15.88813669645,-1725.83360273324,1757.60987612614,"ssf","mf.ss","exp","vonmises",158,"ssfOUT_30_6_1_KINGCOBRA","KINGCOBRA",1,0.166666666666667,30,"no effect"
"ssfOUT_30_6_1_KINGCOBRA.35",15.7750466362262,-1805.01652639147,1836.56661966392,"ssf","mf.ss","exp","vonmises",500,"ssfOUT_30_6_1_KINGCOBRA","KINGCOBRA",1,0.166666666666667,30,"no effect"
"ssfOUT_30_6_1_KINGCOBRA.36",16.6693659285539,-3244.06302888914,3277.40176074625,"ssf","mf.ss","exp","unif",5,"ssfOUT_30_6_1_KINGCOBRA","KINGCOBRA",1,0.166666666666667,30,"no effect"
"ssfOUT_30_6_1_KINGCOBRA.37",16.6519176855227,-2975.07772669471,3008.38156206576,"ssf","mf.ss","exp","unif",15,"ssfOUT_30_6_1_KINGCOBRA","KINGCOBRA",1,0.166666666666667,30,"no effect"
"ssfOUT_30_6_1_KINGCOBRA.38",16.6864984672957,-3153.58702764311,3186.9600245777,"ssf","mf.ss","exp","unif",50,"ssfOUT_30_6_1_KINGCOBRA","KINGCOBRA",1,0.166666666666667,30,"no effect"
"ssfOUT_30_6_1_KINGCOBRA.39",15.6238584855392,-1828.0136725898,1859.26138956087,"ssf","mf.ss","exp","unif",158,"ssfOUT_30_6_1_KINGCOBRA","KINGCOBRA",1,0.166666666666667,30,"no effect"
"ssfOUT_30_6_1_KINGCOBRA.40",15.7231021376806,-1869.15261822589,1900.59882250125,"ssf","mf.ss","exp","unif",500,"ssfOUT_30_6_1_KINGCOBRA","KINGCOBRA",1,0.166666666666667,30,"no effect"
"ssfOUT_30_6_2_BADGER.1",0.637417737091332,-0.179059028419472,1.45389450260214,"ssf","mf.is","gamma","vonmises",5,"ssfOUT_30_6_2_BADGER","BADGER",2,0.166666666666667,30,"no effect"
"ssfOUT_30_6_2_BADGER.2",1.08706522109116,0.319695054809989,1.85443538737234,"ssf","mf.is","gamma","vonmises",15,"ssfOUT_30_6_2_BADGER","BADGER",2,0.166666666666667,30,"preference"
"ssfOUT_30_6_2_BADGER.3",0.973796471392871,0.224120497353452,1.72347244543229,"ssf","mf.is","gamma","vonmises",50,"ssfOUT_30_6_2_BADGER","BADGER",2,0.166666666666667,30,"preference"
"ssfOUT_30_6_2_BADGER.4",0.913247103544294,0.174018754197092,1.6524754528915,"ssf","mf.is","gamma","vonmises",158,"ssfOUT_30_6_2_BADGER","BADGER",2,0.166666666666667,30,"preference"
"ssfOUT_30_6_2_BADGER.5",0.946394511724195,0.197784486148723,1.69500453729967,"ssf","mf.is","gamma","vonmises",500,"ssfOUT_30_6_2_BADGER","BADGER",2,0.166666666666667,30,"preference"
"ssfOUT_30_6_2_BADGER.6",0.934883867918892,0.168326935839955,1.70144079999783,"ssf","mf.is","gamma","unif",5,"ssfOUT_30_6_2_BADGER","BADGER",2,0.166666666666667,30,"preference"
"ssfOUT_30_6_2_BADGER.7",0.952240754556996,0.188317973516894,1.7161635355971,"ssf","mf.is","gamma","unif",15,"ssfOUT_30_6_2_BADGER","BADGER",2,0.166666666666667,30,"preference"
"ssfOUT_30_6_2_BADGER.8",0.931631492935599,0.185152274972798,1.6781107108984,"ssf","mf.is","gamma","unif",50,"ssfOUT_30_6_2_BADGER","BADGER",2,0.166666666666667,30,"preference"
"ssfOUT_30_6_2_BADGER.9",0.963249394603209,0.209394807287125,1.71710398191929,"ssf","mf.is","gamma","unif",158,"ssfOUT_30_6_2_BADGER","BADGER",2,0.166666666666667,30,"preference"
"ssfOUT_30_6_2_BADGER.10",0.957371014525061,0.211535961561702,1.70320606748842,"ssf","mf.is","gamma","unif",500,"ssfOUT_30_6_2_BADGER","BADGER",2,0.166666666666667,30,"preference"
"ssfOUT_30_6_2_BADGER.11",1.02728013786823,0.234768972544235,1.81979130319223,"ssf","mf.is","exp","vonmises",5,"ssfOUT_30_6_2_BADGER","BADGER",2,0.166666666666667,30,"preference"
"ssfOUT_30_6_2_BADGER.12",0.88535887612287,0.118981713448337,1.6517360387974,"ssf","mf.is","exp","vonmises",15,"ssfOUT_30_6_2_BADGER","BADGER",2,0.166666666666667,30,"preference"
"ssfOUT_30_6_2_BADGER.13",0.8534544498675,0.104077248798518,1.60283165093648,"ssf","mf.is","exp","vonmises",50,"ssfOUT_30_6_2_BADGER","BADGER",2,0.166666666666667,30,"preference"
"ssfOUT_30_6_2_BADGER.14",0.975556195760371,0.225406174691546,1.72570621682919,"ssf","mf.is","exp","vonmises",158,"ssfOUT_30_6_2_BADGER","BADGER",2,0.166666666666667,30,"preference"
"ssfOUT_30_6_2_BADGER.15",0.950704251513069,0.203211785159011,1.69819671786713,"ssf","mf.is","exp","vonmises",500,"ssfOUT_30_6_2_BADGER","BADGER",2,0.166666666666667,30,"preference"
"ssfOUT_30_6_2_BADGER.16",-0.119709328029532,-0.960206880950756,0.720788224891692,"ssf","mf.is","exp","unif",5,"ssfOUT_30_6_2_BADGER","BADGER",2,0.166666666666667,30,"no effect"
"ssfOUT_30_6_2_BADGER.17",1.02898307143951,0.256434554962093,1.80153158791692,"ssf","mf.is","exp","unif",15,"ssfOUT_30_6_2_BADGER","BADGER",2,0.166666666666667,30,"preference"
"ssfOUT_30_6_2_BADGER.18",0.965045244832419,0.21541332867759,1.71467716098725,"ssf","mf.is","exp","unif",50,"ssfOUT_30_6_2_BADGER","BADGER",2,0.166666666666667,30,"preference"
"ssfOUT_30_6_2_BADGER.19",1.02797878866934,0.274840729196526,1.78111684814215,"ssf","mf.is","exp","unif",158,"ssfOUT_30_6_2_BADGER","BADGER",2,0.166666666666667,30,"preference"
"ssfOUT_30_6_2_BADGER.20",0.948472776243309,0.203783931071924,1.69316162141469,"ssf","mf.is","exp","unif",500,"ssfOUT_30_6_2_BADGER","BADGER",2,0.166666666666667,30,"preference"
"ssfOUT_30_6_2_BADGER.21",0.691859824334721,-0.0849074383521423,1.46862708702158,"ssf","mf.ss","gamma","vonmises",5,"ssfOUT_30_6_2_BADGER","BADGER",2,0.166666666666667,30,"no effect"
"ssfOUT_30_6_2_BADGER.22",0.853084715316511,0.0951904469390631,1.61097898369396,"ssf","mf.ss","gamma","vonmises",15,"ssfOUT_30_6_2_BADGER","BADGER",2,0.166666666666667,30,"preference"
"ssfOUT_30_6_2_BADGER.23",0.860562120737301,0.115073816949982,1.60605042452462,"ssf","mf.ss","gamma","vonmises",50,"ssfOUT_30_6_2_BADGER","BADGER",2,0.166666666666667,30,"preference"
"ssfOUT_30_6_2_BADGER.24",0.867918000722051,0.129192962074379,1.60664303936972,"ssf","mf.ss","gamma","vonmises",158,"ssfOUT_30_6_2_BADGER","BADGER",2,0.166666666666667,30,"preference"
"ssfOUT_30_6_2_BADGER.25",0.819082800631704,0.0752601477522277,1.56290545351118,"ssf","mf.ss","gamma","vonmises",500,"ssfOUT_30_6_2_BADGER","BADGER",2,0.166666666666667,30,"preference"
"ssfOUT_30_6_2_BADGER.26",1.14438348790996,0.385562308585398,1.90320466723452,"ssf","mf.ss","gamma","unif",5,"ssfOUT_30_6_2_BADGER","BADGER",2,0.166666666666667,30,"preference"
"ssfOUT_30_6_2_BADGER.27",1.0527801295656,0.294128410997664,1.81143184813355,"ssf","mf.ss","gamma","unif",15,"ssfOUT_30_6_2_BADGER","BADGER",2,0.166666666666667,30,"preference"
"ssfOUT_30_6_2_BADGER.28",0.872991984007175,0.129339209775612,1.61664475823874,"ssf","mf.ss","gamma","unif",50,"ssfOUT_30_6_2_BADGER","BADGER",2,0.166666666666667,30,"preference"
"ssfOUT_30_6_2_BADGER.29",0.936603183682489,0.185648493163359,1.68755787420162,"ssf","mf.ss","gamma","unif",158,"ssfOUT_30_6_2_BADGER","BADGER",2,0.166666666666667,30,"preference"
"ssfOUT_30_6_2_BADGER.30",0.915746947752538,0.17067772456046,1.66081617094462,"ssf","mf.ss","gamma","unif",500,"ssfOUT_30_6_2_BADGER","BADGER",2,0.166666666666667,30,"preference"
"ssfOUT_30_6_2_BADGER.31",1.01355758660162,0.244579930142451,1.78253524306078,"ssf","mf.ss","exp","vonmises",5,"ssfOUT_30_6_2_BADGER","BADGER",2,0.166666666666667,30,"preference"
"ssfOUT_30_6_2_BADGER.32",0.792200825446175,0.0428608381833172,1.54154081270903,"ssf","mf.ss","exp","vonmises",15,"ssfOUT_30_6_2_BADGER","BADGER",2,0.166666666666667,30,"preference"
"ssfOUT_30_6_2_BADGER.33",0.768586584050487,0.0273788462012597,1.50979432189971,"ssf","mf.ss","exp","vonmises",50,"ssfOUT_30_6_2_BADGER","BADGER",2,0.166666666666667,30,"preference"
"ssfOUT_30_6_2_BADGER.34",0.86688709000693,0.130652329426377,1.60312185058748,"ssf","mf.ss","exp","vonmises",158,"ssfOUT_30_6_2_BADGER","BADGER",2,0.166666666666667,30,"preference"
"ssfOUT_30_6_2_BADGER.35",0.793017439429311,0.0536327898863685,1.53240208897225,"ssf","mf.ss","exp","vonmises",500,"ssfOUT_30_6_2_BADGER","BADGER",2,0.166666666666667,30,"preference"
"ssfOUT_30_6_2_BADGER.36",-0.0451719558014657,-0.853795155443287,0.763451243840356,"ssf","mf.ss","exp","unif",5,"ssfOUT_30_6_2_BADGER","BADGER",2,0.166666666666667,30,"no effect"
"ssfOUT_30_6_2_BADGER.37",0.938109840879039,0.175994348869958,1.70022533288812,"ssf","mf.ss","exp","unif",15,"ssfOUT_30_6_2_BADGER","BADGER",2,0.166666666666667,30,"preference"
"ssfOUT_30_6_2_BADGER.38",0.924329785200546,0.181173111104893,1.6674864592962,"ssf","mf.ss","exp","unif",50,"ssfOUT_30_6_2_BADGER","BADGER",2,0.166666666666667,30,"preference"
"ssfOUT_30_6_2_BADGER.39",0.967452988910336,0.224270615185934,1.71063536263474,"ssf","mf.ss","exp","unif",158,"ssfOUT_30_6_2_BADGER","BADGER",2,0.166666666666667,30,"preference"
"ssfOUT_30_6_2_BADGER.40",0.927708490294858,0.189241513759181,1.66617546683053,"ssf","mf.ss","exp","unif",500,"ssfOUT_30_6_2_BADGER","BADGER",2,0.166666666666667,30,"preference"
"ssfOUT_30_6_2_VULTURE.1",0.825586434622561,-0.254142777426153,1.90531564667128,"ssf","mf.is","gamma","vonmises",5,"ssfOUT_30_6_2_VULTURE","VULTURE",2,0.166666666666667,30,"no effect"
"ssfOUT_30_6_2_VULTURE.2",0.981266011994748,-0.0434595884469917,2.00599161243649,"ssf","mf.is","gamma","vonmises",15,"ssfOUT_30_6_2_VULTURE","VULTURE",2,0.166666666666667,30,"no effect"
"ssfOUT_30_6_2_VULTURE.3",1.04415501931651,0.0299981112236472,2.05831192740938,"ssf","mf.is","gamma","vonmises",50,"ssfOUT_30_6_2_VULTURE","VULTURE",2,0.166666666666667,30,"preference"
"ssfOUT_30_6_2_VULTURE.4",1.17321726670693,0.160252520433061,2.18618201298079,"ssf","mf.is","gamma","vonmises",158,"ssfOUT_30_6_2_VULTURE","VULTURE",2,0.166666666666667,30,"preference"
"ssfOUT_30_6_2_VULTURE.5",1.06818889976959,0.0563733357021514,2.08000446383703,"ssf","mf.is","gamma","vonmises",500,"ssfOUT_30_6_2_VULTURE","VULTURE",2,0.166666666666667,30,"preference"
"ssfOUT_30_6_2_VULTURE.6",1.45732134613362,0.420552805008487,2.49408988725876,"ssf","mf.is","gamma","unif",5,"ssfOUT_30_6_2_VULTURE","VULTURE",2,0.166666666666667,30,"preference"
"ssfOUT_30_6_2_VULTURE.7",1.17942364265229,0.156264980933192,2.20258230437138,"ssf","mf.is","gamma","unif",15,"ssfOUT_30_6_2_VULTURE","VULTURE",2,0.166666666666667,30,"preference"
"ssfOUT_30_6_2_VULTURE.8",1.02587471210577,0.012253237140081,2.03949618707146,"ssf","mf.is","gamma","unif",50,"ssfOUT_30_6_2_VULTURE","VULTURE",2,0.166666666666667,30,"preference"
"ssfOUT_30_6_2_VULTURE.9",0.954689624896252,-0.057569737098719,1.96694898689122,"ssf","mf.is","gamma","unif",158,"ssfOUT_30_6_2_VULTURE","VULTURE",2,0.166666666666667,30,"no effect"
"ssfOUT_30_6_2_VULTURE.10",1.07204212551279,0.0605686469072928,2.08351560411829,"ssf","mf.is","gamma","unif",500,"ssfOUT_30_6_2_VULTURE","VULTURE",2,0.166666666666667,30,"preference"
"ssfOUT_30_6_2_VULTURE.11",1.50596562571738,0.460619840328176,2.55131141110659,"ssf","mf.is","exp","vonmises",5,"ssfOUT_30_6_2_VULTURE","VULTURE",2,0.166666666666667,30,"preference"
"ssfOUT_30_6_2_VULTURE.12",1.07325063678819,0.0472318844506754,2.09926938912569,"ssf","mf.is","exp","vonmises",15,"ssfOUT_30_6_2_VULTURE","VULTURE",2,0.166666666666667,30,"preference"
"ssfOUT_30_6_2_VULTURE.13",0.888877170214209,-0.128192204829975,1.90594654525839,"ssf","mf.is","exp","vonmises",50,"ssfOUT_30_6_2_VULTURE","VULTURE",2,0.166666666666667,30,"no effect"
"ssfOUT_30_6_2_VULTURE.14",1.09784997412065,0.0851644622895533,2.11053548595174,"ssf","mf.is","exp","vonmises",158,"ssfOUT_30_6_2_VULTURE","VULTURE",2,0.166666666666667,30,"preference"
"ssfOUT_30_6_2_VULTURE.15",1.03065621048286,0.0194412738225751,2.04187114714315,"ssf","mf.is","exp","vonmises",500,"ssfOUT_30_6_2_VULTURE","VULTURE",2,0.166666666666667,30,"preference"
"ssfOUT_30_6_2_VULTURE.16",1.07964380325893,0.0246841463151568,2.1346034602027,"ssf","mf.is","exp","unif",5,"ssfOUT_30_6_2_VULTURE","VULTURE",2,0.166666666666667,30,"preference"
"ssfOUT_30_6_2_VULTURE.17",1.07230138412342,0.0473684490235649,2.09723431922327,"ssf","mf.is","exp","unif",15,"ssfOUT_30_6_2_VULTURE","VULTURE",2,0.166666666666667,30,"preference"
"ssfOUT_30_6_2_VULTURE.18",0.948670136484408,-0.0670317296828308,1.96437200265165,"ssf","mf.is","exp","unif",50,"ssfOUT_30_6_2_VULTURE","VULTURE",2,0.166666666666667,30,"no effect"
"ssfOUT_30_6_2_VULTURE.19",1.15675485782545,0.142935490301294,2.17057422534961,"ssf","mf.is","exp","unif",158,"ssfOUT_30_6_2_VULTURE","VULTURE",2,0.166666666666667,30,"preference"
"ssfOUT_30_6_2_VULTURE.20",1.00494972392546,-0.00663584072494805,2.01653528857587,"ssf","mf.is","exp","unif",500,"ssfOUT_30_6_2_VULTURE","VULTURE",2,0.166666666666667,30,"no effect"
"ssfOUT_30_6_2_VULTURE.21",0.776719039025887,-0.2967174841189,1.85015556217067,"ssf","mf.ss","gamma","vonmises",5,"ssfOUT_30_6_2_VULTURE","VULTURE",2,0.166666666666667,30,"no effect"
"ssfOUT_30_6_2_VULTURE.22",0.929883268957518,-0.091680730481512,1.95144726839655,"ssf","mf.ss","gamma","vonmises",15,"ssfOUT_30_6_2_VULTURE","VULTURE",2,0.166666666666667,30,"no effect"
"ssfOUT_30_6_2_VULTURE.23",1.00042422602028,-0.0126618382768964,2.01351029031745,"ssf","mf.ss","gamma","vonmises",50,"ssfOUT_30_6_2_VULTURE","VULTURE",2,0.166666666666667,30,"no effect"
"ssfOUT_30_6_2_VULTURE.24",1.07841363506403,0.0668782869868911,2.08994898314117,"ssf","mf.ss","gamma","vonmises",158,"ssfOUT_30_6_2_VULTURE","VULTURE",2,0.166666666666667,30,"preference"
"ssfOUT_30_6_2_VULTURE.25",0.987917771690163,-0.0225002759474444,1.99833581932777,"ssf","mf.ss","gamma","vonmises",500,"ssfOUT_30_6_2_VULTURE","VULTURE",2,0.166666666666667,30,"no effect"
"ssfOUT_30_6_2_VULTURE.26",1.45120240352949,0.416685579625136,2.48571922743384,"ssf","mf.ss","gamma","unif",5,"ssfOUT_30_6_2_VULTURE","VULTURE",2,0.166666666666667,30,"preference"
"ssfOUT_30_6_2_VULTURE.27",1.14466968261347,0.123010283999381,2.16632908122756,"ssf","mf.ss","gamma","unif",15,"ssfOUT_30_6_2_VULTURE","VULTURE",2,0.166666666666667,30,"preference"
"ssfOUT_30_6_2_VULTURE.28",1.02837659273149,0.0157435284639094,2.04100965699907,"ssf","mf.ss","gamma","unif",50,"ssfOUT_30_6_2_VULTURE","VULTURE",2,0.166666666666667,30,"preference"
"ssfOUT_30_6_2_VULTURE.29",0.937470892589014,-0.0738226506095073,1.94876443578754,"ssf","mf.ss","gamma","unif",158,"ssfOUT_30_6_2_VULTURE","VULTURE",2,0.166666666666667,30,"no effect"
"ssfOUT_30_6_2_VULTURE.30",1.04742153739392,0.0368215097993361,2.05802156498851,"ssf","mf.ss","gamma","unif",500,"ssfOUT_30_6_2_VULTURE","VULTURE",2,0.166666666666667,30,"preference"
"ssfOUT_30_6_2_VULTURE.31",1.55743690934862,0.519989082756296,2.59488473594094,"ssf","mf.ss","exp","vonmises",5,"ssfOUT_30_6_2_VULTURE","VULTURE",2,0.166666666666667,30,"preference"
"ssfOUT_30_6_2_VULTURE.32",0.87438162579441,-0.146363997523048,1.89512724911187,"ssf","mf.ss","exp","vonmises",15,"ssfOUT_30_6_2_VULTURE","VULTURE",2,0.166666666666667,30,"no effect"
"ssfOUT_30_6_2_VULTURE.33",0.84517068791895,-0.170839064360026,1.86118044019793,"ssf","mf.ss","exp","vonmises",50,"ssfOUT_30_6_2_VULTURE","VULTURE",2,0.166666666666667,30,"no effect"
"ssfOUT_30_6_2_VULTURE.34",0.980436291024568,-0.0328139137225377,1.99368649577167,"ssf","mf.ss","exp","vonmises",158,"ssfOUT_30_6_2_VULTURE","VULTURE",2,0.166666666666667,30,"no effect"
"ssfOUT_30_6_2_VULTURE.35",0.950370841568269,-0.0615018333479915,1.96224351648453,"ssf","mf.ss","exp","vonmises",500,"ssfOUT_30_6_2_VULTURE","VULTURE",2,0.166666666666667,30,"no effect"
"ssfOUT_30_6_2_VULTURE.36",1.21630423394723,0.16378229502476,2.2688261728697,"ssf","mf.ss","exp","unif",5,"ssfOUT_30_6_2_VULTURE","VULTURE",2,0.166666666666667,30,"preference"
"ssfOUT_30_6_2_VULTURE.37",0.974386849454008,-0.0502464552834767,1.99902015419149,"ssf","mf.ss","exp","unif",15,"ssfOUT_30_6_2_VULTURE","VULTURE",2,0.166666666666667,30,"no effect"
"ssfOUT_30_6_2_VULTURE.38",0.912194617059394,-0.106641476718878,1.93103071083767,"ssf","mf.ss","exp","unif",50,"ssfOUT_30_6_2_VULTURE","VULTURE",2,0.166666666666667,30,"no effect"
"ssfOUT_30_6_2_VULTURE.39",1.13883284037805,0.123712938337415,2.15395274241869,"ssf","mf.ss","exp","unif",158,"ssfOUT_30_6_2_VULTURE","VULTURE",2,0.166666666666667,30,"preference"
"ssfOUT_30_6_2_VULTURE.40",0.982922251369447,-0.0300213098138232,1.99586581255272,"ssf","mf.ss","exp","unif",500,"ssfOUT_30_6_2_VULTURE","VULTURE",2,0.166666666666667,30,"no effect"
"ssfOUT_30_6_2_KINGCOBRA.1",0.482774524698006,-0.68156114494088,1.64711019433689,"ssf","mf.is","gamma","vonmises",5,"ssfOUT_30_6_2_KINGCOBRA","KINGCOBRA",2,0.166666666666667,30,"no effect"
"ssfOUT_30_6_2_KINGCOBRA.2",0.217962269594397,-0.855628411100924,1.29155295028972,"ssf","mf.is","gamma","vonmises",15,"ssfOUT_30_6_2_KINGCOBRA","KINGCOBRA",2,0.166666666666667,30,"no effect"
"ssfOUT_30_6_2_KINGCOBRA.3",0.459458282971884,-0.625093154352475,1.54400972029624,"ssf","mf.is","gamma","vonmises",50,"ssfOUT_30_6_2_KINGCOBRA","KINGCOBRA",2,0.166666666666667,30,"no effect"
"ssfOUT_30_6_2_KINGCOBRA.4",0.664928120080202,-0.393742831977584,1.72359907213799,"ssf","mf.is","gamma","vonmises",158,"ssfOUT_30_6_2_KINGCOBRA","KINGCOBRA",2,0.166666666666667,30,"no effect"
"ssfOUT_30_6_2_KINGCOBRA.5",0.579839126578634,-0.487323576811231,1.6470018299685,"ssf","mf.is","gamma","vonmises",500,"ssfOUT_30_6_2_KINGCOBRA","KINGCOBRA",2,0.166666666666667,30,"no effect"
"ssfOUT_30_6_2_KINGCOBRA.6",0.630434583984039,-0.451609702700289,1.71247887066837,"ssf","mf.is","gamma","unif",5,"ssfOUT_30_6_2_KINGCOBRA","KINGCOBRA",2,0.166666666666667,30,"no effect"
"ssfOUT_30_6_2_KINGCOBRA.7",0.50426854511395,-0.619723571639726,1.62826066186763,"ssf","mf.is","gamma","unif",15,"ssfOUT_30_6_2_KINGCOBRA","KINGCOBRA",2,0.166666666666667,30,"no effect"
"ssfOUT_30_6_2_KINGCOBRA.8",0.505897106881431,-0.538541361112758,1.55033557487562,"ssf","mf.is","gamma","unif",50,"ssfOUT_30_6_2_KINGCOBRA","KINGCOBRA",2,0.166666666666667,30,"no effect"
"ssfOUT_30_6_2_KINGCOBRA.9",0.4724819417735,-0.589270452258066,1.53423433580507,"ssf","mf.is","gamma","unif",158,"ssfOUT_30_6_2_KINGCOBRA","KINGCOBRA",2,0.166666666666667,30,"no effect"
"ssfOUT_30_6_2_KINGCOBRA.10",0.591438612941834,-0.45722853443253,1.6401057603162,"ssf","mf.is","gamma","unif",500,"ssfOUT_30_6_2_KINGCOBRA","KINGCOBRA",2,0.166666666666667,30,"no effect"
"ssfOUT_30_6_2_KINGCOBRA.11",-0.0865508188333808,-1.18897897806971,1.01587734040295,"ssf","mf.is","exp","vonmises",5,"ssfOUT_30_6_2_KINGCOBRA","KINGCOBRA",2,0.166666666666667,30,"no effect"
"ssfOUT_30_6_2_KINGCOBRA.12",-0.838367308461945,-1.91082510523042,0.23409048830653,"ssf","mf.is","exp","vonmises",15,"ssfOUT_30_6_2_KINGCOBRA","KINGCOBRA",2,0.166666666666667,30,"no effect"
"ssfOUT_30_6_2_KINGCOBRA.13",0.198145635459836,-0.848353095859625,1.2446443667793,"ssf","mf.is","exp","vonmises",50,"ssfOUT_30_6_2_KINGCOBRA","KINGCOBRA",2,0.166666666666667,30,"no effect"
"ssfOUT_30_6_2_KINGCOBRA.14",0.4748567920263,-0.58323364041021,1.53294722446281,"ssf","mf.is","exp","vonmises",158,"ssfOUT_30_6_2_KINGCOBRA","KINGCOBRA",2,0.166666666666667,30,"no effect"
"ssfOUT_30_6_2_KINGCOBRA.15",0.474821457163069,-0.558925403709908,1.50856831803605,"ssf","mf.is","exp","vonmises",500,"ssfOUT_30_6_2_KINGCOBRA","KINGCOBRA",2,0.166666666666667,30,"no effect"
"ssfOUT_30_6_2_KINGCOBRA.16",-0.10624792799855,-1.21018502149836,0.997689165501257,"ssf","mf.is","exp","unif",5,"ssfOUT_30_6_2_KINGCOBRA","KINGCOBRA",2,0.166666666666667,30,"no effect"
"ssfOUT_30_6_2_KINGCOBRA.17",0.390378270737801,-0.692517266135775,1.47327380761138,"ssf","mf.is","exp","unif",15,"ssfOUT_30_6_2_KINGCOBRA","KINGCOBRA",2,0.166666666666667,30,"no effect"
"ssfOUT_30_6_2_KINGCOBRA.18",0.799661326002441,-0.288931016992071,1.88825366899695,"ssf","mf.is","exp","unif",50,"ssfOUT_30_6_2_KINGCOBRA","KINGCOBRA",2,0.166666666666667,30,"no effect"
"ssfOUT_30_6_2_KINGCOBRA.19",0.536426207873817,-0.554809094380403,1.62766151012804,"ssf","mf.is","exp","unif",158,"ssfOUT_30_6_2_KINGCOBRA","KINGCOBRA",2,0.166666666666667,30,"no effect"
"ssfOUT_30_6_2_KINGCOBRA.20",0.466388030768594,-0.584422381186822,1.51719844272401,"ssf","mf.is","exp","unif",500,"ssfOUT_30_6_2_KINGCOBRA","KINGCOBRA",2,0.166666666666667,30,"no effect"
"ssfOUT_30_6_2_KINGCOBRA.21",0.249750716033317,-0.853603830356111,1.35310526242274,"ssf","mf.ss","gamma","vonmises",5,"ssfOUT_30_6_2_KINGCOBRA","KINGCOBRA",2,0.166666666666667,30,"no effect"
"ssfOUT_30_6_2_KINGCOBRA.22",0.4465113188624,-0.596542131688859,1.48956476941366,"ssf","mf.ss","gamma","vonmises",15,"ssfOUT_30_6_2_KINGCOBRA","KINGCOBRA",2,0.166666666666667,30,"no effect"
"ssfOUT_30_6_2_KINGCOBRA.23",0.529053674485711,-0.533566097042425,1.59167344601385,"ssf","mf.ss","gamma","vonmises",50,"ssfOUT_30_6_2_KINGCOBRA","KINGCOBRA",2,0.166666666666667,30,"no effect"
"ssfOUT_30_6_2_KINGCOBRA.24",0.584451884628513,-0.464698024175662,1.63360179343269,"ssf","mf.ss","gamma","vonmises",158,"ssfOUT_30_6_2_KINGCOBRA","KINGCOBRA",2,0.166666666666667,30,"no effect"
"ssfOUT_30_6_2_KINGCOBRA.25",0.457951543261549,-0.59682540670102,1.51272849322412,"ssf","mf.ss","gamma","vonmises",500,"ssfOUT_30_6_2_KINGCOBRA","KINGCOBRA",2,0.166666666666667,30,"no effect"
"ssfOUT_30_6_2_KINGCOBRA.26",0.970551324552329,-0.0848567106084641,2.02595935971312,"ssf","mf.ss","gamma","unif",5,"ssfOUT_30_6_2_KINGCOBRA","KINGCOBRA",2,0.166666666666667,30,"no effect"
"ssfOUT_30_6_2_KINGCOBRA.27",0.439647106782263,-0.682105870474095,1.56140008403862,"ssf","mf.ss","gamma","unif",15,"ssfOUT_30_6_2_KINGCOBRA","KINGCOBRA",2,0.166666666666667,30,"no effect"
"ssfOUT_30_6_2_KINGCOBRA.28",0.423954561467219,-0.614764778800574,1.46267390173501,"ssf","mf.ss","gamma","unif",50,"ssfOUT_30_6_2_KINGCOBRA","KINGCOBRA",2,0.166666666666667,30,"no effect"
"ssfOUT_30_6_2_KINGCOBRA.29",0.439982056546615,-0.615098684830952,1.49506279792418,"ssf","mf.ss","gamma","unif",158,"ssfOUT_30_6_2_KINGCOBRA","KINGCOBRA",2,0.166666666666667,30,"no effect"
"ssfOUT_30_6_2_KINGCOBRA.30",0.52863184341064,-0.515664545123222,1.5729282319445,"ssf","mf.ss","gamma","unif",500,"ssfOUT_30_6_2_KINGCOBRA","KINGCOBRA",2,0.166666666666667,30,"no effect"
"ssfOUT_30_6_2_KINGCOBRA.31",0.877691022607346,-0.184515152245198,1.93989719745989,"ssf","mf.ss","exp","vonmises",5,"ssfOUT_30_6_2_KINGCOBRA","KINGCOBRA",2,0.166666666666667,30,"no effect"
"ssfOUT_30_6_2_KINGCOBRA.32",0.333728110047958,-0.713442366560465,1.38089858665638,"ssf","mf.ss","exp","vonmises",15,"ssfOUT_30_6_2_KINGCOBRA","KINGCOBRA",2,0.166666666666667,30,"no effect"
"ssfOUT_30_6_2_KINGCOBRA.33",0.601726346163122,-0.415233593156136,1.61868628548238,"ssf","mf.ss","exp","vonmises",50,"ssfOUT_30_6_2_KINGCOBRA","KINGCOBRA",2,0.166666666666667,30,"no effect"
"ssfOUT_30_6_2_KINGCOBRA.34",0.538555216453106,-0.477049833796192,1.5541602667024,"ssf","mf.ss","exp","vonmises",158,"ssfOUT_30_6_2_KINGCOBRA","KINGCOBRA",2,0.166666666666667,30,"no effect"
"ssfOUT_30_6_2_KINGCOBRA.35",0.585004561861433,-0.427497268383845,1.59750639210671,"ssf","mf.ss","exp","vonmises",500,"ssfOUT_30_6_2_KINGCOBRA","KINGCOBRA",2,0.166666666666667,30,"no effect"
"ssfOUT_30_6_2_KINGCOBRA.36",0.81773370936333,-0.253437932166428,1.88890535089309,"ssf","mf.ss","exp","unif",5,"ssfOUT_30_6_2_KINGCOBRA","KINGCOBRA",2,0.166666666666667,30,"no effect"
"ssfOUT_30_6_2_KINGCOBRA.37",0.55696428295557,-0.485057275408568,1.59898584131971,"ssf","mf.ss","exp","unif",15,"ssfOUT_30_6_2_KINGCOBRA","KINGCOBRA",2,0.166666666666667,30,"no effect"
"ssfOUT_30_6_2_KINGCOBRA.38",0.669684652743125,-0.35956644289543,1.69893574838168,"ssf","mf.ss","exp","unif",50,"ssfOUT_30_6_2_KINGCOBRA","KINGCOBRA",2,0.166666666666667,30,"no effect"
"ssfOUT_30_6_2_KINGCOBRA.39",0.511485714729697,-0.512626887814033,1.53559831727343,"ssf","mf.ss","exp","unif",158,"ssfOUT_30_6_2_KINGCOBRA","KINGCOBRA",2,0.166666666666667,30,"no effect"
"ssfOUT_30_6_2_KINGCOBRA.40",0.54667137159034,-0.468104233510131,1.56144697669081,"ssf","mf.ss","exp","unif",500,"ssfOUT_30_6_2_KINGCOBRA","KINGCOBRA",2,0.166666666666667,30,"no effect"
"ssfOUT_30_6_3_BADGER.1",-0.161086060194371,-0.771056353139533,0.44888423275079,"ssf","mf.is","gamma","vonmises",5,"ssfOUT_30_6_3_BADGER","BADGER",3,0.166666666666667,30,"no effect"
"ssfOUT_30_6_3_BADGER.2",0.134712031032437,-0.416900441712947,0.686324503777821,"ssf","mf.is","gamma","vonmises",15,"ssfOUT_30_6_3_BADGER","BADGER",3,0.166666666666667,30,"no effect"
"ssfOUT_30_6_3_BADGER.3",-0.189764841839304,-0.723642810229168,0.34411312655056,"ssf","mf.is","gamma","vonmises",50,"ssfOUT_30_6_3_BADGER","BADGER",3,0.166666666666667,30,"no effect"
"ssfOUT_30_6_3_BADGER.4",-0.156094397473073,-0.682984486949926,0.370795692003779,"ssf","mf.is","gamma","vonmises",158,"ssfOUT_30_6_3_BADGER","BADGER",3,0.166666666666667,30,"no effect"
"ssfOUT_30_6_3_BADGER.5",-0.0115530417898954,-0.535065025520931,0.511958941941141,"ssf","mf.is","gamma","vonmises",500,"ssfOUT_30_6_3_BADGER","BADGER",3,0.166666666666667,30,"no effect"
"ssfOUT_30_6_3_BADGER.6",-0.206043018558578,-0.810809320870816,0.398723283753661,"ssf","mf.is","gamma","unif",5,"ssfOUT_30_6_3_BADGER","BADGER",3,0.166666666666667,30,"no effect"
"ssfOUT_30_6_3_BADGER.7",-0.173729279599448,-0.718685313880296,0.3712267546814,"ssf","mf.is","gamma","unif",15,"ssfOUT_30_6_3_BADGER","BADGER",3,0.166666666666667,30,"no effect"
"ssfOUT_30_6_3_BADGER.8",-0.0872620603485215,-0.617699139011961,0.443175018314918,"ssf","mf.is","gamma","unif",50,"ssfOUT_30_6_3_BADGER","BADGER",3,0.166666666666667,30,"no effect"
"ssfOUT_30_6_3_BADGER.9",-0.0984850000906089,-0.623462388572296,0.426492388391078,"ssf","mf.is","gamma","unif",158,"ssfOUT_30_6_3_BADGER","BADGER",3,0.166666666666667,30,"no effect"
"ssfOUT_30_6_3_BADGER.10",-0.0718951470533384,-0.594361674366351,0.450571380259674,"ssf","mf.is","gamma","unif",500,"ssfOUT_30_6_3_BADGER","BADGER",3,0.166666666666667,30,"no effect"
"ssfOUT_30_6_3_BADGER.11",0.313246426035467,-0.291182212431363,0.917675064502298,"ssf","mf.is","exp","vonmises",5,"ssfOUT_30_6_3_BADGER","BADGER",3,0.166666666666667,30,"no effect"
"ssfOUT_30_6_3_BADGER.12",0.0969850171729058,-0.449759042176555,0.643729076522367,"ssf","mf.is","exp","vonmises",15,"ssfOUT_30_6_3_BADGER","BADGER",3,0.166666666666667,30,"no effect"
"ssfOUT_30_6_3_BADGER.13",-0.153664469667062,-0.684825761349332,0.37749682201521,"ssf","mf.is","exp","vonmises",50,"ssfOUT_30_6_3_BADGER","BADGER",3,0.166666666666667,30,"no effect"
"ssfOUT_30_6_3_BADGER.14",-0.130793843776644,-0.656723159507588,0.395135471954301,"ssf","mf.is","exp","vonmises",158,"ssfOUT_30_6_3_BADGER","BADGER",3,0.166666666666667,30,"no effect"
"ssfOUT_30_6_3_BADGER.15",-0.059775153955106,-0.583133933987568,0.463583626077356,"ssf","mf.is","exp","vonmises",500,"ssfOUT_30_6_3_BADGER","BADGER",3,0.166666666666667,30,"no effect"
"ssfOUT_30_6_3_BADGER.16",0.0346146560286525,-0.555751198011725,0.62498051006903,"ssf","mf.is","exp","unif",5,"ssfOUT_30_6_3_BADGER","BADGER",3,0.166666666666667,30,"no effect"
"ssfOUT_30_6_3_BADGER.17",-0.252509971876832,-0.809601797559988,0.304581853806324,"ssf","mf.is","exp","unif",15,"ssfOUT_30_6_3_BADGER","BADGER",3,0.166666666666667,30,"no effect"
"ssfOUT_30_6_3_BADGER.18",-0.151830036456474,-0.681077022020006,0.377416949107058,"ssf","mf.is","exp","unif",50,"ssfOUT_30_6_3_BADGER","BADGER",3,0.166666666666667,30,"no effect"
"ssfOUT_30_6_3_BADGER.19",-0.0617266752539489,-0.586342528121423,0.462889177613525,"ssf","mf.is","exp","unif",158,"ssfOUT_30_6_3_BADGER","BADGER",3,0.166666666666667,30,"no effect"
"ssfOUT_30_6_3_BADGER.20",0.000901394055424671,-0.522057618304698,0.523860406415547,"ssf","mf.is","exp","unif",500,"ssfOUT_30_6_3_BADGER","BADGER",3,0.166666666666667,30,"no effect"
"ssfOUT_30_6_3_BADGER.21",-0.282668019662904,-0.872999353346286,0.307663314020477,"ssf","mf.ss","gamma","vonmises",5,"ssfOUT_30_6_3_BADGER","BADGER",3,0.166666666666667,30,"no effect"
"ssfOUT_30_6_3_BADGER.22",-0.0264810585520673,-0.57363761110143,0.520675493997296,"ssf","mf.ss","gamma","vonmises",15,"ssfOUT_30_6_3_BADGER","BADGER",3,0.166666666666667,30,"no effect"
"ssfOUT_30_6_3_BADGER.23",-0.153450480252419,-0.679988010104796,0.373087049599957,"ssf","mf.ss","gamma","vonmises",50,"ssfOUT_30_6_3_BADGER","BADGER",3,0.166666666666667,30,"no effect"
"ssfOUT_30_6_3_BADGER.24",-0.169824518684833,-0.694133147023686,0.35448410965402,"ssf","mf.ss","gamma","vonmises",158,"ssfOUT_30_6_3_BADGER","BADGER",3,0.166666666666667,30,"no effect"
"ssfOUT_30_6_3_BADGER.25",-0.0636505915108752,-0.586388092937069,0.459086909915318,"ssf","mf.ss","gamma","vonmises",500,"ssfOUT_30_6_3_BADGER","BADGER",3,0.166666666666667,30,"no effect"
"ssfOUT_30_6_3_BADGER.26",-0.0975455987669896,-0.678491801192916,0.483400603658937,"ssf","mf.ss","gamma","unif",5,"ssfOUT_30_6_3_BADGER","BADGER",3,0.166666666666667,30,"no effect"
"ssfOUT_30_6_3_BADGER.27",-0.235888392916284,-0.776558967401891,0.304782181569323,"ssf","mf.ss","gamma","unif",15,"ssfOUT_30_6_3_BADGER","BADGER",3,0.166666666666667,30,"no effect"
"ssfOUT_30_6_3_BADGER.28",-0.102894398554913,-0.631124251727434,0.425335454617607,"ssf","mf.ss","gamma","unif",50,"ssfOUT_30_6_3_BADGER","BADGER",3,0.166666666666667,30,"no effect"
"ssfOUT_30_6_3_BADGER.29",-0.146748732615398,-0.670284061439951,0.376786596209154,"ssf","mf.ss","gamma","unif",158,"ssfOUT_30_6_3_BADGER","BADGER",3,0.166666666666667,30,"no effect"
"ssfOUT_30_6_3_BADGER.30",-0.113936757187037,-0.635028964106288,0.407155449732214,"ssf","mf.ss","gamma","unif",500,"ssfOUT_30_6_3_BADGER","BADGER",3,0.166666666666667,30,"no effect"
"ssfOUT_30_6_3_BADGER.31",-0.0121992172997396,-0.584194725240657,0.559796290641178,"ssf","mf.ss","exp","vonmises",5,"ssfOUT_30_6_3_BADGER","BADGER",3,0.166666666666667,30,"no effect"
"ssfOUT_30_6_3_BADGER.32",0.0344609846401795,-0.512503737855229,0.581425707135587,"ssf","mf.ss","exp","vonmises",15,"ssfOUT_30_6_3_BADGER","BADGER",3,0.166666666666667,30,"no effect"
"ssfOUT_30_6_3_BADGER.33",-0.29968547545956,-0.826764741178274,0.227393790259155,"ssf","mf.ss","exp","vonmises",50,"ssfOUT_30_6_3_BADGER","BADGER",3,0.166666666666667,30,"no effect"
"ssfOUT_30_6_3_BADGER.34",-0.176773298874716,-0.701999996643096,0.348453398893663,"ssf","mf.ss","exp","vonmises",158,"ssfOUT_30_6_3_BADGER","BADGER",3,0.166666666666667,30,"no effect"
"ssfOUT_30_6_3_BADGER.35",-0.170656123448974,-0.696113388300303,0.354801141402355,"ssf","mf.ss","exp","vonmises",500,"ssfOUT_30_6_3_BADGER","BADGER",3,0.166666666666667,30,"no effect"
"ssfOUT_30_6_3_BADGER.36",-0.0988772805806297,-0.684629263549038,0.486874702387779,"ssf","mf.ss","exp","unif",5,"ssfOUT_30_6_3_BADGER","BADGER",3,0.166666666666667,30,"no effect"
"ssfOUT_30_6_3_BADGER.37",-0.331258636482651,-0.884822120880551,0.22230484791525,"ssf","mf.ss","exp","unif",15,"ssfOUT_30_6_3_BADGER","BADGER",3,0.166666666666667,30,"no effect"
"ssfOUT_30_6_3_BADGER.38",-0.201172683336156,-0.729972728428719,0.327627361756407,"ssf","mf.ss","exp","unif",50,"ssfOUT_30_6_3_BADGER","BADGER",3,0.166666666666667,30,"no effect"
"ssfOUT_30_6_3_BADGER.39",-0.16487551423644,-0.689553337129684,0.359802308656805,"ssf","mf.ss","exp","unif",158,"ssfOUT_30_6_3_BADGER","BADGER",3,0.166666666666667,30,"no effect"
"ssfOUT_30_6_3_BADGER.40",-0.0886151366008407,-0.613022158362975,0.435791885161294,"ssf","mf.ss","exp","unif",500,"ssfOUT_30_6_3_BADGER","BADGER",3,0.166666666666667,30,"no effect"
"ssfOUT_30_6_3_VULTURE.1",0.830316669703199,-0.247253548436982,1.90788688784338,"ssf","mf.is","gamma","vonmises",5,"ssfOUT_30_6_3_VULTURE","VULTURE",3,0.166666666666667,30,"no effect"
"ssfOUT_30_6_3_VULTURE.2",0.725996569112989,-0.307307876924579,1.75930101515056,"ssf","mf.is","gamma","vonmises",15,"ssfOUT_30_6_3_VULTURE","VULTURE",3,0.166666666666667,30,"no effect"
"ssfOUT_30_6_3_VULTURE.3",0.937527813557719,-0.0793960148816933,1.95445164199713,"ssf","mf.is","gamma","vonmises",50,"ssfOUT_30_6_3_VULTURE","VULTURE",3,0.166666666666667,30,"no effect"
"ssfOUT_30_6_3_VULTURE.4",0.876174361447318,-0.139947861826145,1.89229658472078,"ssf","mf.is","gamma","vonmises",158,"ssfOUT_30_6_3_VULTURE","VULTURE",3,0.166666666666667,30,"no effect"
"ssfOUT_30_6_3_VULTURE.5",0.879736749376658,-0.134205925381495,1.89367942413481,"ssf","mf.is","gamma","vonmises",500,"ssfOUT_30_6_3_VULTURE","VULTURE",3,0.166666666666667,30,"no effect"
"ssfOUT_30_6_3_VULTURE.6",-0.390234920800903,-1.5693158370091,0.788845995407293,"ssf","mf.is","gamma","unif",5,"ssfOUT_30_6_3_VULTURE","VULTURE",3,0.166666666666667,30,"no effect"
"ssfOUT_30_6_3_VULTURE.7",1.14676762986789,0.114882977400925,2.17865228233485,"ssf","mf.is","gamma","unif",15,"ssfOUT_30_6_3_VULTURE","VULTURE",3,0.166666666666667,30,"preference"
"ssfOUT_30_6_3_VULTURE.8",0.865244160719361,-0.154421893345116,1.88491021478384,"ssf","mf.is","gamma","unif",50,"ssfOUT_30_6_3_VULTURE","VULTURE",3,0.166666666666667,30,"no effect"
"ssfOUT_30_6_3_VULTURE.9",0.869289588806149,-0.145189957927351,1.88376913553965,"ssf","mf.is","gamma","unif",158,"ssfOUT_30_6_3_VULTURE","VULTURE",3,0.166666666666667,30,"no effect"
"ssfOUT_30_6_3_VULTURE.10",0.864953888267371,-0.148455404543008,1.87836318107775,"ssf","mf.is","gamma","unif",500,"ssfOUT_30_6_3_VULTURE","VULTURE",3,0.166666666666667,30,"no effect"
"ssfOUT_30_6_3_VULTURE.11",0.568907890915836,-0.510305051575746,1.64812083340742,"ssf","mf.is","exp","vonmises",5,"ssfOUT_30_6_3_VULTURE","VULTURE",3,0.166666666666667,30,"no effect"
"ssfOUT_30_6_3_VULTURE.12",0.957111872269927,-0.0821308434867177,1.99635458802657,"ssf","mf.is","exp","vonmises",15,"ssfOUT_30_6_3_VULTURE","VULTURE",3,0.166666666666667,30,"no effect"
"ssfOUT_30_6_3_VULTURE.13",1.019169899356,-0.00142991986589602,2.03976971857789,"ssf","mf.is","exp","vonmises",50,"ssfOUT_30_6_3_VULTURE","VULTURE",3,0.166666666666667,30,"no effect"
"ssfOUT_30_6_3_VULTURE.14",0.936213168463728,-0.0795470830189502,1.95197341994641,"ssf","mf.is","exp","vonmises",158,"ssfOUT_30_6_3_VULTURE","VULTURE",3,0.166666666666667,30,"no effect"
"ssfOUT_30_6_3_VULTURE.15",0.974191589322576,-0.0405085685697296,1.98889174721488,"ssf","mf.is","exp","vonmises",500,"ssfOUT_30_6_3_VULTURE","VULTURE",3,0.166666666666667,30,"no effect"
"ssfOUT_30_6_3_VULTURE.16",1.17772776573175,0.121273763402419,2.23418176806107,"ssf","mf.is","exp","unif",5,"ssfOUT_30_6_3_VULTURE","VULTURE",3,0.166666666666667,30,"preference"
"ssfOUT_30_6_3_VULTURE.17",0.407274225932369,-0.639843774712203,1.45439222657694,"ssf","mf.is","exp","unif",15,"ssfOUT_30_6_3_VULTURE","VULTURE",3,0.166666666666667,30,"no effect"
"ssfOUT_30_6_3_VULTURE.18",0.974522533144038,-0.0468274029502589,1.99587246923833,"ssf","mf.is","exp","unif",50,"ssfOUT_30_6_3_VULTURE","VULTURE",3,0.166666666666667,30,"no effect"
"ssfOUT_30_6_3_VULTURE.19",0.727783800755243,-0.289614224955063,1.74518182646555,"ssf","mf.is","exp","unif",158,"ssfOUT_30_6_3_VULTURE","VULTURE",3,0.166666666666667,30,"no effect"
"ssfOUT_30_6_3_VULTURE.20",0.891978047373987,-0.121480423686376,1.90543651843435,"ssf","mf.is","exp","unif",500,"ssfOUT_30_6_3_VULTURE","VULTURE",3,0.166666666666667,30,"no effect"
"ssfOUT_30_6_3_VULTURE.21",0.875610900732858,-0.185550569007735,1.93677237047345,"ssf","mf.ss","gamma","vonmises",5,"ssfOUT_30_6_3_VULTURE","VULTURE",3,0.166666666666667,30,"no effect"
"ssfOUT_30_6_3_VULTURE.22",0.80590677234029,-0.225598486230065,1.83741203091064,"ssf","mf.ss","gamma","vonmises",15,"ssfOUT_30_6_3_VULTURE","VULTURE",3,0.166666666666667,30,"no effect"
"ssfOUT_30_6_3_VULTURE.23",0.9270835253533,-0.0872953618270873,1.94146241253369,"ssf","mf.ss","gamma","vonmises",50,"ssfOUT_30_6_3_VULTURE","VULTURE",3,0.166666666666667,30,"no effect"
"ssfOUT_30_6_3_VULTURE.24",0.841237511099807,-0.171976786342612,1.85445180854223,"ssf","mf.ss","gamma","vonmises",158,"ssfOUT_30_6_3_VULTURE","VULTURE",3,0.166666666666667,30,"no effect"
"ssfOUT_30_6_3_VULTURE.25",0.832463002442058,-0.179059851280802,1.84398585616492,"ssf","mf.ss","gamma","vonmises",500,"ssfOUT_30_6_3_VULTURE","VULTURE",3,0.166666666666667,30,"no effect"
"ssfOUT_30_6_3_VULTURE.26",-0.221322966639757,-1.38884188029931,0.946195947019796,"ssf","mf.ss","gamma","unif",5,"ssfOUT_30_6_3_VULTURE","VULTURE",3,0.166666666666667,30,"no effect"
"ssfOUT_30_6_3_VULTURE.27",1.18966705762404,0.160271347306725,2.21906276794136,"ssf","mf.ss","gamma","unif",15,"ssfOUT_30_6_3_VULTURE","VULTURE",3,0.166666666666667,30,"preference"
"ssfOUT_30_6_3_VULTURE.28",0.853173669999946,-0.164486427977786,1.87083376797768,"ssf","mf.ss","gamma","unif",50,"ssfOUT_30_6_3_VULTURE","VULTURE",3,0.166666666666667,30,"no effect"
"ssfOUT_30_6_3_VULTURE.29",0.86553460590919,-0.147120007892652,1.87818921971103,"ssf","mf.ss","gamma","unif",158,"ssfOUT_30_6_3_VULTURE","VULTURE",3,0.166666666666667,30,"no effect"
"ssfOUT_30_6_3_VULTURE.30",0.86485185848969,-0.146458792292608,1.87616250927199,"ssf","mf.ss","gamma","unif",500,"ssfOUT_30_6_3_VULTURE","VULTURE",3,0.166666666666667,30,"no effect"
"ssfOUT_30_6_3_VULTURE.31",0.829969590015968,-0.257255672912911,1.91719485294485,"ssf","mf.ss","exp","vonmises",5,"ssfOUT_30_6_3_VULTURE","VULTURE",3,0.166666666666667,30,"no effect"
"ssfOUT_30_6_3_VULTURE.32",0.720344459476946,-0.316159363292851,1.75684828224674,"ssf","mf.ss","exp","vonmises",15,"ssfOUT_30_6_3_VULTURE","VULTURE",3,0.166666666666667,30,"no effect"
"ssfOUT_30_6_3_VULTURE.33",0.946911850928004,-0.0758201673221874,1.9696438691782,"ssf","mf.ss","exp","vonmises",50,"ssfOUT_30_6_3_VULTURE","VULTURE",3,0.166666666666667,30,"no effect"
"ssfOUT_30_6_3_VULTURE.34",0.906737524863115,-0.107563001117902,1.92103805084413,"ssf","mf.ss","exp","vonmises",158,"ssfOUT_30_6_3_VULTURE","VULTURE",3,0.166666666666667,30,"no effect"
"ssfOUT_30_6_3_VULTURE.35",0.883677572106449,-0.130469258693507,1.89782440290641,"ssf","mf.ss","exp","vonmises",500,"ssfOUT_30_6_3_VULTURE","VULTURE",3,0.166666666666667,30,"no effect"
"ssfOUT_30_6_3_VULTURE.36",1.18165552804239,0.124612348881657,2.23869870720313,"ssf","mf.ss","exp","unif",5,"ssfOUT_30_6_3_VULTURE","VULTURE",3,0.166666666666667,30,"preference"
"ssfOUT_30_6_3_VULTURE.37",0.340048450398614,-0.700048299842648,1.38014520063988,"ssf","mf.ss","exp","unif",15,"ssfOUT_30_6_3_VULTURE","VULTURE",3,0.166666666666667,30,"no effect"
"ssfOUT_30_6_3_VULTURE.38",0.897371537281965,-0.121807876695371,1.9165509512593,"ssf","mf.ss","exp","unif",50,"ssfOUT_30_6_3_VULTURE","VULTURE",3,0.166666666666667,30,"no effect"
"ssfOUT_30_6_3_VULTURE.39",0.76277889095201,-0.257873849369599,1.78343163127362,"ssf","mf.ss","exp","unif",158,"ssfOUT_30_6_3_VULTURE","VULTURE",3,0.166666666666667,30,"no effect"
"ssfOUT_30_6_3_VULTURE.40",0.879453933156725,-0.134549651174237,1.89345751748769,"ssf","mf.ss","exp","unif",500,"ssfOUT_30_6_3_VULTURE","VULTURE",3,0.166666666666667,30,"no effect"
"ssfOUT_30_6_3_KINGCOBRA.1",15.9711862149657,-3505.74020341971,3537.68257584964,"ssf","mf.is","gamma","vonmises",5,"ssfOUT_30_6_3_KINGCOBRA","KINGCOBRA",3,0.166666666666667,30,"no effect"
"ssfOUT_30_6_3_KINGCOBRA.2",15.4254493209092,-3032.88862869809,3063.73952733991,"ssf","mf.is","gamma","vonmises",15,"ssfOUT_30_6_3_KINGCOBRA","KINGCOBRA",3,0.166666666666667,30,"no effect"
"ssfOUT_30_6_3_KINGCOBRA.3",14.5644083530739,-2088.79753162405,2117.9263483302,"ssf","mf.is","gamma","vonmises",50,"ssfOUT_30_6_3_KINGCOBRA","KINGCOBRA",3,0.166666666666667,30,"no effect"
"ssfOUT_30_6_3_KINGCOBRA.4",14.5178616533028,-2278.41996398398,2307.45568729059,"ssf","mf.is","gamma","vonmises",158,"ssfOUT_30_6_3_KINGCOBRA","KINGCOBRA",3,0.166666666666667,30,"no effect"
"ssfOUT_30_6_3_KINGCOBRA.5",14.5338181273961,-2366.90465551186,2395.97229176666,"ssf","mf.is","gamma","vonmises",500,"ssfOUT_30_6_3_KINGCOBRA","KINGCOBRA",3,0.166666666666667,30,"no effect"
"ssfOUT_30_6_3_KINGCOBRA.6",0.860188157287701,0.526029355646983,1.19434695892842,"ssf","mf.is","gamma","unif",5,"ssfOUT_30_6_3_KINGCOBRA","KINGCOBRA",3,0.166666666666667,30,"preference"
"ssfOUT_30_6_3_KINGCOBRA.7",15.7284213495139,-2872.58125816027,2904.0381008593,"ssf","mf.is","gamma","unif",15,"ssfOUT_30_6_3_KINGCOBRA","KINGCOBRA",3,0.166666666666667,30,"no effect"
"ssfOUT_30_6_3_KINGCOBRA.8",14.6758101383686,-2019.14475871775,2048.49637899449,"ssf","mf.is","gamma","unif",50,"ssfOUT_30_6_3_KINGCOBRA","KINGCOBRA",3,0.166666666666667,30,"no effect"
"ssfOUT_30_6_3_KINGCOBRA.9",14.4736785955161,-2342.21435459322,2371.16171178426,"ssf","mf.is","gamma","unif",158,"ssfOUT_30_6_3_KINGCOBRA","KINGCOBRA",3,0.166666666666667,30,"no effect"
"ssfOUT_30_6_3_KINGCOBRA.10",14.4819366831384,-2020.6297005238,2049.59357389008,"ssf","mf.is","gamma","unif",500,"ssfOUT_30_6_3_KINGCOBRA","KINGCOBRA",3,0.166666666666667,30,"no effect"
"ssfOUT_30_6_3_KINGCOBRA.11",14.0424396609342,-5350.32024627788,5378.40512559975,"ssf","mf.is","exp","vonmises",5,"ssfOUT_30_6_3_KINGCOBRA","KINGCOBRA",3,0.166666666666667,30,"no effect"
"ssfOUT_30_6_3_KINGCOBRA.12",14.9804840449992,-2791.35207232999,2821.31304041998,"ssf","mf.is","exp","vonmises",15,"ssfOUT_30_6_3_KINGCOBRA","KINGCOBRA",3,0.166666666666667,30,"no effect"
"ssfOUT_30_6_3_KINGCOBRA.13",14.3780257346846,-3096.58057608492,3125.33662755428,"ssf","mf.is","exp","vonmises",50,"ssfOUT_30_6_3_KINGCOBRA","KINGCOBRA",3,0.166666666666667,30,"no effect"
"ssfOUT_30_6_3_KINGCOBRA.14",16.033883521052,-2824.69868860409,2856.76645564619,"ssf","mf.is","exp","vonmises",158,"ssfOUT_30_6_3_KINGCOBRA","KINGCOBRA",3,0.166666666666667,30,"no effect"
"ssfOUT_30_6_3_KINGCOBRA.15",14.4532582806715,-2229.31560441648,2258.22212097782,"ssf","mf.is","exp","vonmises",500,"ssfOUT_30_6_3_KINGCOBRA","KINGCOBRA",3,0.166666666666667,30,"no effect"
"ssfOUT_30_6_3_KINGCOBRA.16",15.3144655386862,-5141.35184119635,5171.98077227372,"ssf","mf.is","exp","unif",5,"ssfOUT_30_6_3_KINGCOBRA","KINGCOBRA",3,0.166666666666667,30,"no effect"
"ssfOUT_30_6_3_KINGCOBRA.17",16.3069627430277,-3521.43906844321,3554.05299392926,"ssf","mf.is","exp","unif",15,"ssfOUT_30_6_3_KINGCOBRA","KINGCOBRA",3,0.166666666666667,30,"no effect"
"ssfOUT_30_6_3_KINGCOBRA.18",17.3856213579039,-2210.32606416095,2245.09730687676,"ssf","mf.is","exp","unif",50,"ssfOUT_30_6_3_KINGCOBRA","KINGCOBRA",3,0.166666666666667,30,"no effect"
"ssfOUT_30_6_3_KINGCOBRA.19",15.4688750936617,-2083.78916057526,2114.72691076258,"ssf","mf.is","exp","unif",158,"ssfOUT_30_6_3_KINGCOBRA","KINGCOBRA",3,0.166666666666667,30,"no effect"
"ssfOUT_30_6_3_KINGCOBRA.20",14.3166827942895,-2436.22803190695,2464.86139749553,"ssf","mf.is","exp","unif",500,"ssfOUT_30_6_3_KINGCOBRA","KINGCOBRA",3,0.166666666666667,30,"no effect"
"ssfOUT_30_6_3_KINGCOBRA.21",15.5310237812278,-3368.26408714575,3399.32613470821,"ssf","mf.ss","gamma","vonmises",5,"ssfOUT_30_6_3_KINGCOBRA","KINGCOBRA",3,0.166666666666667,30,"no effect"
"ssfOUT_30_6_3_KINGCOBRA.22",15.2351955229104,-3015.8392067703,3046.30959781612,"ssf","mf.ss","gamma","vonmises",15,"ssfOUT_30_6_3_KINGCOBRA","KINGCOBRA",3,0.166666666666667,30,"no effect"
"ssfOUT_30_6_3_KINGCOBRA.23",14.2906402709908,-2038.27946696335,2066.86074750533,"ssf","mf.ss","gamma","vonmises",50,"ssfOUT_30_6_3_KINGCOBRA","KINGCOBRA",3,0.166666666666667,30,"no effect"
"ssfOUT_30_6_3_KINGCOBRA.24",14.2508378595565,-2289.74651386594,2318.24818958505,"ssf","mf.ss","gamma","vonmises",158,"ssfOUT_30_6_3_KINGCOBRA","KINGCOBRA",3,0.166666666666667,30,"no effect"
"ssfOUT_30_6_3_KINGCOBRA.25",14.2214591761827,-2345.9674072129,2374.41032556526,"ssf","mf.ss","gamma","vonmises",500,"ssfOUT_30_6_3_KINGCOBRA","KINGCOBRA",3,0.166666666666667,30,"no effect"
"ssfOUT_30_6_3_KINGCOBRA.26",0.850716478100416,0.527580903103025,1.17385205309781,"ssf","mf.ss","gamma","unif",5,"ssfOUT_30_6_3_KINGCOBRA","KINGCOBRA",3,0.166666666666667,30,"preference"
"ssfOUT_30_6_3_KINGCOBRA.27",15.3981433577062,-2800.11891701427,2830.91520372968,"ssf","mf.ss","gamma","unif",15,"ssfOUT_30_6_3_KINGCOBRA","KINGCOBRA",3,0.166666666666667,30,"no effect"
"ssfOUT_30_6_3_KINGCOBRA.28",14.3565299483636,-1980.71241272639,2009.42547262311,"ssf","mf.ss","gamma","unif",50,"ssfOUT_30_6_3_KINGCOBRA","KINGCOBRA",3,0.166666666666667,30,"no effect"
"ssfOUT_30_6_3_KINGCOBRA.29",14.2857104086195,-2288.24942043181,2316.82084124905,"ssf","mf.ss","gamma","unif",158,"ssfOUT_30_6_3_KINGCOBRA","KINGCOBRA",3,0.166666666666667,30,"no effect"
"ssfOUT_30_6_3_KINGCOBRA.30",14.2709535820615,-1995.21283344501,2023.75474060914,"ssf","mf.ss","gamma","unif",500,"ssfOUT_30_6_3_KINGCOBRA","KINGCOBRA",3,0.166666666666667,30,"no effect"
"ssfOUT_30_6_3_KINGCOBRA.31",14.5071598995675,-2911.1280039732,2940.14232377233,"ssf","mf.ss","exp","vonmises",5,"ssfOUT_30_6_3_KINGCOBRA","KINGCOBRA",3,0.166666666666667,30,"no effect"
"ssfOUT_30_6_3_KINGCOBRA.32",15.4453658175762,-3052.93859329228,3083.82932492743,"ssf","mf.ss","exp","vonmises",15,"ssfOUT_30_6_3_KINGCOBRA","KINGCOBRA",3,0.166666666666667,30,"no effect"
"ssfOUT_30_6_3_KINGCOBRA.33",13.4578184052195,-2168.1185112037,2195.03414801414,"ssf","mf.ss","exp","vonmises",50,"ssfOUT_30_6_3_KINGCOBRA","KINGCOBRA",3,0.166666666666667,30,"no effect"
"ssfOUT_30_6_3_KINGCOBRA.34",14.3366219200564,-2518.40007633862,2547.07332017873,"ssf","mf.ss","exp","vonmises",158,"ssfOUT_30_6_3_KINGCOBRA","KINGCOBRA",3,0.166666666666667,30,"no effect"
"ssfOUT_30_6_3_KINGCOBRA.35",13.3243252080753,-1708.10559214743,1734.75424256358,"ssf","mf.ss","exp","vonmises",500,"ssfOUT_30_6_3_KINGCOBRA","KINGCOBRA",3,0.166666666666667,30,"no effect"
"ssfOUT_30_6_3_KINGCOBRA.36",14.9563086724161,-2887.34750666289,2917.26012400772,"ssf","mf.ss","exp","unif",5,"ssfOUT_30_6_3_KINGCOBRA","KINGCOBRA",3,0.166666666666667,30,"no effect"
"ssfOUT_30_6_3_KINGCOBRA.37",14.456834503068,-3252.11949361685,3281.03316262298,"ssf","mf.ss","exp","unif",15,"ssfOUT_30_6_3_KINGCOBRA","KINGCOBRA",3,0.166666666666667,30,"no effect"
"ssfOUT_30_6_3_KINGCOBRA.38",13.4065013185214,-2450.66800728593,2477.48100992297,"ssf","mf.ss","exp","unif",50,"ssfOUT_30_6_3_KINGCOBRA","KINGCOBRA",3,0.166666666666667,30,"no effect"
"ssfOUT_30_6_3_KINGCOBRA.39",14.4558980625481,-2658.30958181467,2687.22137793977,"ssf","mf.ss","exp","unif",158,"ssfOUT_30_6_3_KINGCOBRA","KINGCOBRA",3,0.166666666666667,30,"no effect"
"ssfOUT_30_6_3_KINGCOBRA.40",13.3452071238947,-1822.52873940733,1849.21915365512,"ssf","mf.ss","exp","unif",500,"ssfOUT_30_6_3_KINGCOBRA","KINGCOBRA",3,0.166666666666667,30,"no effect"
"ssfOUT_30_6_4_BADGER.1",-0.0600639175293398,-0.893710898568241,0.773583063509562,"ssf","mf.is","gamma","vonmises",5,"ssfOUT_30_6_4_BADGER","BADGER",4,0.166666666666667,30,"no effect"
"ssfOUT_30_6_4_BADGER.2",0.624964838364416,-0.142305181292963,1.3922348580218,"ssf","mf.is","gamma","vonmises",15,"ssfOUT_30_6_4_BADGER","BADGER",4,0.166666666666667,30,"no effect"
"ssfOUT_30_6_4_BADGER.3",0.868978828102858,0.138617819254422,1.59933983695129,"ssf","mf.is","gamma","vonmises",50,"ssfOUT_30_6_4_BADGER","BADGER",4,0.166666666666667,30,"preference"
"ssfOUT_30_6_4_BADGER.4",0.863272288826243,0.136314565312329,1.59023001234016,"ssf","mf.is","gamma","vonmises",158,"ssfOUT_30_6_4_BADGER","BADGER",4,0.166666666666667,30,"preference"
"ssfOUT_30_6_4_BADGER.5",0.744345260399537,0.0191860943048643,1.46950442649421,"ssf","mf.is","gamma","vonmises",500,"ssfOUT_30_6_4_BADGER","BADGER",4,0.166666666666667,30,"preference"
"ssfOUT_30_6_4_BADGER.6",0.58626229693246,-0.191955341871711,1.36447993573663,"ssf","mf.is","gamma","unif",5,"ssfOUT_30_6_4_BADGER","BADGER",4,0.166666666666667,30,"no effect"
"ssfOUT_30_6_4_BADGER.7",0.792898318710901,0.0498508146841745,1.53594582273763,"ssf","mf.is","gamma","unif",15,"ssfOUT_30_6_4_BADGER","BADGER",4,0.166666666666667,30,"preference"
"ssfOUT_30_6_4_BADGER.8",0.73272619819136,0.00423458853715408,1.46121780784557,"ssf","mf.is","gamma","unif",50,"ssfOUT_30_6_4_BADGER","BADGER",4,0.166666666666667,30,"preference"
"ssfOUT_30_6_4_BADGER.9",0.654376962517064,-0.0709867780639898,1.37974070309812,"ssf","mf.is","gamma","unif",158,"ssfOUT_30_6_4_BADGER","BADGER",4,0.166666666666667,30,"no effect"
"ssfOUT_30_6_4_BADGER.10",0.872041810890923,0.148248873301771,1.59583474848008,"ssf","mf.is","gamma","unif",500,"ssfOUT_30_6_4_BADGER","BADGER",4,0.166666666666667,30,"preference"
"ssfOUT_30_6_4_BADGER.11",0.434324214864059,-0.382386548935342,1.25103497866346,"ssf","mf.is","exp","vonmises",5,"ssfOUT_30_6_4_BADGER","BADGER",4,0.166666666666667,30,"no effect"
"ssfOUT_30_6_4_BADGER.12",0.354947397992235,-0.406885893404448,1.11678068938892,"ssf","mf.is","exp","vonmises",15,"ssfOUT_30_6_4_BADGER","BADGER",4,0.166666666666667,30,"no effect"
"ssfOUT_30_6_4_BADGER.13",0.763199865431257,0.0277445192903517,1.49865521157216,"ssf","mf.is","exp","vonmises",50,"ssfOUT_30_6_4_BADGER","BADGER",4,0.166666666666667,30,"preference"
"ssfOUT_30_6_4_BADGER.14",0.771321305525669,0.0441337620581055,1.49850884899323,"ssf","mf.is","exp","vonmises",158,"ssfOUT_30_6_4_BADGER","BADGER",4,0.166666666666667,30,"preference"
"ssfOUT_30_6_4_BADGER.15",0.745671569991464,0.0223798116569498,1.46896332832598,"ssf","mf.is","exp","vonmises",500,"ssfOUT_30_6_4_BADGER","BADGER",4,0.166666666666667,30,"preference"
"ssfOUT_30_6_4_BADGER.16",0.309692622833845,-0.494138529022268,1.11352377468996,"ssf","mf.is","exp","unif",5,"ssfOUT_30_6_4_BADGER","BADGER",4,0.166666666666667,30,"no effect"
"ssfOUT_30_6_4_BADGER.17",0.879631132689268,0.139976919504422,1.61928534587411,"ssf","mf.is","exp","unif",15,"ssfOUT_30_6_4_BADGER","BADGER",4,0.166666666666667,30,"preference"
"ssfOUT_30_6_4_BADGER.18",0.833148748689961,0.105078613911434,1.56121888346849,"ssf","mf.is","exp","unif",50,"ssfOUT_30_6_4_BADGER","BADGER",4,0.166666666666667,30,"preference"
"ssfOUT_30_6_4_BADGER.19",0.709407579763769,-0.015964708657303,1.43477986818484,"ssf","mf.is","exp","unif",158,"ssfOUT_30_6_4_BADGER","BADGER",4,0.166666666666667,30,"no effect"
"ssfOUT_30_6_4_BADGER.20",0.837245285076555,0.112872733071114,1.561617837082,"ssf","mf.is","exp","unif",500,"ssfOUT_30_6_4_BADGER","BADGER",4,0.166666666666667,30,"preference"
"ssfOUT_30_6_4_BADGER.21",0.331556924807883,-0.44972023067337,1.11283408028914,"ssf","mf.ss","gamma","vonmises",5,"ssfOUT_30_6_4_BADGER","BADGER",4,0.166666666666667,30,"no effect"
"ssfOUT_30_6_4_BADGER.22",0.632734073559343,-0.11446380738149,1.37993195450018,"ssf","mf.ss","gamma","vonmises",15,"ssfOUT_30_6_4_BADGER","BADGER",4,0.166666666666667,30,"no effect"
"ssfOUT_30_6_4_BADGER.23",0.653033803185274,-0.0738524860868152,1.37992009245736,"ssf","mf.ss","gamma","vonmises",50,"ssfOUT_30_6_4_BADGER","BADGER",4,0.166666666666667,30,"no effect"
"ssfOUT_30_6_4_BADGER.24",0.649417152493469,-0.0754260241174659,1.3742603291044,"ssf","mf.ss","gamma","vonmises",158,"ssfOUT_30_6_4_BADGER","BADGER",4,0.166666666666667,30,"no effect"
"ssfOUT_30_6_4_BADGER.25",0.590508000174171,-0.131636928518648,1.31265292886699,"ssf","mf.ss","gamma","vonmises",500,"ssfOUT_30_6_4_BADGER","BADGER",4,0.166666666666667,30,"no effect"
"ssfOUT_30_6_4_BADGER.26",0.730140270853905,-0.0366947911482575,1.49697533285607,"ssf","mf.ss","gamma","unif",5,"ssfOUT_30_6_4_BADGER","BADGER",4,0.166666666666667,30,"no effect"
"ssfOUT_30_6_4_BADGER.27",0.719515915827507,-0.0201383406843608,1.45917017233937,"ssf","mf.ss","gamma","unif",15,"ssfOUT_30_6_4_BADGER","BADGER",4,0.166666666666667,30,"no effect"
"ssfOUT_30_6_4_BADGER.28",0.676685817299822,-0.0507254614593802,1.40409709605902,"ssf","mf.ss","gamma","unif",50,"ssfOUT_30_6_4_BADGER","BADGER",4,0.166666666666667,30,"no effect"
"ssfOUT_30_6_4_BADGER.29",0.504242105942269,-0.217521215764235,1.22600542764877,"ssf","mf.ss","gamma","unif",158,"ssfOUT_30_6_4_BADGER","BADGER",4,0.166666666666667,30,"no effect"
"ssfOUT_30_6_4_BADGER.30",0.743389680731866,0.0220576066451594,1.46472175481857,"ssf","mf.ss","gamma","unif",500,"ssfOUT_30_6_4_BADGER","BADGER",4,0.166666666666667,30,"preference"
"ssfOUT_30_6_4_BADGER.31",0.39093807950024,-0.39079455323459,1.17267071223507,"ssf","mf.ss","exp","vonmises",5,"ssfOUT_30_6_4_BADGER","BADGER",4,0.166666666666667,30,"no effect"
"ssfOUT_30_6_4_BADGER.32",0.190320568121441,-0.554283616163114,0.934924752405996,"ssf","mf.ss","exp","vonmises",15,"ssfOUT_30_6_4_BADGER","BADGER",4,0.166666666666667,30,"no effect"
"ssfOUT_30_6_4_BADGER.33",0.582833261632556,-0.151569928157888,1.317236451423,"ssf","mf.ss","exp","vonmises",50,"ssfOUT_30_6_4_BADGER","BADGER",4,0.166666666666667,30,"no effect"
"ssfOUT_30_6_4_BADGER.34",0.515304997513454,-0.209711769761015,1.24032176478792,"ssf","mf.ss","exp","vonmises",158,"ssfOUT_30_6_4_BADGER","BADGER",4,0.166666666666667,30,"no effect"
"ssfOUT_30_6_4_BADGER.35",0.500517264084236,-0.22322569269941,1.22426022086788,"ssf","mf.ss","exp","vonmises",500,"ssfOUT_30_6_4_BADGER","BADGER",4,0.166666666666667,30,"no effect"
"ssfOUT_30_6_4_BADGER.36",0.294315778702451,-0.485121364938244,1.07375292234315,"ssf","mf.ss","exp","unif",5,"ssfOUT_30_6_4_BADGER","BADGER",4,0.166666666666667,30,"no effect"
"ssfOUT_30_6_4_BADGER.37",0.853864958702841,0.117556326931252,1.59017359047443,"ssf","mf.ss","exp","unif",15,"ssfOUT_30_6_4_BADGER","BADGER",4,0.166666666666667,30,"preference"
"ssfOUT_30_6_4_BADGER.38",0.655935678815195,-0.0687285273985012,1.38059988502889,"ssf","mf.ss","exp","unif",50,"ssfOUT_30_6_4_BADGER","BADGER",4,0.166666666666667,30,"no effect"
"ssfOUT_30_6_4_BADGER.39",0.550963970779639,-0.17420412263534,1.27613206419462,"ssf","mf.ss","exp","unif",158,"ssfOUT_30_6_4_BADGER","BADGER",4,0.166666666666667,30,"no effect"
"ssfOUT_30_6_4_BADGER.40",0.636263765243667,-0.0878821236767291,1.36040965416406,"ssf","mf.ss","exp","unif",500,"ssfOUT_30_6_4_BADGER","BADGER",4,0.166666666666667,30,"no effect"
"ssfOUT_30_6_4_VULTURE.1",0.670546550232273,-0.0881226054801453,1.42921570594469,"ssf","mf.is","gamma","vonmises",5,"ssfOUT_30_6_4_VULTURE","VULTURE",4,0.166666666666667,30,"no effect"
"ssfOUT_30_6_4_VULTURE.2",0.651544140040906,-0.0860111369654789,1.38909941704729,"ssf","mf.is","gamma","vonmises",15,"ssfOUT_30_6_4_VULTURE","VULTURE",4,0.166666666666667,30,"no effect"
"ssfOUT_30_6_4_VULTURE.3",0.542941460136259,-0.186380844558749,1.27226376483127,"ssf","mf.is","gamma","vonmises",50,"ssfOUT_30_6_4_VULTURE","VULTURE",4,0.166666666666667,30,"no effect"
"ssfOUT_30_6_4_VULTURE.4",0.567498528864221,-0.155163593922327,1.29016065165077,"ssf","mf.is","gamma","vonmises",158,"ssfOUT_30_6_4_VULTURE","VULTURE",4,0.166666666666667,30,"no effect"
"ssfOUT_30_6_4_VULTURE.5",0.58728978802294,-0.134461342411536,1.30904091845742,"ssf","mf.is","gamma","vonmises",500,"ssfOUT_30_6_4_VULTURE","VULTURE",4,0.166666666666667,30,"no effect"
"ssfOUT_30_6_4_VULTURE.6",0.352951503176651,-0.426393810289337,1.13229681664264,"ssf","mf.is","gamma","unif",5,"ssfOUT_30_6_4_VULTURE","VULTURE",4,0.166666666666667,30,"no effect"
"ssfOUT_30_6_4_VULTURE.7",0.649936991757133,-0.0883862598117447,1.38826024332601,"ssf","mf.is","gamma","unif",15,"ssfOUT_30_6_4_VULTURE","VULTURE",4,0.166666666666667,30,"no effect"
"ssfOUT_30_6_4_VULTURE.8",0.750186092311273,0.0233063857625345,1.47706579886001,"ssf","mf.is","gamma","unif",50,"ssfOUT_30_6_4_VULTURE","VULTURE",4,0.166666666666667,30,"preference"
"ssfOUT_30_6_4_VULTURE.9",0.623070961915636,-0.100123283573961,1.34626520740523,"ssf","mf.is","gamma","unif",158,"ssfOUT_30_6_4_VULTURE","VULTURE",4,0.166666666666667,30,"no effect"
"ssfOUT_30_6_4_VULTURE.10",0.582202134027365,-0.139499295706274,1.303903563761,"ssf","mf.is","gamma","unif",500,"ssfOUT_30_6_4_VULTURE","VULTURE",4,0.166666666666667,30,"no effect"
"ssfOUT_30_6_4_VULTURE.11",0.196570503261078,-0.618869625603251,1.01201063212541,"ssf","mf.is","exp","vonmises",5,"ssfOUT_30_6_4_VULTURE","VULTURE",4,0.166666666666667,30,"no effect"
"ssfOUT_30_6_4_VULTURE.12",0.92985500871377,0.190552284947235,1.66915773248031,"ssf","mf.is","exp","vonmises",15,"ssfOUT_30_6_4_VULTURE","VULTURE",4,0.166666666666667,30,"preference"
"ssfOUT_30_6_4_VULTURE.13",0.550051600728718,-0.179484784532269,1.2795879859897,"ssf","mf.is","exp","vonmises",50,"ssfOUT_30_6_4_VULTURE","VULTURE",4,0.166666666666667,30,"no effect"
"ssfOUT_30_6_4_VULTURE.14",0.646403631505973,-0.0772937485063555,1.3701010115183,"ssf","mf.is","exp","vonmises",158,"ssfOUT_30_6_4_VULTURE","VULTURE",4,0.166666666666667,30,"no effect"
"ssfOUT_30_6_4_VULTURE.15",0.571294694807863,-0.150658035295537,1.29324742491126,"ssf","mf.is","exp","vonmises",500,"ssfOUT_30_6_4_VULTURE","VULTURE",4,0.166666666666667,30,"no effect"
"ssfOUT_30_6_4_VULTURE.16",0.368825573065668,-0.415543455775645,1.15319460190698,"ssf","mf.is","exp","unif",5,"ssfOUT_30_6_4_VULTURE","VULTURE",4,0.166666666666667,30,"no effect"
"ssfOUT_30_6_4_VULTURE.17",0.762010234280988,0.0237009940604846,1.50031947450149,"ssf","mf.is","exp","unif",15,"ssfOUT_30_6_4_VULTURE","VULTURE",4,0.166666666666667,30,"preference"
"ssfOUT_30_6_4_VULTURE.18",0.714234995854757,-0.0133971885667767,1.44186718027629,"ssf","mf.is","exp","unif",50,"ssfOUT_30_6_4_VULTURE","VULTURE",4,0.166666666666667,30,"no effect"
"ssfOUT_30_6_4_VULTURE.19",0.535387568299527,-0.188016438932367,1.25879157553142,"ssf","mf.is","exp","unif",158,"ssfOUT_30_6_4_VULTURE","VULTURE",4,0.166666666666667,30,"no effect"
"ssfOUT_30_6_4_VULTURE.20",0.614166952158992,-0.108221402224517,1.3365553065425,"ssf","mf.is","exp","unif",500,"ssfOUT_30_6_4_VULTURE","VULTURE",4,0.166666666666667,30,"no effect"
"ssfOUT_30_6_4_VULTURE.21",0.661263756827828,-0.0920774089462851,1.41460492260194,"ssf","mf.ss","gamma","vonmises",5,"ssfOUT_30_6_4_VULTURE","VULTURE",4,0.166666666666667,30,"no effect"
"ssfOUT_30_6_4_VULTURE.22",0.536720214613606,-0.197147505988461,1.27058793521567,"ssf","mf.ss","gamma","vonmises",15,"ssfOUT_30_6_4_VULTURE","VULTURE",4,0.166666666666667,30,"no effect"
"ssfOUT_30_6_4_VULTURE.23",0.495831979719124,-0.230785102086448,1.2224490615247,"ssf","mf.ss","gamma","vonmises",50,"ssfOUT_30_6_4_VULTURE","VULTURE",4,0.166666666666667,30,"no effect"
"ssfOUT_30_6_4_VULTURE.24",0.542186337471037,-0.1792094255385,1.26358210048057,"ssf","mf.ss","gamma","vonmises",158,"ssfOUT_30_6_4_VULTURE","VULTURE",4,0.166666666666667,30,"no effect"
"ssfOUT_30_6_4_VULTURE.25",0.555207746183059,-0.165618543175819,1.27603403554194,"ssf","mf.ss","gamma","vonmises",500,"ssfOUT_30_6_4_VULTURE","VULTURE",4,0.166666666666667,30,"no effect"
"ssfOUT_30_6_4_VULTURE.26",0.46784183656747,-0.302841900296175,1.23852557343112,"ssf","mf.ss","gamma","unif",5,"ssfOUT_30_6_4_VULTURE","VULTURE",4,0.166666666666667,30,"no effect"
"ssfOUT_30_6_4_VULTURE.27",0.721970272294221,-0.0146947350246062,1.45863527961305,"ssf","mf.ss","gamma","unif",15,"ssfOUT_30_6_4_VULTURE","VULTURE",4,0.166666666666667,30,"no effect"
"ssfOUT_30_6_4_VULTURE.28",0.754546560960525,0.029322015250227,1.47977110667082,"ssf","mf.ss","gamma","unif",50,"ssfOUT_30_6_4_VULTURE","VULTURE",4,0.166666666666667,30,"preference"
"ssfOUT_30_6_4_VULTURE.29",0.595477837662609,-0.126665697720155,1.31762137304537,"ssf","mf.ss","gamma","unif",158,"ssfOUT_30_6_4_VULTURE","VULTURE",4,0.166666666666667,30,"no effect"
"ssfOUT_30_6_4_VULTURE.30",0.561591308816796,-0.159504879054791,1.28268749668838,"ssf","mf.ss","gamma","unif",500,"ssfOUT_30_6_4_VULTURE","VULTURE",4,0.166666666666667,30,"no effect"
"ssfOUT_30_6_4_VULTURE.31",0.35964341515077,-0.41808568110357,1.13737251140511,"ssf","mf.ss","exp","vonmises",5,"ssfOUT_30_6_4_VULTURE","VULTURE",4,0.166666666666667,30,"no effect"
"ssfOUT_30_6_4_VULTURE.32",0.795373751600587,0.0618271153093449,1.52892038789183,"ssf","mf.ss","exp","vonmises",15,"ssfOUT_30_6_4_VULTURE","VULTURE",4,0.166666666666667,30,"preference"
"ssfOUT_30_6_4_VULTURE.33",0.471330625523221,-0.25563966813924,1.19830091918568,"ssf","mf.ss","exp","vonmises",50,"ssfOUT_30_6_4_VULTURE","VULTURE",4,0.166666666666667,30,"no effect"
"ssfOUT_30_6_4_VULTURE.34",0.526101234348443,-0.198030127137925,1.25023259583481,"ssf","mf.ss","exp","vonmises",158,"ssfOUT_30_6_4_VULTURE","VULTURE",4,0.166666666666667,30,"no effect"
"ssfOUT_30_6_4_VULTURE.35",0.509284411295624,-0.213978668911974,1.23254749150322,"ssf","mf.ss","exp","vonmises",500,"ssfOUT_30_6_4_VULTURE","VULTURE",4,0.166666666666667,30,"no effect"
"ssfOUT_30_6_4_VULTURE.36",0.385066424210303,-0.377558504109314,1.14769135252992,"ssf","mf.ss","exp","unif",5,"ssfOUT_30_6_4_VULTURE","VULTURE",4,0.166666666666667,30,"no effect"
"ssfOUT_30_6_4_VULTURE.37",0.682495780042462,-0.0514387711475985,1.41643033123252,"ssf","mf.ss","exp","unif",15,"ssfOUT_30_6_4_VULTURE","VULTURE",4,0.166666666666667,30,"no effect"
"ssfOUT_30_6_4_VULTURE.38",0.650616100858436,-0.076899821224742,1.37813202294161,"ssf","mf.ss","exp","unif",50,"ssfOUT_30_6_4_VULTURE","VULTURE",4,0.166666666666667,30,"no effect"
"ssfOUT_30_6_4_VULTURE.39",0.446528521664996,-0.276100111676268,1.16915715500626,"ssf","mf.ss","exp","unif",158,"ssfOUT_30_6_4_VULTURE","VULTURE",4,0.166666666666667,30,"no effect"
"ssfOUT_30_6_4_VULTURE.40",0.539150582608984,-0.183992858907865,1.26229402412583,"ssf","mf.ss","exp","unif",500,"ssfOUT_30_6_4_VULTURE","VULTURE",4,0.166666666666667,30,"no effect"
"ssfOUT_30_6_4_KINGCOBRA.1",17.1250299371974,-3386.19159159839,3420.44165147278,"ssf","mf.is","gamma","vonmises",5,"ssfOUT_30_6_4_KINGCOBRA","KINGCOBRA",4,0.166666666666667,30,"no effect"
"ssfOUT_30_6_4_KINGCOBRA.2",15.8820128252185,-2879.99225289258,2911.75627854302,"ssf","mf.is","gamma","vonmises",15,"ssfOUT_30_6_4_KINGCOBRA","KINGCOBRA",4,0.166666666666667,30,"no effect"
"ssfOUT_30_6_4_KINGCOBRA.3",15.8252937712156,-2929.86330396009,2961.51389150252,"ssf","mf.is","gamma","vonmises",50,"ssfOUT_30_6_4_KINGCOBRA","KINGCOBRA",4,0.166666666666667,30,"no effect"
"ssfOUT_30_6_4_KINGCOBRA.4",15.955276025631,-2661.28065593311,2693.19120798437,"ssf","mf.is","gamma","vonmises",158,"ssfOUT_30_6_4_KINGCOBRA","KINGCOBRA",4,0.166666666666667,30,"no effect"
"ssfOUT_30_6_4_KINGCOBRA.5",14.8875363361444,-1556.98418259367,1586.75925526595,"ssf","mf.is","gamma","vonmises",500,"ssfOUT_30_6_4_KINGCOBRA","KINGCOBRA",4,0.166666666666667,30,"no effect"
"ssfOUT_30_6_4_KINGCOBRA.6",17.1195847985795,-4488.60093982782,4522.84010942498,"ssf","mf.is","gamma","unif",5,"ssfOUT_30_6_4_KINGCOBRA","KINGCOBRA",4,0.166666666666667,30,"no effect"
"ssfOUT_30_6_4_KINGCOBRA.7",15.9700631131863,-2956.83019134027,2988.77031756664,"ssf","mf.is","gamma","unif",15,"ssfOUT_30_6_4_KINGCOBRA","KINGCOBRA",4,0.166666666666667,30,"no effect"
"ssfOUT_30_6_4_KINGCOBRA.8",15.8584286921587,-2555.97379961293,2587.69065699725,"ssf","mf.is","gamma","unif",50,"ssfOUT_30_6_4_KINGCOBRA","KINGCOBRA",4,0.166666666666667,30,"no effect"
"ssfOUT_30_6_4_KINGCOBRA.9",15.8986113333543,-2609.80971185759,2641.6069345243,"ssf","mf.is","gamma","unif",158,"ssfOUT_30_6_4_KINGCOBRA","KINGCOBRA",4,0.166666666666667,30,"no effect"
"ssfOUT_30_6_4_KINGCOBRA.10",14.8842450004308,-1572.39577174259,1602.16426174345,"ssf","mf.is","gamma","unif",500,"ssfOUT_30_6_4_KINGCOBRA","KINGCOBRA",4,0.166666666666667,30,"no effect"
"ssfOUT_30_6_4_KINGCOBRA.11",17.2823530327563,-4042.22130560988,4076.78601167539,"ssf","mf.is","exp","vonmises",5,"ssfOUT_30_6_4_KINGCOBRA","KINGCOBRA",4,0.166666666666667,30,"no effect"
"ssfOUT_30_6_4_KINGCOBRA.12",16.210656314915,-2733.48467769621,2765.90599032604,"ssf","mf.is","exp","vonmises",15,"ssfOUT_30_6_4_KINGCOBRA","KINGCOBRA",4,0.166666666666667,30,"no effect"
"ssfOUT_30_6_4_KINGCOBRA.13",15.2825224834838,-2199.98228721353,2230.5473321805,"ssf","mf.is","exp","vonmises",50,"ssfOUT_30_6_4_KINGCOBRA","KINGCOBRA",4,0.166666666666667,30,"no effect"
"ssfOUT_30_6_4_KINGCOBRA.14",15.6278388007493,-2452.85482762644,2484.11050522794,"ssf","mf.is","exp","vonmises",158,"ssfOUT_30_6_4_KINGCOBRA","KINGCOBRA",4,0.166666666666667,30,"no effect"
"ssfOUT_30_6_4_KINGCOBRA.15",15.4316800127423,-2113.58219373821,2144.44555376369,"ssf","mf.is","exp","vonmises",500,"ssfOUT_30_6_4_KINGCOBRA","KINGCOBRA",4,0.166666666666667,30,"no effect"
"ssfOUT_30_6_4_KINGCOBRA.16",17.0555376937327,-4817.02698567146,4851.13806105892,"ssf","mf.is","exp","unif",5,"ssfOUT_30_6_4_KINGCOBRA","KINGCOBRA",4,0.166666666666667,30,"no effect"
"ssfOUT_30_6_4_KINGCOBRA.17",15.5752220228924,-2658.98046282475,2690.13090687053,"ssf","mf.is","exp","unif",15,"ssfOUT_30_6_4_KINGCOBRA","KINGCOBRA",4,0.166666666666667,30,"no effect"
"ssfOUT_30_6_4_KINGCOBRA.18",15.4433753093386,-2108.4910502954,2139.37780091408,"ssf","mf.is","exp","unif",50,"ssfOUT_30_6_4_KINGCOBRA","KINGCOBRA",4,0.166666666666667,30,"no effect"
"ssfOUT_30_6_4_KINGCOBRA.19",15.3593366881514,-1854.49198098445,1885.21065436075,"ssf","mf.is","exp","unif",158,"ssfOUT_30_6_4_KINGCOBRA","KINGCOBRA",4,0.166666666666667,30,"no effect"
"ssfOUT_30_6_4_KINGCOBRA.20",15.7512058663045,-2370.99947346172,2402.50188519433,"ssf","mf.is","exp","unif",500,"ssfOUT_30_6_4_KINGCOBRA","KINGCOBRA",4,0.166666666666667,30,"no effect"
"ssfOUT_30_6_4_KINGCOBRA.21",17.3546031407503,-3357.13969753799,3391.84890381949,"ssf","mf.ss","gamma","vonmises",5,"ssfOUT_30_6_4_KINGCOBRA","KINGCOBRA",4,0.166666666666667,30,"no effect"
"ssfOUT_30_6_4_KINGCOBRA.22",16.0170158995671,-2801.40133265487,2833.43536445401,"ssf","mf.ss","gamma","vonmises",15,"ssfOUT_30_6_4_KINGCOBRA","KINGCOBRA",4,0.166666666666667,30,"no effect"
"ssfOUT_30_6_4_KINGCOBRA.23",15.9357820353748,-2881.70898047931,2913.58054455006,"ssf","mf.ss","gamma","vonmises",50,"ssfOUT_30_6_4_KINGCOBRA","KINGCOBRA",4,0.166666666666667,30,"no effect"
"ssfOUT_30_6_4_KINGCOBRA.24",15.9339230092671,-2654.33316078713,2686.20100680566,"ssf","mf.ss","gamma","vonmises",158,"ssfOUT_30_6_4_KINGCOBRA","KINGCOBRA",4,0.166666666666667,30,"no effect"
"ssfOUT_30_6_4_KINGCOBRA.25",14.9100859198966,-1555.32598970538,1585.14616154517,"ssf","mf.ss","gamma","vonmises",500,"ssfOUT_30_6_4_KINGCOBRA","KINGCOBRA",4,0.166666666666667,30,"no effect"
"ssfOUT_30_6_4_KINGCOBRA.26",17.1108721651874,-4495.36386203303,4529.58560636341,"ssf","mf.ss","gamma","unif",5,"ssfOUT_30_6_4_KINGCOBRA","KINGCOBRA",4,0.166666666666667,30,"no effect"
"ssfOUT_30_6_4_KINGCOBRA.27",16.0156510779602,-2951.71234457644,2983.74364673236,"ssf","mf.ss","gamma","unif",15,"ssfOUT_30_6_4_KINGCOBRA","KINGCOBRA",4,0.166666666666667,30,"no effect"
"ssfOUT_30_6_4_KINGCOBRA.28",15.9296006010308,-2553.19925778289,2585.05845898495,"ssf","mf.ss","gamma","unif",50,"ssfOUT_30_6_4_KINGCOBRA","KINGCOBRA",4,0.166666666666667,30,"no effect"
"ssfOUT_30_6_4_KINGCOBRA.29",15.9178875422873,-2601.82909906745,2633.66487415202,"ssf","mf.ss","gamma","unif",158,"ssfOUT_30_6_4_KINGCOBRA","KINGCOBRA",4,0.166666666666667,30,"no effect"
"ssfOUT_30_6_4_KINGCOBRA.30",14.9044430015231,-1570.23858950746,1600.0474755105,"ssf","mf.ss","gamma","unif",500,"ssfOUT_30_6_4_KINGCOBRA","KINGCOBRA",4,0.166666666666667,30,"no effect"
"ssfOUT_30_6_4_KINGCOBRA.31",17.165780153534,-4016.85232111183,4051.18388141889,"ssf","mf.ss","exp","vonmises",5,"ssfOUT_30_6_4_KINGCOBRA","KINGCOBRA",4,0.166666666666667,30,"no effect"
"ssfOUT_30_6_4_KINGCOBRA.32",16.9845380155217,-3669.29215982143,3703.26123585248,"ssf","mf.ss","exp","vonmises",15,"ssfOUT_30_6_4_KINGCOBRA","KINGCOBRA",4,0.166666666666667,30,"no effect"
"ssfOUT_30_6_4_KINGCOBRA.33",15.9850281658414,-2378.76504373625,2410.73510006793,"ssf","mf.ss","exp","vonmises",50,"ssfOUT_30_6_4_KINGCOBRA","KINGCOBRA",4,0.166666666666667,30,"no effect"
"ssfOUT_30_6_4_KINGCOBRA.34",15.9248405357425,-2327.47866053033,2359.32834160181,"ssf","mf.ss","exp","vonmises",158,"ssfOUT_30_6_4_KINGCOBRA","KINGCOBRA",4,0.166666666666667,30,"no effect"
"ssfOUT_30_6_4_KINGCOBRA.35",15.9219218973841,-2398.74190729981,2430.58575109458,"ssf","mf.ss","exp","vonmises",500,"ssfOUT_30_6_4_KINGCOBRA","KINGCOBRA",4,0.166666666666667,30,"no effect"
"ssfOUT_30_6_4_KINGCOBRA.36",16.4274016311417,-3015.27105276822,3048.12585603051,"ssf","mf.ss","exp","unif",5,"ssfOUT_30_6_4_KINGCOBRA","KINGCOBRA",4,0.166666666666667,30,"no effect"
"ssfOUT_30_6_4_KINGCOBRA.37",16.029023135879,-2743.10307674429,2775.16112301604,"ssf","mf.ss","exp","unif",15,"ssfOUT_30_6_4_KINGCOBRA","KINGCOBRA",4,0.166666666666667,30,"no effect"
"ssfOUT_30_6_4_KINGCOBRA.38",15.9366285510549,-2587.22018346794,2619.09344057005,"ssf","mf.ss","exp","unif",50,"ssfOUT_30_6_4_KINGCOBRA","KINGCOBRA",4,0.166666666666667,30,"no effect"
"ssfOUT_30_6_4_KINGCOBRA.39",15.9279416091755,-2330.06732479903,2361.92320801738,"ssf","mf.ss","exp","unif",158,"ssfOUT_30_6_4_KINGCOBRA","KINGCOBRA",4,0.166666666666667,30,"no effect"
"ssfOUT_30_6_4_KINGCOBRA.40",15.918502194236,-2306.15642469588,2337.99342908435,"ssf","mf.ss","exp","unif",500,"ssfOUT_30_6_4_KINGCOBRA","KINGCOBRA",4,0.166666666666667,30,"no effect"
"ssfOUT_30_12_1_BADGER.1",15.5872729570323,-6594.71435797385,6625.88890388791,"ssf","mf.is","gamma","vonmises",5,"ssfOUT_30_12_1_BADGER","BADGER",1,0.0833333333333333,30,"no effect"
"ssfOUT_30_12_1_BADGER.2",16.7157943860213,-5464.8464216607,5498.27801043274,"ssf","mf.is","gamma","vonmises",15,"ssfOUT_30_12_1_BADGER","BADGER",1,0.0833333333333333,30,"no effect"
"ssfOUT_30_12_1_BADGER.3",16.8641123959964,-5125.37352562644,5159.10175041843,"ssf","mf.is","gamma","vonmises",50,"ssfOUT_30_12_1_BADGER","BADGER",1,0.0833333333333333,30,"no effect"
"ssfOUT_30_12_1_BADGER.4",16.3140481156286,-4389.75240781712,4422.38050404838,"ssf","mf.is","gamma","vonmises",158,"ssfOUT_30_12_1_BADGER","BADGER",1,0.0833333333333333,30,"no effect"
"ssfOUT_30_12_1_BADGER.5",15.7684399873555,-3164.41459073205,3195.95147070676,"ssf","mf.is","gamma","vonmises",500,"ssfOUT_30_12_1_BADGER","BADGER",1,0.0833333333333333,30,"no effect"
"ssfOUT_30_12_1_BADGER.6",15.5953205285386,-5821.22577319271,5852.41641424979,"ssf","mf.is","gamma","unif",5,"ssfOUT_30_12_1_BADGER","BADGER",1,0.0833333333333333,30,"no effect"
"ssfOUT_30_12_1_BADGER.7",16.757072283221,-3906.35104234726,3939.8651869137,"ssf","mf.is","gamma","unif",15,"ssfOUT_30_12_1_BADGER","BADGER",1,0.0833333333333333,30,"no effect"
"ssfOUT_30_12_1_BADGER.8",16.5455013751574,-4151.44135952389,4184.5323622742,"ssf","mf.is","gamma","unif",50,"ssfOUT_30_12_1_BADGER","BADGER",1,0.0833333333333333,30,"no effect"
"ssfOUT_30_12_1_BADGER.9",16.3828554107545,-3628.39879983168,3661.16451065319,"ssf","mf.is","gamma","unif",158,"ssfOUT_30_12_1_BADGER","BADGER",1,0.0833333333333333,30,"no effect"
"ssfOUT_30_12_1_BADGER.10",15.4390339223894,-2609.5293417518,2640.40740959658,"ssf","mf.is","gamma","unif",500,"ssfOUT_30_12_1_BADGER","BADGER",1,0.0833333333333333,30,"no effect"
"ssfOUT_30_12_1_BADGER.11",13.9509538152324,-6545.86176993922,6573.76367756968,"ssf","mf.is","exp","vonmises",5,"ssfOUT_30_12_1_BADGER","BADGER",1,0.0833333333333333,30,"no effect"
"ssfOUT_30_12_1_BADGER.12",16.6569783838104,-5275.3978322347,5308.71178900233,"ssf","mf.is","exp","vonmises",15,"ssfOUT_30_12_1_BADGER","BADGER",1,0.0833333333333333,30,"no effect"
"ssfOUT_30_12_1_BADGER.13",15.9198175647082,-3826.84316090653,3858.68279603595,"ssf","mf.is","exp","vonmises",50,"ssfOUT_30_12_1_BADGER","BADGER",1,0.0833333333333333,30,"no effect"
"ssfOUT_30_12_1_BADGER.14",16.7041746212555,-4508.59309030249,4542.00143954501,"ssf","mf.is","exp","vonmises",158,"ssfOUT_30_12_1_BADGER","BADGER",1,0.0833333333333333,30,"no effect"
"ssfOUT_30_12_1_BADGER.15",15.4899560696539,-2866.34558075492,2897.32549289423,"ssf","mf.is","exp","vonmises",500,"ssfOUT_30_12_1_BADGER","BADGER",1,0.0833333333333333,30,"no effect"
"ssfOUT_30_12_1_BADGER.16",17.7583513483372,-7101.18041774958,7136.69712044626,"ssf","mf.is","exp","unif",5,"ssfOUT_30_12_1_BADGER","BADGER",1,0.0833333333333333,30,"no effect"
"ssfOUT_30_12_1_BADGER.17",16.5943378471495,-5422.40567475577,5455.59435045007,"ssf","mf.is","exp","unif",15,"ssfOUT_30_12_1_BADGER","BADGER",1,0.0833333333333333,30,"no effect"
"ssfOUT_30_12_1_BADGER.18",16.3590497264592,-4277.28171613359,4309.99981558651,"ssf","mf.is","exp","unif",50,"ssfOUT_30_12_1_BADGER","BADGER",1,0.0833333333333333,30,"no effect"
"ssfOUT_30_12_1_BADGER.19",15.3181661750007,-2587.88246953169,2618.5188018817,"ssf","mf.is","exp","unif",158,"ssfOUT_30_12_1_BADGER","BADGER",1,0.0833333333333333,30,"no effect"
"ssfOUT_30_12_1_BADGER.20",15.54107940899,-2324.82950593181,2355.91166474979,"ssf","mf.is","exp","unif",500,"ssfOUT_30_12_1_BADGER","BADGER",1,0.0833333333333333,30,"no effect"
"ssfOUT_30_12_1_BADGER.21",16.5299869396872,-4478.19662847608,4511.25660235545,"ssf","mf.ss","gamma","vonmises",5,"ssfOUT_30_12_1_BADGER","BADGER",1,0.0833333333333333,30,"no effect"
"ssfOUT_30_12_1_BADGER.22",16.3506679085101,-5018.27362949242,5050.97496530944,"ssf","mf.ss","gamma","vonmises",15,"ssfOUT_30_12_1_BADGER","BADGER",1,0.0833333333333333,30,"no effect"
"ssfOUT_30_12_1_BADGER.23",16.3349098956741,-3959.11130194571,3991.78112173706,"ssf","mf.ss","gamma","vonmises",50,"ssfOUT_30_12_1_BADGER","BADGER",1,0.0833333333333333,30,"no effect"
"ssfOUT_30_12_1_BADGER.24",15.2325376488809,-2764.0305727272,2794.49564802496,"ssf","mf.ss","gamma","vonmises",158,"ssfOUT_30_12_1_BADGER","BADGER",1,0.0833333333333333,30,"no effect"
"ssfOUT_30_12_1_BADGER.25",15.2546456254657,-2749.12553694888,2779.63482819981,"ssf","mf.ss","gamma","vonmises",500,"ssfOUT_30_12_1_BADGER","BADGER",1,0.0833333333333333,30,"no effect"
"ssfOUT_30_12_1_BADGER.26",16.3034664828532,-5440.67786951562,5473.28480248133,"ssf","mf.ss","gamma","unif",5,"ssfOUT_30_12_1_BADGER","BADGER",1,0.0833333333333333,30,"no effect"
"ssfOUT_30_12_1_BADGER.27",16.4636794968847,-3620.90913300319,3653.83649199696,"ssf","mf.ss","gamma","unif",15,"ssfOUT_30_12_1_BADGER","BADGER",1,0.0833333333333333,30,"no effect"
"ssfOUT_30_12_1_BADGER.28",16.2240005288498,-4077.79660025751,4110.24460131521,"ssf","mf.ss","gamma","unif",50,"ssfOUT_30_12_1_BADGER","BADGER",1,0.0833333333333333,30,"no effect"
"ssfOUT_30_12_1_BADGER.29",16.2572883001688,-3582.99788917136,3615.5124657717,"ssf","mf.ss","gamma","unif",158,"ssfOUT_30_12_1_BADGER","BADGER",1,0.0833333333333333,30,"no effect"
"ssfOUT_30_12_1_BADGER.30",15.2450911986835,-2561.25039258132,2591.74057497869,"ssf","mf.ss","gamma","unif",500,"ssfOUT_30_12_1_BADGER","BADGER",1,0.0833333333333333,30,"no effect"
"ssfOUT_30_12_1_BADGER.31",15.4943793300684,-4728.78134735013,4759.77010601026,"ssf","mf.ss","exp","vonmises",5,"ssfOUT_30_12_1_BADGER","BADGER",1,0.0833333333333333,30,"no effect"
"ssfOUT_30_12_1_BADGER.32",16.3076189729733,-4619.68058271374,4652.29582065969,"ssf","mf.ss","exp","vonmises",15,"ssfOUT_30_12_1_BADGER","BADGER",1,0.0833333333333333,30,"no effect"
"ssfOUT_30_12_1_BADGER.33",16.2148072770622,-4297.26262683799,4329.69224139211,"ssf","mf.ss","exp","vonmises",50,"ssfOUT_30_12_1_BADGER","BADGER",1,0.0833333333333333,30,"no effect"
"ssfOUT_30_12_1_BADGER.34",15.2317710598356,-2668.64928244231,2699.11282456198,"ssf","mf.ss","exp","vonmises",158,"ssfOUT_30_12_1_BADGER","BADGER",1,0.0833333333333333,30,"no effect"
"ssfOUT_30_12_1_BADGER.35",15.2474404274566,-2597.00657411466,2627.50145496957,"ssf","mf.ss","exp","vonmises",500,"ssfOUT_30_12_1_BADGER","BADGER",1,0.0833333333333333,30,"no effect"
"ssfOUT_30_12_1_BADGER.36",16.4392697205134,-4450.90018668536,4483.77872612638,"ssf","mf.ss","exp","unif",5,"ssfOUT_30_12_1_BADGER","BADGER",1,0.0833333333333333,30,"no effect"
"ssfOUT_30_12_1_BADGER.37",16.3392392471273,-5001.21650336286,5033.89498185711,"ssf","mf.ss","exp","unif",15,"ssfOUT_30_12_1_BADGER","BADGER",1,0.0833333333333333,30,"no effect"
"ssfOUT_30_12_1_BADGER.38",16.3083147748363,-4178.22861957205,4210.84524912172,"ssf","mf.ss","exp","unif",50,"ssfOUT_30_12_1_BADGER","BADGER",1,0.0833333333333333,30,"no effect"
"ssfOUT_30_12_1_BADGER.39",15.2677216282165,-2589.95326779022,2620.48871104665,"ssf","mf.ss","exp","unif",158,"ssfOUT_30_12_1_BADGER","BADGER",1,0.0833333333333333,30,"no effect"
"ssfOUT_30_12_1_BADGER.40",15.2643936565246,-2291.73188216048,2322.26066947353,"ssf","mf.ss","exp","unif",500,"ssfOUT_30_12_1_BADGER","BADGER",1,0.0833333333333333,30,"no effect"
"ssfOUT_30_12_1_VULTURE.1",17.3229568289281,-6759.73538011078,6794.38129376863,"ssf","mf.is","gamma","vonmises",5,"ssfOUT_30_12_1_VULTURE","VULTURE",1,0.0833333333333333,30,"no effect"
"ssfOUT_30_12_1_VULTURE.2",16.8137381777754,-4412.44317224987,4446.07064860542,"ssf","mf.is","gamma","vonmises",15,"ssfOUT_30_12_1_VULTURE","VULTURE",1,0.0833333333333333,30,"no effect"
"ssfOUT_30_12_1_VULTURE.3",16.9239839119957,-3877.19261273202,3911.04058055601,"ssf","mf.is","gamma","vonmises",50,"ssfOUT_30_12_1_VULTURE","VULTURE",1,0.0833333333333333,30,"no effect"
"ssfOUT_30_12_1_VULTURE.4",16.6130313353359,-3980.96247827987,4014.18854095054,"ssf","mf.is","gamma","vonmises",158,"ssfOUT_30_12_1_VULTURE","VULTURE",1,0.0833333333333333,30,"no effect"
"ssfOUT_30_12_1_VULTURE.5",15.7054233111941,-2456.66788141624,2488.07872803863,"ssf","mf.is","gamma","vonmises",500,"ssfOUT_30_12_1_VULTURE","VULTURE",1,0.0833333333333333,30,"no effect"
"ssfOUT_30_12_1_VULTURE.6",16.8896519208933,-4437.45925839125,4471.23856223303,"ssf","mf.is","gamma","unif",5,"ssfOUT_30_12_1_VULTURE","VULTURE",1,0.0833333333333333,30,"no effect"
"ssfOUT_30_12_1_VULTURE.7",16.6064822352825,-4664.26571855921,4697.47868302977,"ssf","mf.is","gamma","unif",15,"ssfOUT_30_12_1_VULTURE","VULTURE",1,0.0833333333333333,30,"no effect"
"ssfOUT_30_12_1_VULTURE.8",16.5667685281938,-3559.93423456194,3593.06777161833,"ssf","mf.is","gamma","unif",50,"ssfOUT_30_12_1_VULTURE","VULTURE",1,0.0833333333333333,30,"no effect"
"ssfOUT_30_12_1_VULTURE.9",16.6118786414884,-3920.43622446158,3953.65998174455,"ssf","mf.is","gamma","unif",158,"ssfOUT_30_12_1_VULTURE","VULTURE",1,0.0833333333333333,30,"no effect"
"ssfOUT_30_12_1_VULTURE.10",15.4759721455312,-2240.97962419068,2271.93156848174,"ssf","mf.is","gamma","unif",500,"ssfOUT_30_12_1_VULTURE","VULTURE",1,0.0833333333333333,30,"no effect"
"ssfOUT_30_12_1_VULTURE.11",17.6013251063542,-5368.42857788993,5403.63122810263,"ssf","mf.is","exp","vonmises",5,"ssfOUT_30_12_1_VULTURE","VULTURE",1,0.0833333333333333,30,"no effect"
"ssfOUT_30_12_1_VULTURE.12",17.2750565081065,-5809.45325009696,5844.00336311317,"ssf","mf.is","exp","vonmises",15,"ssfOUT_30_12_1_VULTURE","VULTURE",1,0.0833333333333333,30,"no effect"
"ssfOUT_30_12_1_VULTURE.13",16.7393932313366,-4117.10023335391,4150.57901981658,"ssf","mf.is","exp","vonmises",50,"ssfOUT_30_12_1_VULTURE","VULTURE",1,0.0833333333333333,30,"no effect"
"ssfOUT_30_12_1_VULTURE.14",16.6532108429494,-3808.85974398842,3842.16616567432,"ssf","mf.is","exp","vonmises",158,"ssfOUT_30_12_1_VULTURE","VULTURE",1,0.0833333333333333,30,"no effect"
"ssfOUT_30_12_1_VULTURE.15",16.5448536370603,-3758.27696511557,3791.36667238969,"ssf","mf.is","exp","vonmises",500,"ssfOUT_30_12_1_VULTURE","VULTURE",1,0.0833333333333333,30,"no effect"
"ssfOUT_30_12_1_VULTURE.16",17.1314346366969,-7173.01052442639,7207.27339369979,"ssf","mf.is","exp","unif",5,"ssfOUT_30_12_1_VULTURE","VULTURE",1,0.0833333333333333,30,"no effect"
"ssfOUT_30_12_1_VULTURE.17",16.6727082916493,-3598.41323658634,3631.75865316964,"ssf","mf.is","exp","unif",15,"ssfOUT_30_12_1_VULTURE","VULTURE",1,0.0833333333333333,30,"no effect"
"ssfOUT_30_12_1_VULTURE.18",16.3906423896355,-3949.24295207387,3982.02423685314,"ssf","mf.is","exp","unif",50,"ssfOUT_30_12_1_VULTURE","VULTURE",1,0.0833333333333333,30,"no effect"
"ssfOUT_30_12_1_VULTURE.19",16.5720155131788,-3530.11876858975,3563.2627996161,"ssf","mf.is","exp","unif",158,"ssfOUT_30_12_1_VULTURE","VULTURE",1,0.0833333333333333,30,"no effect"
"ssfOUT_30_12_1_VULTURE.20",16.4736746529975,-3553.2744646787,3586.2218139847,"ssf","mf.is","exp","unif",500,"ssfOUT_30_12_1_VULTURE","VULTURE",1,0.0833333333333333,30,"no effect"
"ssfOUT_30_12_1_VULTURE.21",17.7291290781636,-6513.05977384329,6548.51803199962,"ssf","mf.ss","gamma","vonmises",5,"ssfOUT_30_12_1_VULTURE","VULTURE",1,0.0833333333333333,30,"no effect"
"ssfOUT_30_12_1_VULTURE.22",16.3486117078907,-4345.34321424987,4378.04043766565,"ssf","mf.ss","gamma","vonmises",15,"ssfOUT_30_12_1_VULTURE","VULTURE",1,0.0833333333333333,30,"no effect"
"ssfOUT_30_12_1_VULTURE.23",16.3279894459033,-3687.5553035402,3720.21128243201,"ssf","mf.ss","gamma","vonmises",50,"ssfOUT_30_12_1_VULTURE","VULTURE",1,0.0833333333333333,30,"no effect"
"ssfOUT_30_12_1_VULTURE.24",16.2681537952012,-3947.14933846707,3979.68564605747,"ssf","mf.ss","gamma","vonmises",158,"ssfOUT_30_12_1_VULTURE","VULTURE",1,0.0833333333333333,30,"no effect"
"ssfOUT_30_12_1_VULTURE.25",15.2751145348844,-2406.88907047708,2437.43929954685,"ssf","mf.ss","gamma","vonmises",500,"ssfOUT_30_12_1_VULTURE","VULTURE",1,0.0833333333333333,30,"no effect"
"ssfOUT_30_12_1_VULTURE.26",17.8261437787373,-6215.46175525491,6251.11404281238,"ssf","mf.ss","gamma","unif",5,"ssfOUT_30_12_1_VULTURE","VULTURE",1,0.0833333333333333,30,"no effect"
"ssfOUT_30_12_1_VULTURE.27",16.2932749507781,-4325.32810646142,4357.91465636297,"ssf","mf.ss","gamma","unif",15,"ssfOUT_30_12_1_VULTURE","VULTURE",1,0.0833333333333333,30,"no effect"
"ssfOUT_30_12_1_VULTURE.28",16.3059511212585,-3435.66223709745,3468.27413933997,"ssf","mf.ss","gamma","unif",50,"ssfOUT_30_12_1_VULTURE","VULTURE",1,0.0833333333333333,30,"no effect"
"ssfOUT_30_12_1_VULTURE.29",16.3252917208846,-3821.11291848568,3853.76350192745,"ssf","mf.ss","gamma","unif",158,"ssfOUT_30_12_1_VULTURE","VULTURE",1,0.0833333333333333,30,"no effect"
"ssfOUT_30_12_1_VULTURE.30",15.2911722258449,-2216.14830799624,2246.73065244793,"ssf","mf.ss","gamma","unif",500,"ssfOUT_30_12_1_VULTURE","VULTURE",1,0.0833333333333333,30,"no effect"
"ssfOUT_30_12_1_VULTURE.31",17.5581690689579,-5234.51317671877,5269.62951485669,"ssf","mf.ss","exp","vonmises",5,"ssfOUT_30_12_1_VULTURE","VULTURE",1,0.0833333333333333,30,"no effect"
"ssfOUT_30_12_1_VULTURE.32",16.4084080585526,-5029.77189558734,5062.58871170445,"ssf","mf.ss","exp","vonmises",15,"ssfOUT_30_12_1_VULTURE","VULTURE",1,0.0833333333333333,30,"no effect"
"ssfOUT_30_12_1_VULTURE.33",16.345799664511,-3984.85584809272,4017.54744742174,"ssf","mf.ss","exp","vonmises",50,"ssfOUT_30_12_1_VULTURE","VULTURE",1,0.0833333333333333,30,"no effect"
"ssfOUT_30_12_1_VULTURE.34",16.254631059382,-3654.44680706786,3686.95606918662,"ssf","mf.ss","exp","vonmises",158,"ssfOUT_30_12_1_VULTURE","VULTURE",1,0.0833333333333333,30,"no effect"
"ssfOUT_30_12_1_VULTURE.35",15.275190768654,-2223.11514043307,2253.66552197038,"ssf","mf.ss","exp","vonmises",500,"ssfOUT_30_12_1_VULTURE","VULTURE",1,0.0833333333333333,30,"no effect"
"ssfOUT_30_12_1_VULTURE.36",16.4562192025684,-4469.21787999363,4502.13031839877,"ssf","mf.ss","exp","unif",5,"ssfOUT_30_12_1_VULTURE","VULTURE",1,0.0833333333333333,30,"no effect"
"ssfOUT_30_12_1_VULTURE.37",16.3969087427401,-3421.05566881211,3453.84948629759,"ssf","mf.ss","exp","unif",15,"ssfOUT_30_12_1_VULTURE","VULTURE",1,0.0833333333333333,30,"no effect"
"ssfOUT_30_12_1_VULTURE.38",16.3405915472652,-4045.80386458824,4078.48504768277,"ssf","mf.ss","exp","unif",50,"ssfOUT_30_12_1_VULTURE","VULTURE",1,0.0833333333333333,30,"no effect"
"ssfOUT_30_12_1_VULTURE.39",16.3174963345006,-3433.62222829546,3466.25722096446,"ssf","mf.ss","exp","unif",158,"ssfOUT_30_12_1_VULTURE","VULTURE",1,0.0833333333333333,30,"no effect"
"ssfOUT_30_12_1_VULTURE.40",16.3137900129933,-3455.33072567034,3487.95830569633,"ssf","mf.ss","exp","unif",500,"ssfOUT_30_12_1_VULTURE","VULTURE",1,0.0833333333333333,30,"no effect"
"ssfOUT_30_12_1_KINGCOBRA.1",0.390948517074387,0.0781867905973573,0.703710243551417,"ssf","mf.is","gamma","vonmises",5,"ssfOUT_30_12_1_KINGCOBRA","KINGCOBRA",1,0.0833333333333333,30,"preference"
"ssfOUT_30_12_1_KINGCOBRA.2",16.2142915867909,-3500.40977659775,3532.83835977133,"ssf","mf.is","gamma","vonmises",15,"ssfOUT_30_12_1_KINGCOBRA","KINGCOBRA",1,0.0833333333333333,30,"no effect"
"ssfOUT_30_12_1_KINGCOBRA.3",15.8489530046121,-3225.50470805701,3257.20261406623,"ssf","mf.is","gamma","vonmises",50,"ssfOUT_30_12_1_KINGCOBRA","KINGCOBRA",1,0.0833333333333333,30,"no effect"
"ssfOUT_30_12_1_KINGCOBRA.4",15.7979156375887,-3623.45344909812,3655.0492803733,"ssf","mf.is","gamma","vonmises",158,"ssfOUT_30_12_1_KINGCOBRA","KINGCOBRA",1,0.0833333333333333,30,"no effect"
"ssfOUT_30_12_1_KINGCOBRA.5",15.3931234194954,-3263.91663411882,3294.70288095782,"ssf","mf.is","gamma","vonmises",500,"ssfOUT_30_12_1_KINGCOBRA","KINGCOBRA",1,0.0833333333333333,30,"no effect"
"ssfOUT_30_12_1_KINGCOBRA.6",15.281095112255,-4850.47820792874,4881.04039815325,"ssf","mf.is","gamma","unif",5,"ssfOUT_30_12_1_KINGCOBRA","KINGCOBRA",1,0.0833333333333333,30,"no effect"
"ssfOUT_30_12_1_KINGCOBRA.7",15.3190350839377,-4393.21242721843,4423.85049738631,"ssf","mf.is","gamma","unif",15,"ssfOUT_30_12_1_KINGCOBRA","KINGCOBRA",1,0.0833333333333333,30,"no effect"
"ssfOUT_30_12_1_KINGCOBRA.8",15.5040098300743,-3207.6122271382,3238.62024679835,"ssf","mf.is","gamma","unif",50,"ssfOUT_30_12_1_KINGCOBRA","KINGCOBRA",1,0.0833333333333333,30,"no effect"
"ssfOUT_30_12_1_KINGCOBRA.9",14.5241014471451,-2475.67983843113,2504.72804132543,"ssf","mf.is","gamma","unif",158,"ssfOUT_30_12_1_KINGCOBRA","KINGCOBRA",1,0.0833333333333333,30,"no effect"
"ssfOUT_30_12_1_KINGCOBRA.10",15.5926643735999,-3136.92590480946,3168.11123355666,"ssf","mf.is","gamma","unif",500,"ssfOUT_30_12_1_KINGCOBRA","KINGCOBRA",1,0.0833333333333333,30,"no effect"
"ssfOUT_30_12_1_KINGCOBRA.11",16.3193177531562,-5589.10760568462,5621.74624119094,"ssf","mf.is","exp","vonmises",5,"ssfOUT_30_12_1_KINGCOBRA","KINGCOBRA",1,0.0833333333333333,30,"no effect"
"ssfOUT_30_12_1_KINGCOBRA.12",16.484433265198,-4486.32022294265,4519.28908947304,"ssf","mf.is","exp","vonmises",15,"ssfOUT_30_12_1_KINGCOBRA","KINGCOBRA",1,0.0833333333333333,30,"no effect"
"ssfOUT_30_12_1_KINGCOBRA.13",15.1177508344287,-3180.16300134084,3210.3985030097,"ssf","mf.is","exp","vonmises",50,"ssfOUT_30_12_1_KINGCOBRA","KINGCOBRA",1,0.0833333333333333,30,"no effect"
"ssfOUT_30_12_1_KINGCOBRA.14",15.7427065947369,-3458.7907329171,3490.27614610657,"ssf","mf.is","exp","vonmises",158,"ssfOUT_30_12_1_KINGCOBRA","KINGCOBRA",1,0.0833333333333333,30,"no effect"
"ssfOUT_30_12_1_KINGCOBRA.15",15.057280440539,-2716.02774269402,2746.14230357509,"ssf","mf.is","exp","vonmises",500,"ssfOUT_30_12_1_KINGCOBRA","KINGCOBRA",1,0.0833333333333333,30,"no effect"
"ssfOUT_30_12_1_KINGCOBRA.16",0.654676636929643,0.292529508222453,1.01682376563683,"ssf","mf.is","exp","unif",5,"ssfOUT_30_12_1_KINGCOBRA","KINGCOBRA",1,0.0833333333333333,30,"preference"
"ssfOUT_30_12_1_KINGCOBRA.17",16.2312545345012,-5255.20523922377,5287.66774829277,"ssf","mf.is","exp","unif",15,"ssfOUT_30_12_1_KINGCOBRA","KINGCOBRA",1,0.0833333333333333,30,"no effect"
"ssfOUT_30_12_1_KINGCOBRA.18",16.4006648373978,-4207.35679408492,4240.15812375971,"ssf","mf.is","exp","unif",50,"ssfOUT_30_12_1_KINGCOBRA","KINGCOBRA",1,0.0833333333333333,30,"no effect"
"ssfOUT_30_12_1_KINGCOBRA.19",15.6009761224948,-3299.01289967385,3330.21485191884,"ssf","mf.is","exp","unif",158,"ssfOUT_30_12_1_KINGCOBRA","KINGCOBRA",1,0.0833333333333333,30,"no effect"
"ssfOUT_30_12_1_KINGCOBRA.20",14.7903700687928,-2427.84564970381,2457.4263898414,"ssf","mf.is","exp","unif",500,"ssfOUT_30_12_1_KINGCOBRA","KINGCOBRA",1,0.0833333333333333,30,"no effect"
"ssfOUT_30_12_1_KINGCOBRA.21",0.503286860800241,0.200259304944067,0.806314416656415,"ssf","mf.ss","gamma","vonmises",5,"ssfOUT_30_12_1_KINGCOBRA","KINGCOBRA",1,0.0833333333333333,30,"preference"
"ssfOUT_30_12_1_KINGCOBRA.22",15.5728262397904,-3393.87718014562,3425.0228326252,"ssf","mf.ss","gamma","vonmises",15,"ssfOUT_30_12_1_KINGCOBRA","KINGCOBRA",1,0.0833333333333333,30,"no effect"
"ssfOUT_30_12_1_KINGCOBRA.23",15.4481248873609,-3030.88091571729,3061.77716549202,"ssf","mf.ss","gamma","vonmises",50,"ssfOUT_30_12_1_KINGCOBRA","KINGCOBRA",1,0.0833333333333333,30,"no effect"
"ssfOUT_30_12_1_KINGCOBRA.24",15.4737371564566,-3634.02170455229,3664.9691788652,"ssf","mf.ss","gamma","vonmises",158,"ssfOUT_30_12_1_KINGCOBRA","KINGCOBRA",1,0.0833333333333333,30,"no effect"
"ssfOUT_30_12_1_KINGCOBRA.25",15.3866707000216,-3369.35885800294,3400.13219940299,"ssf","mf.ss","gamma","vonmises",500,"ssfOUT_30_12_1_KINGCOBRA","KINGCOBRA",1,0.0833333333333333,30,"no effect"
"ssfOUT_30_12_1_KINGCOBRA.26",15.5577561695162,-4772.67188465759,4803.78739699662,"ssf","mf.ss","gamma","unif",5,"ssfOUT_30_12_1_KINGCOBRA","KINGCOBRA",1,0.0833333333333333,30,"no effect"
"ssfOUT_30_12_1_KINGCOBRA.27",15.4451867488769,-4341.91786016653,4372.80823366428,"ssf","mf.ss","gamma","unif",15,"ssfOUT_30_12_1_KINGCOBRA","KINGCOBRA",1,0.0833333333333333,30,"no effect"
"ssfOUT_30_12_1_KINGCOBRA.28",15.4670173708187,-3110.56232377661,3141.49635851825,"ssf","mf.ss","gamma","unif",50,"ssfOUT_30_12_1_KINGCOBRA","KINGCOBRA",1,0.0833333333333333,30,"no effect"
"ssfOUT_30_12_1_KINGCOBRA.29",14.4757954260354,-2490.71287781059,2519.66446866266,"ssf","mf.ss","gamma","unif",158,"ssfOUT_30_12_1_KINGCOBRA","KINGCOBRA",1,0.0833333333333333,30,"no effect"
"ssfOUT_30_12_1_KINGCOBRA.30",15.467796795617,-3146.33273233122,3177.26832592245,"ssf","mf.ss","gamma","unif",500,"ssfOUT_30_12_1_KINGCOBRA","KINGCOBRA",1,0.0833333333333333,30,"no effect"
"ssfOUT_30_12_1_KINGCOBRA.31",16.4719083668293,-5468.06225401258,5501.00607074624,"ssf","mf.ss","exp","vonmises",5,"ssfOUT_30_12_1_KINGCOBRA","KINGCOBRA",1,0.0833333333333333,30,"no effect"
"ssfOUT_30_12_1_KINGCOBRA.32",16.447565619132,-4623.2731518036,4656.16828304186,"ssf","mf.ss","exp","vonmises",15,"ssfOUT_30_12_1_KINGCOBRA","KINGCOBRA",1,0.0833333333333333,30,"no effect"
"ssfOUT_30_12_1_KINGCOBRA.33",15.3558480759159,-3192.18988944988,3222.90158560171,"ssf","mf.ss","exp","vonmises",50,"ssfOUT_30_12_1_KINGCOBRA","KINGCOBRA",1,0.0833333333333333,30,"no effect"
"ssfOUT_30_12_1_KINGCOBRA.34",15.4962153648014,-3073.74018702593,3104.73261775553,"ssf","mf.ss","exp","vonmises",158,"ssfOUT_30_12_1_KINGCOBRA","KINGCOBRA",1,0.0833333333333333,30,"no effect"
"ssfOUT_30_12_1_KINGCOBRA.35",15.4284652848755,-3289.83031264628,3320.68724321603,"ssf","mf.ss","exp","vonmises",500,"ssfOUT_30_12_1_KINGCOBRA","KINGCOBRA",1,0.0833333333333333,30,"no effect"
"ssfOUT_30_12_1_KINGCOBRA.36",0.577168341270767,0.270148437953511,0.884188244588024,"ssf","mf.ss","exp","unif",5,"ssfOUT_30_12_1_KINGCOBRA","KINGCOBRA",1,0.0833333333333333,30,"preference"
"ssfOUT_30_12_1_KINGCOBRA.37",15.4014128101779,-3318.98282999154,3349.7856556119,"ssf","mf.ss","exp","unif",15,"ssfOUT_30_12_1_KINGCOBRA","KINGCOBRA",1,0.0833333333333333,30,"no effect"
"ssfOUT_30_12_1_KINGCOBRA.38",15.4331917465228,-3020.85505231484,3051.72143580788,"ssf","mf.ss","exp","unif",50,"ssfOUT_30_12_1_KINGCOBRA","KINGCOBRA",1,0.0833333333333333,30,"no effect"
"ssfOUT_30_12_1_KINGCOBRA.39",15.4561084858541,-3042.4860114999,3073.3982284716,"ssf","mf.ss","exp","unif",158,"ssfOUT_30_12_1_KINGCOBRA","KINGCOBRA",1,0.0833333333333333,30,"no effect"
"ssfOUT_30_12_1_KINGCOBRA.40",15.4735051773811,-3314.6389610867,3345.58597144146,"ssf","mf.ss","exp","unif",500,"ssfOUT_30_12_1_KINGCOBRA","KINGCOBRA",1,0.0833333333333333,30,"no effect"
"ssfOUT_30_12_2_BADGER.1",16.9709988807615,-6714.12015813995,6748.06215590147,"ssf","mf.is","gamma","vonmises",5,"ssfOUT_30_12_2_BADGER","BADGER",2,0.0833333333333333,30,"no effect"
"ssfOUT_30_12_2_BADGER.2",17.741930989444,-4549.81573731396,4585.29959929285,"ssf","mf.is","gamma","vonmises",15,"ssfOUT_30_12_2_BADGER","BADGER",2,0.0833333333333333,30,"no effect"
"ssfOUT_30_12_2_BADGER.3",16.6980710946707,-3597.12438693076,3630.52052912011,"ssf","mf.is","gamma","vonmises",50,"ssfOUT_30_12_2_BADGER","BADGER",2,0.0833333333333333,30,"no effect"
"ssfOUT_30_12_2_BADGER.4",16.7370894916263,-3024.85082495995,3058.3250039432,"ssf","mf.is","gamma","vonmises",158,"ssfOUT_30_12_2_BADGER","BADGER",2,0.0833333333333333,30,"no effect"
"ssfOUT_30_12_2_BADGER.5",16.7444921003585,-2910.59669472128,2944.08567892199,"ssf","mf.is","gamma","vonmises",500,"ssfOUT_30_12_2_BADGER","BADGER",2,0.0833333333333333,30,"no effect"
"ssfOUT_30_12_2_BADGER.6",17.4580926479103,-4278.06037867806,4312.97656397388,"ssf","mf.is","gamma","unif",5,"ssfOUT_30_12_2_BADGER","BADGER",2,0.0833333333333333,30,"no effect"
"ssfOUT_30_12_2_BADGER.7",18.1225389294709,-4832.33584525676,4868.5809231157,"ssf","mf.is","gamma","unif",15,"ssfOUT_30_12_2_BADGER","BADGER",2,0.0833333333333333,30,"no effect"
"ssfOUT_30_12_2_BADGER.8",16.82210868194,-3079.8158598159,3113.46007717978,"ssf","mf.is","gamma","unif",50,"ssfOUT_30_12_2_BADGER","BADGER",2,0.0833333333333333,30,"no effect"
"ssfOUT_30_12_2_BADGER.9",16.7455999441857,-3102.82839753035,3136.31959741872,"ssf","mf.is","gamma","unif",158,"ssfOUT_30_12_2_BADGER","BADGER",2,0.0833333333333333,30,"no effect"
"ssfOUT_30_12_2_BADGER.10",16.7526934356724,-2932.46911257651,2965.97449944785,"ssf","mf.is","gamma","unif",500,"ssfOUT_30_12_2_BADGER","BADGER",2,0.0833333333333333,30,"no effect"
"ssfOUT_30_12_2_BADGER.11",17.729280447383,-4939.48428077425,4974.94284166901,"ssf","mf.is","exp","vonmises",5,"ssfOUT_30_12_2_BADGER","BADGER",2,0.0833333333333333,30,"no effect"
"ssfOUT_30_12_2_BADGER.12",17.8088836647795,-5739.13682183965,5774.75458916921,"ssf","mf.is","exp","vonmises",15,"ssfOUT_30_12_2_BADGER","BADGER",2,0.0833333333333333,30,"no effect"
"ssfOUT_30_12_2_BADGER.13",17.5103941699558,-4898.7856768245,4933.80646516441,"ssf","mf.is","exp","vonmises",50,"ssfOUT_30_12_2_BADGER","BADGER",2,0.0833333333333333,30,"no effect"
"ssfOUT_30_12_2_BADGER.14",16.8144591775232,-2986.86117854045,3020.4900968955,"ssf","mf.is","exp","vonmises",158,"ssfOUT_30_12_2_BADGER","BADGER",2,0.0833333333333333,30,"no effect"
"ssfOUT_30_12_2_BADGER.15",16.7286529127914,-2961.65547893624,2995.11278476182,"ssf","mf.is","exp","vonmises",500,"ssfOUT_30_12_2_BADGER","BADGER",2,0.0833333333333333,30,"no effect"
"ssfOUT_30_12_2_BADGER.16",17.6052304772385,-5389.73354296258,5424.94400391706,"ssf","mf.is","exp","unif",5,"ssfOUT_30_12_2_BADGER","BADGER",2,0.0833333333333333,30,"no effect"
"ssfOUT_30_12_2_BADGER.17",17.8431497766084,-4684.12342466547,4719.80972421869,"ssf","mf.is","exp","unif",15,"ssfOUT_30_12_2_BADGER","BADGER",2,0.0833333333333333,30,"no effect"
"ssfOUT_30_12_2_BADGER.18",16.7839817517667,-3094.55005466541,3128.11801816895,"ssf","mf.is","exp","unif",50,"ssfOUT_30_12_2_BADGER","BADGER",2,0.0833333333333333,30,"no effect"
"ssfOUT_30_12_2_BADGER.19",16.7232482878468,-2785.01516928204,2818.46166585773,"ssf","mf.is","exp","unif",158,"ssfOUT_30_12_2_BADGER","BADGER",2,0.0833333333333333,30,"no effect"
"ssfOUT_30_12_2_BADGER.20",16.7869167490629,-2866.06525591346,2899.63908941158,"ssf","mf.is","exp","unif",500,"ssfOUT_30_12_2_BADGER","BADGER",2,0.0833333333333333,30,"no effect"
"ssfOUT_30_12_2_BADGER.21",17.633650693762,-5271.78633646156,5307.05363784908,"ssf","mf.ss","gamma","vonmises",5,"ssfOUT_30_12_2_BADGER","BADGER",2,0.0833333333333333,30,"no effect"
"ssfOUT_30_12_2_BADGER.22",17.7206915532628,-4395.4822459362,4430.92362904273,"ssf","mf.ss","gamma","vonmises",15,"ssfOUT_30_12_2_BADGER","BADGER",2,0.0833333333333333,30,"no effect"
"ssfOUT_30_12_2_BADGER.23",16.7342935244425,-3197.03654058147,3230.50512763036,"ssf","mf.ss","gamma","vonmises",50,"ssfOUT_30_12_2_BADGER","BADGER",2,0.0833333333333333,30,"no effect"
"ssfOUT_30_12_2_BADGER.24",16.568526609432,-3011.60410415953,3044.7411573784,"ssf","mf.ss","gamma","vonmises",158,"ssfOUT_30_12_2_BADGER","BADGER",2,0.0833333333333333,30,"no effect"
"ssfOUT_30_12_2_BADGER.25",16.5254287515663,-2926.83499614574,2959.88585364887,"ssf","mf.ss","gamma","vonmises",500,"ssfOUT_30_12_2_BADGER","BADGER",2,0.0833333333333333,30,"no effect"
"ssfOUT_30_12_2_BADGER.26",18.0736901098601,-6773.85055641682,6809.99793663654,"ssf","mf.ss","gamma","unif",5,"ssfOUT_30_12_2_BADGER","BADGER",2,0.0833333333333333,30,"no effect"
"ssfOUT_30_12_2_BADGER.27",17.8522614487949,-4709.44332711166,4745.14785000925,"ssf","mf.ss","gamma","unif",15,"ssfOUT_30_12_2_BADGER","BADGER",2,0.0833333333333333,30,"no effect"
"ssfOUT_30_12_2_BADGER.28",16.6128617465201,-3051.72847967273,3084.95420316577,"ssf","mf.ss","gamma","unif",50,"ssfOUT_30_12_2_BADGER","BADGER",2,0.0833333333333333,30,"no effect"
"ssfOUT_30_12_2_BADGER.29",16.5941825964111,-3079.24518109439,3112.43354628722,"ssf","mf.ss","gamma","unif",158,"ssfOUT_30_12_2_BADGER","BADGER",2,0.0833333333333333,30,"no effect"
"ssfOUT_30_12_2_BADGER.30",16.5575189525081,-2930.28718736624,2963.40222527125,"ssf","mf.ss","gamma","unif",500,"ssfOUT_30_12_2_BADGER","BADGER",2,0.0833333333333333,30,"no effect"
"ssfOUT_30_12_2_BADGER.31",17.8062890452572,-4711.43943404004,4747.05201213056,"ssf","mf.ss","exp","vonmises",5,"ssfOUT_30_12_2_BADGER","BADGER",2,0.0833333333333333,30,"no effect"
"ssfOUT_30_12_2_BADGER.32",17.6144896219532,-5340.69864829005,5375.92762753396,"ssf","mf.ss","exp","vonmises",15,"ssfOUT_30_12_2_BADGER","BADGER",2,0.0833333333333333,30,"no effect"
"ssfOUT_30_12_2_BADGER.33",16.451365501846,-2948.79689645716,2981.69962746085,"ssf","mf.ss","exp","vonmises",50,"ssfOUT_30_12_2_BADGER","BADGER",2,0.0833333333333333,30,"no effect"
"ssfOUT_30_12_2_BADGER.34",16.5980151878545,-2897.94789262338,2931.14392299909,"ssf","mf.ss","exp","vonmises",158,"ssfOUT_30_12_2_BADGER","BADGER",2,0.0833333333333333,30,"no effect"
"ssfOUT_30_12_2_BADGER.35",16.5500809826139,-2897.6854743664,2930.78563633163,"ssf","mf.ss","exp","vonmises",500,"ssfOUT_30_12_2_BADGER","BADGER",2,0.0833333333333333,30,"no effect"
"ssfOUT_30_12_2_BADGER.36",17.533778354659,-5251.11109978835,5286.17865649766,"ssf","mf.ss","exp","unif",5,"ssfOUT_30_12_2_BADGER","BADGER",2,0.0833333333333333,30,"no effect"
"ssfOUT_30_12_2_BADGER.37",17.7374027871478,-4560.65564474612,4596.13045032042,"ssf","mf.ss","exp","unif",15,"ssfOUT_30_12_2_BADGER","BADGER",2,0.0833333333333333,30,"no effect"
"ssfOUT_30_12_2_BADGER.38",16.6289544408307,-3003.62700132626,3036.88491020792,"ssf","mf.ss","exp","unif",50,"ssfOUT_30_12_2_BADGER","BADGER",2,0.0833333333333333,30,"no effect"
"ssfOUT_30_12_2_BADGER.39",16.5833104728402,-2761.1894218843,2794.35604282998,"ssf","mf.ss","exp","unif",158,"ssfOUT_30_12_2_BADGER","BADGER",2,0.0833333333333333,30,"no effect"
"ssfOUT_30_12_2_BADGER.40",16.6046509296222,-2826.68360855319,2859.89291041244,"ssf","mf.ss","exp","unif",500,"ssfOUT_30_12_2_BADGER","BADGER",2,0.0833333333333333,30,"no effect"
"ssfOUT_30_12_2_VULTURE.1",18.7765136995929,-7735.2310954899,7772.78412288909,"ssf","mf.is","gamma","vonmises",5,"ssfOUT_30_12_2_VULTURE","VULTURE",2,0.0833333333333333,30,"no effect"
"ssfOUT_30_12_2_VULTURE.2",18.5327729538283,-6370.02997228614,6407.09551819379,"ssf","mf.is","gamma","vonmises",15,"ssfOUT_30_12_2_VULTURE","VULTURE",2,0.0833333333333333,30,"no effect"
"ssfOUT_30_12_2_VULTURE.3",15.8816012698462,-3379.64284135475,3411.40604389444,"ssf","mf.is","gamma","vonmises",50,"ssfOUT_30_12_2_VULTURE","VULTURE",2,0.0833333333333333,30,"no effect"
"ssfOUT_30_12_2_VULTURE.4",16.2143808572694,-2859.05024044225,2891.47900215679,"ssf","mf.is","gamma","vonmises",158,"ssfOUT_30_12_2_VULTURE","VULTURE",2,0.0833333333333333,30,"no effect"
"ssfOUT_30_12_2_VULTURE.5",16.2457514588278,-2807.12595132025,2839.6174542379,"ssf","mf.is","gamma","vonmises",500,"ssfOUT_30_12_2_VULTURE","VULTURE",2,0.0833333333333333,30,"no effect"
"ssfOUT_30_12_2_VULTURE.6",18.0488448767218,-5202.85718400548,5238.95487375892,"ssf","mf.is","gamma","unif",5,"ssfOUT_30_12_2_VULTURE","VULTURE",2,0.0833333333333333,30,"no effect"
"ssfOUT_30_12_2_VULTURE.7",17.1057004220642,-4643.68712423292,4677.89852507705,"ssf","mf.is","gamma","unif",15,"ssfOUT_30_12_2_VULTURE","VULTURE",2,0.0833333333333333,30,"no effect"
"ssfOUT_30_12_2_VULTURE.8",17.3799576793702,-4293.20354277356,4327.9634581323,"ssf","mf.is","gamma","unif",50,"ssfOUT_30_12_2_VULTURE","VULTURE",2,0.0833333333333333,30,"no effect"
"ssfOUT_30_12_2_VULTURE.9",16.2039235603746,-2821.95317278621,2854.36101990696,"ssf","mf.is","gamma","unif",158,"ssfOUT_30_12_2_VULTURE","VULTURE",2,0.0833333333333333,30,"no effect"
"ssfOUT_30_12_2_VULTURE.10",16.1749723715277,-2729.18351134912,2761.53345609217,"ssf","mf.is","gamma","unif",500,"ssfOUT_30_12_2_VULTURE","VULTURE",2,0.0833333333333333,30,"no effect"
"ssfOUT_30_12_2_VULTURE.11",16.9952901272924,-5735.90957990166,5769.90016015624,"ssf","mf.is","exp","vonmises",5,"ssfOUT_30_12_2_VULTURE","VULTURE",2,0.0833333333333333,30,"no effect"
"ssfOUT_30_12_2_VULTURE.12",18.1839577034303,-6172.86770896513,6209.23562437199,"ssf","mf.is","exp","vonmises",15,"ssfOUT_30_12_2_VULTURE","VULTURE",2,0.0833333333333333,30,"no effect"
"ssfOUT_30_12_2_VULTURE.13",17.1237926326293,-5336.55390894029,5370.80149420555,"ssf","mf.is","exp","vonmises",50,"ssfOUT_30_12_2_VULTURE","VULTURE",2,0.0833333333333333,30,"no effect"
"ssfOUT_30_12_2_VULTURE.14",16.2919059078619,-3063.97032821215,3096.55414002788,"ssf","mf.is","exp","vonmises",158,"ssfOUT_30_12_2_VULTURE","VULTURE",2,0.0833333333333333,30,"no effect"
"ssfOUT_30_12_2_VULTURE.15",16.2623782465417,-3110.51812041299,3143.04287690607,"ssf","mf.is","exp","vonmises",500,"ssfOUT_30_12_2_VULTURE","VULTURE",2,0.0833333333333333,30,"no effect"
"ssfOUT_30_12_2_VULTURE.16",17.5470652251976,-4812.55056135819,4847.64469180858,"ssf","mf.is","exp","unif",5,"ssfOUT_30_12_2_VULTURE","VULTURE",2,0.0833333333333333,30,"no effect"
"ssfOUT_30_12_2_VULTURE.17",17.3705585570148,-4777.65888521714,4812.40000233117,"ssf","mf.is","exp","unif",15,"ssfOUT_30_12_2_VULTURE","VULTURE",2,0.0833333333333333,30,"no effect"
"ssfOUT_30_12_2_VULTURE.18",16.4458845373754,-3209.13101269516,3242.02278176991,"ssf","mf.is","exp","unif",50,"ssfOUT_30_12_2_VULTURE","VULTURE",2,0.0833333333333333,30,"no effect"
"ssfOUT_30_12_2_VULTURE.19",16.3511000875252,-2747.36644952342,2780.06864969847,"ssf","mf.is","exp","unif",158,"ssfOUT_30_12_2_VULTURE","VULTURE",2,0.0833333333333333,30,"no effect"
"ssfOUT_30_12_2_VULTURE.20",16.3180128048401,-2947.32241641925,2979.95844202893,"ssf","mf.is","exp","unif",500,"ssfOUT_30_12_2_VULTURE","VULTURE",2,0.0833333333333333,30,"no effect"
"ssfOUT_30_12_2_VULTURE.21",17.3187612098846,-5673.5626639386,5708.20018635837,"ssf","mf.ss","gamma","vonmises",5,"ssfOUT_30_12_2_VULTURE","VULTURE",2,0.0833333333333333,30,"no effect"
"ssfOUT_30_12_2_VULTURE.22",17.15467777204,-4737.44331911529,4771.75267465937,"ssf","mf.ss","gamma","vonmises",15,"ssfOUT_30_12_2_VULTURE","VULTURE",2,0.0833333333333333,30,"no effect"
"ssfOUT_30_12_2_VULTURE.23",16.1209702817288,-2894.57581530008,2926.81775586354,"ssf","mf.ss","gamma","vonmises",50,"ssfOUT_30_12_2_VULTURE","VULTURE",2,0.0833333333333333,30,"no effect"
"ssfOUT_30_12_2_VULTURE.24",16.1236543855594,-2763.41997844317,2795.66728721429,"ssf","mf.ss","gamma","vonmises",158,"ssfOUT_30_12_2_VULTURE","VULTURE",2,0.0833333333333333,30,"no effect"
"ssfOUT_30_12_2_VULTURE.25",16.1107394990394,-2816.501007821,2848.72248681907,"ssf","mf.ss","gamma","vonmises",500,"ssfOUT_30_12_2_VULTURE","VULTURE",2,0.0833333333333333,30,"no effect"
"ssfOUT_30_12_2_VULTURE.26",17.5649171950818,-5421.0782885015,5456.20812289167,"ssf","mf.ss","gamma","unif",5,"ssfOUT_30_12_2_VULTURE","VULTURE",2,0.0833333333333333,30,"no effect"
"ssfOUT_30_12_2_VULTURE.27",17.2006964509242,-4750.9316824461,4785.33307534795,"ssf","mf.ss","gamma","unif",15,"ssfOUT_30_12_2_VULTURE","VULTURE",2,0.0833333333333333,30,"no effect"
"ssfOUT_30_12_2_VULTURE.28",17.1581739534252,-4215.97425408366,4250.29060199051,"ssf","mf.ss","gamma","unif",50,"ssfOUT_30_12_2_VULTURE","VULTURE",2,0.0833333333333333,30,"no effect"
"ssfOUT_30_12_2_VULTURE.29",16.1075693922575,-2788.00896608941,2820.22410487392,"ssf","mf.ss","gamma","unif",158,"ssfOUT_30_12_2_VULTURE","VULTURE",2,0.0833333333333333,30,"no effect"
"ssfOUT_30_12_2_VULTURE.30",16.1057553664163,-2739.00549996103,2771.21701069386,"ssf","mf.ss","gamma","unif",500,"ssfOUT_30_12_2_VULTURE","VULTURE",2,0.0833333333333333,30,"no effect"
"ssfOUT_30_12_2_VULTURE.31",17.4230416712012,-4798.76814577235,4833.61422911475,"ssf","mf.ss","exp","vonmises",5,"ssfOUT_30_12_2_VULTURE","VULTURE",2,0.0833333333333333,30,"no effect"
"ssfOUT_30_12_2_VULTURE.32",17.2302108046323,-4298.57005583861,4333.03047744787,"ssf","mf.ss","exp","vonmises",15,"ssfOUT_30_12_2_VULTURE","VULTURE",2,0.0833333333333333,30,"no effect"
"ssfOUT_30_12_2_VULTURE.33",16.1662434428601,-3353.41073828158,3385.7432251673,"ssf","mf.ss","exp","vonmises",50,"ssfOUT_30_12_2_VULTURE","VULTURE",2,0.0833333333333333,30,"no effect"
"ssfOUT_30_12_2_VULTURE.34",16.1230302243474,-2973.43435835925,3005.68041880795,"ssf","mf.ss","exp","vonmises",158,"ssfOUT_30_12_2_VULTURE","VULTURE",2,0.0833333333333333,30,"no effect"
"ssfOUT_30_12_2_VULTURE.35",16.1220329313008,-2938.43362632456,2970.67769218716,"ssf","mf.ss","exp","vonmises",500,"ssfOUT_30_12_2_VULTURE","VULTURE",2,0.0833333333333333,30,"no effect"
"ssfOUT_30_12_2_VULTURE.36",17.492071599513,-4634.04634469597,4669.030487895,"ssf","mf.ss","exp","unif",5,"ssfOUT_30_12_2_VULTURE","VULTURE",2,0.0833333333333333,30,"no effect"
"ssfOUT_30_12_2_VULTURE.37",17.1978702181974,-4741.81012469853,4776.20586513493,"ssf","mf.ss","exp","unif",15,"ssfOUT_30_12_2_VULTURE","VULTURE",2,0.0833333333333333,30,"no effect"
"ssfOUT_30_12_2_VULTURE.38",16.1138224515657,-3062.94526086891,3095.17290577204,"ssf","mf.ss","exp","unif",50,"ssfOUT_30_12_2_VULTURE","VULTURE",2,0.0833333333333333,30,"no effect"
"ssfOUT_30_12_2_VULTURE.39",16.1211174213908,-2664.86887080623,2697.11110564901,"ssf","mf.ss","exp","unif",158,"ssfOUT_30_12_2_VULTURE","VULTURE",2,0.0833333333333333,30,"no effect"
"ssfOUT_30_12_2_VULTURE.40",16.102355070801,-2865.22204573658,2897.42675587819,"ssf","mf.ss","exp","unif",500,"ssfOUT_30_12_2_VULTURE","VULTURE",2,0.0833333333333333,30,"no effect"
"ssfOUT_30_12_2_KINGCOBRA.1",0.751958957480017,-0.490557289565239,1.99447520452527,"ssf","mf.is","gamma","vonmises",5,"ssfOUT_30_12_2_KINGCOBRA","KINGCOBRA",2,0.0833333333333333,30,"no effect"
"ssfOUT_30_12_2_KINGCOBRA.2",0.285036592284871,-0.984417007141666,1.55449019171141,"ssf","mf.is","gamma","vonmises",15,"ssfOUT_30_12_2_KINGCOBRA","KINGCOBRA",2,0.0833333333333333,30,"no effect"
"ssfOUT_30_12_2_KINGCOBRA.3",-0.0429324305028936,-1.14842112680527,1.06255626579949,"ssf","mf.is","gamma","vonmises",50,"ssfOUT_30_12_2_KINGCOBRA","KINGCOBRA",2,0.0833333333333333,30,"no effect"
"ssfOUT_30_12_2_KINGCOBRA.4",-0.13094753210016,-1.23818089697126,0.976285832770942,"ssf","mf.is","gamma","vonmises",158,"ssfOUT_30_12_2_KINGCOBRA","KINGCOBRA",2,0.0833333333333333,30,"no effect"
"ssfOUT_30_12_2_KINGCOBRA.5",-0.0275737333956788,-1.18059867086801,1.12545120407665,"ssf","mf.is","gamma","vonmises",500,"ssfOUT_30_12_2_KINGCOBRA","KINGCOBRA",2,0.0833333333333333,30,"no effect"
"ssfOUT_30_12_2_KINGCOBRA.6",0.254983444332977,-0.888552338345462,1.39851922701142,"ssf","mf.is","gamma","unif",5,"ssfOUT_30_12_2_KINGCOBRA","KINGCOBRA",2,0.0833333333333333,30,"no effect"
"ssfOUT_30_12_2_KINGCOBRA.7",-0.155822759291903,-1.29099077191192,0.979345253328115,"ssf","mf.is","gamma","unif",15,"ssfOUT_30_12_2_KINGCOBRA","KINGCOBRA",2,0.0833333333333333,30,"no effect"
"ssfOUT_30_12_2_KINGCOBRA.8",-0.112789462373601,-1.29075162611675,1.06517270136954,"ssf","mf.is","gamma","unif",50,"ssfOUT_30_12_2_KINGCOBRA","KINGCOBRA",2,0.0833333333333333,30,"no effect"
"ssfOUT_30_12_2_KINGCOBRA.9",0.0704451449391802,-1.05585009738313,1.19674038726149,"ssf","mf.is","gamma","unif",158,"ssfOUT_30_12_2_KINGCOBRA","KINGCOBRA",2,0.0833333333333333,30,"no effect"
"ssfOUT_30_12_2_KINGCOBRA.10",0.0239186032316318,-1.11353368679015,1.16137089325341,"ssf","mf.is","gamma","unif",500,"ssfOUT_30_12_2_KINGCOBRA","KINGCOBRA",2,0.0833333333333333,30,"no effect"
"ssfOUT_30_12_2_KINGCOBRA.11",2.25492947096159,0.993984107976943,3.51587483394623,"ssf","mf.is","exp","vonmises",5,"ssfOUT_30_12_2_KINGCOBRA","KINGCOBRA",2,0.0833333333333333,30,"preference"
"ssfOUT_30_12_2_KINGCOBRA.12",0.280555689844281,-0.935239819675148,1.49635119936371,"ssf","mf.is","exp","vonmises",15,"ssfOUT_30_12_2_KINGCOBRA","KINGCOBRA",2,0.0833333333333333,30,"no effect"
"ssfOUT_30_12_2_KINGCOBRA.13",-0.230807190919387,-1.29088096230022,0.829266580461452,"ssf","mf.is","exp","vonmises",50,"ssfOUT_30_12_2_KINGCOBRA","KINGCOBRA",2,0.0833333333333333,30,"no effect"
"ssfOUT_30_12_2_KINGCOBRA.14",-0.114059750231213,-1.23293500382384,1.00481550336141,"ssf","mf.is","exp","vonmises",158,"ssfOUT_30_12_2_KINGCOBRA","KINGCOBRA",2,0.0833333333333333,30,"no effect"
"ssfOUT_30_12_2_KINGCOBRA.15",-0.0971892343947051,-1.30304979382927,1.10867132503986,"ssf","mf.is","exp","vonmises",500,"ssfOUT_30_12_2_KINGCOBRA","KINGCOBRA",2,0.0833333333333333,30,"no effect"
"ssfOUT_30_12_2_KINGCOBRA.16",0.2768349530954,-1.3935474873307,1.9472173935215,"ssf","mf.is","exp","unif",5,"ssfOUT_30_12_2_KINGCOBRA","KINGCOBRA",2,0.0833333333333333,30,"no effect"
"ssfOUT_30_12_2_KINGCOBRA.17",0.818940237000118,-0.401580848456182,2.03946132245642,"ssf","mf.is","exp","unif",15,"ssfOUT_30_12_2_KINGCOBRA","KINGCOBRA",2,0.0833333333333333,30,"no effect"
"ssfOUT_30_12_2_KINGCOBRA.18",0.0903645558442031,-1.01336686646627,1.19409597815467,"ssf","mf.is","exp","unif",50,"ssfOUT_30_12_2_KINGCOBRA","KINGCOBRA",2,0.0833333333333333,30,"no effect"
"ssfOUT_30_12_2_KINGCOBRA.19",0.328824975453826,-0.821803421335434,1.47945337224309,"ssf","mf.is","exp","unif",158,"ssfOUT_30_12_2_KINGCOBRA","KINGCOBRA",2,0.0833333333333333,30,"no effect"
"ssfOUT_30_12_2_KINGCOBRA.20",0.245394470433447,-0.987387532057544,1.47817647292444,"ssf","mf.is","exp","unif",500,"ssfOUT_30_12_2_KINGCOBRA","KINGCOBRA",2,0.0833333333333333,30,"no effect"
"ssfOUT_30_12_2_KINGCOBRA.21",0.422180397027066,-0.849001907610228,1.69336270166436,"ssf","mf.ss","gamma","vonmises",5,"ssfOUT_30_12_2_KINGCOBRA","KINGCOBRA",2,0.0833333333333333,30,"no effect"
"ssfOUT_30_12_2_KINGCOBRA.22",-0.453664153565448,-1.86687382192643,0.959545514795537,"ssf","mf.ss","gamma","vonmises",15,"ssfOUT_30_12_2_KINGCOBRA","KINGCOBRA",2,0.0833333333333333,30,"no effect"
"ssfOUT_30_12_2_KINGCOBRA.23",-0.142354676121742,-1.25898924325167,0.974279891008187,"ssf","mf.ss","gamma","vonmises",50,"ssfOUT_30_12_2_KINGCOBRA","KINGCOBRA",2,0.0833333333333333,30,"no effect"
"ssfOUT_30_12_2_KINGCOBRA.24",-0.0465133481500648,-1.15840647585999,1.06537977955986,"ssf","mf.ss","gamma","vonmises",158,"ssfOUT_30_12_2_KINGCOBRA","KINGCOBRA",2,0.0833333333333333,30,"no effect"
"ssfOUT_30_12_2_KINGCOBRA.25",-0.148305103806197,-1.29038943084455,0.993779223232159,"ssf","mf.ss","gamma","vonmises",500,"ssfOUT_30_12_2_KINGCOBRA","KINGCOBRA",2,0.0833333333333333,30,"no effect"
"ssfOUT_30_12_2_KINGCOBRA.26",0.393037879974607,-0.735446740788208,1.52152250073742,"ssf","mf.ss","gamma","unif",5,"ssfOUT_30_12_2_KINGCOBRA","KINGCOBRA",2,0.0833333333333333,30,"no effect"
"ssfOUT_30_12_2_KINGCOBRA.27",-0.267830497727858,-1.38781348411698,0.852152488661266,"ssf","mf.ss","gamma","unif",15,"ssfOUT_30_12_2_KINGCOBRA","KINGCOBRA",2,0.0833333333333333,30,"no effect"
"ssfOUT_30_12_2_KINGCOBRA.28",-0.0711999157822834,-1.23462841518123,1.09222858361667,"ssf","mf.ss","gamma","unif",50,"ssfOUT_30_12_2_KINGCOBRA","KINGCOBRA",2,0.0833333333333333,30,"no effect"
"ssfOUT_30_12_2_KINGCOBRA.29",0.0525934090878544,-1.07027563162992,1.17546244980563,"ssf","mf.ss","gamma","unif",158,"ssfOUT_30_12_2_KINGCOBRA","KINGCOBRA",2,0.0833333333333333,30,"no effect"
"ssfOUT_30_12_2_KINGCOBRA.30",-0.00394203755440051,-1.13762143227146,1.12973735716266,"ssf","mf.ss","gamma","unif",500,"ssfOUT_30_12_2_KINGCOBRA","KINGCOBRA",2,0.0833333333333333,30,"no effect"
"ssfOUT_30_12_2_KINGCOBRA.31",0.489063028383304,-0.586670520670923,1.56479657743753,"ssf","mf.ss","exp","vonmises",5,"ssfOUT_30_12_2_KINGCOBRA","KINGCOBRA",2,0.0833333333333333,30,"no effect"
"ssfOUT_30_12_2_KINGCOBRA.32",0.0541654127989752,-1.02298517500062,1.13131600059857,"ssf","mf.ss","exp","vonmises",15,"ssfOUT_30_12_2_KINGCOBRA","KINGCOBRA",2,0.0833333333333333,30,"no effect"
"ssfOUT_30_12_2_KINGCOBRA.33",0.0827880517535245,-0.952246407230653,1.1178225107377,"ssf","mf.ss","exp","vonmises",50,"ssfOUT_30_12_2_KINGCOBRA","KINGCOBRA",2,0.0833333333333333,30,"no effect"
"ssfOUT_30_12_2_KINGCOBRA.34",-0.0578672036965381,-1.09289426633554,0.977159858942462,"ssf","mf.ss","exp","vonmises",158,"ssfOUT_30_12_2_KINGCOBRA","KINGCOBRA",2,0.0833333333333333,30,"no effect"
"ssfOUT_30_12_2_KINGCOBRA.35",-0.14415198150459,-1.18521818447006,0.896914221460877,"ssf","mf.ss","exp","vonmises",500,"ssfOUT_30_12_2_KINGCOBRA","KINGCOBRA",2,0.0833333333333333,30,"no effect"
"ssfOUT_30_12_2_KINGCOBRA.36",-0.809578671347717,-2.04051972080868,0.421362378113251,"ssf","mf.ss","exp","unif",5,"ssfOUT_30_12_2_KINGCOBRA","KINGCOBRA",2,0.0833333333333333,30,"no effect"
"ssfOUT_30_12_2_KINGCOBRA.37",0.0713643115760315,-0.973571573393566,1.11630019654563,"ssf","mf.ss","exp","unif",15,"ssfOUT_30_12_2_KINGCOBRA","KINGCOBRA",2,0.0833333333333333,30,"no effect"
"ssfOUT_30_12_2_KINGCOBRA.38",0.214125759357336,-0.82819383080128,1.25644534951595,"ssf","mf.ss","exp","unif",50,"ssfOUT_30_12_2_KINGCOBRA","KINGCOBRA",2,0.0833333333333333,30,"no effect"
"ssfOUT_30_12_2_KINGCOBRA.39",0.0833290734975092,-0.960835901479013,1.12749404847403,"ssf","mf.ss","exp","unif",158,"ssfOUT_30_12_2_KINGCOBRA","KINGCOBRA",2,0.0833333333333333,30,"no effect"
"ssfOUT_30_12_2_KINGCOBRA.40",-0.152591633784113,-1.19323624641167,0.888052978843443,"ssf","mf.ss","exp","unif",500,"ssfOUT_30_12_2_KINGCOBRA","KINGCOBRA",2,0.0833333333333333,30,"no effect"
"ssfOUT_30_12_3_BADGER.1",1.6257153487368,0.326780264400444,2.92465043307316,"ssf","mf.is","gamma","vonmises",5,"ssfOUT_30_12_3_BADGER","BADGER",3,0.0833333333333333,30,"preference"
"ssfOUT_30_12_3_BADGER.2",0.616816867278922,-0.451644085032457,1.6852778195903,"ssf","mf.is","gamma","vonmises",15,"ssfOUT_30_12_3_BADGER","BADGER",3,0.0833333333333333,30,"no effect"
"ssfOUT_30_12_3_BADGER.3",0.702143704107495,-0.335904873881367,1.74019228209636,"ssf","mf.is","gamma","vonmises",50,"ssfOUT_30_12_3_BADGER","BADGER",3,0.0833333333333333,30,"no effect"
"ssfOUT_30_12_3_BADGER.4",0.608490391111135,-0.415603881154252,1.63258466337652,"ssf","mf.is","gamma","vonmises",158,"ssfOUT_30_12_3_BADGER","BADGER",3,0.0833333333333333,30,"no effect"
"ssfOUT_30_12_3_BADGER.5",0.749035529752105,-0.274139144365062,1.77221020386927,"ssf","mf.is","gamma","vonmises",500,"ssfOUT_30_12_3_BADGER","BADGER",3,0.0833333333333333,30,"no effect"
"ssfOUT_30_12_3_BADGER.6",0.755531729852691,-0.414915090291641,1.92597854999702,"ssf","mf.is","gamma","unif",5,"ssfOUT_30_12_3_BADGER","BADGER",3,0.0833333333333333,30,"no effect"
"ssfOUT_30_12_3_BADGER.7",0.771704502861068,-0.273727858073445,1.81713686379558,"ssf","mf.is","gamma","unif",15,"ssfOUT_30_12_3_BADGER","BADGER",3,0.0833333333333333,30,"no effect"
"ssfOUT_30_12_3_BADGER.8",0.830774940683913,-0.192981171599564,1.85453105296739,"ssf","mf.is","gamma","unif",50,"ssfOUT_30_12_3_BADGER","BADGER",3,0.0833333333333333,30,"no effect"
"ssfOUT_30_12_3_BADGER.9",0.727806110128211,-0.301526494376305,1.75713871463273,"ssf","mf.is","gamma","unif",158,"ssfOUT_30_12_3_BADGER","BADGER",3,0.0833333333333333,30,"no effect"
"ssfOUT_30_12_3_BADGER.10",0.694107445436226,-0.327532174894743,1.7157470657672,"ssf","mf.is","gamma","unif",500,"ssfOUT_30_12_3_BADGER","BADGER",3,0.0833333333333333,30,"no effect"
"ssfOUT_30_12_3_BADGER.11",0.77514116250876,-0.301631672910131,1.85191399792765,"ssf","mf.is","exp","vonmises",5,"ssfOUT_30_12_3_BADGER","BADGER",3,0.0833333333333333,30,"no effect"
"ssfOUT_30_12_3_BADGER.12",0.930825738232286,-0.131839678729711,1.99349115519428,"ssf","mf.is","exp","vonmises",15,"ssfOUT_30_12_3_BADGER","BADGER",3,0.0833333333333333,30,"no effect"
"ssfOUT_30_12_3_BADGER.13",0.823188040637808,-0.212092959053891,1.85846904032951,"ssf","mf.is","exp","vonmises",50,"ssfOUT_30_12_3_BADGER","BADGER",3,0.0833333333333333,30,"no effect"
"ssfOUT_30_12_3_BADGER.14",0.674990535078618,-0.35372913535392,1.70371020551116,"ssf","mf.is","exp","vonmises",158,"ssfOUT_30_12_3_BADGER","BADGER",3,0.0833333333333333,30,"no effect"
"ssfOUT_30_12_3_BADGER.15",0.661816183701119,-0.360885337712393,1.68451770511463,"ssf","mf.is","exp","vonmises",500,"ssfOUT_30_12_3_BADGER","BADGER",3,0.0833333333333333,30,"no effect"
"ssfOUT_30_12_3_BADGER.16",0.654746688655412,-0.472864271139184,1.78235764845001,"ssf","mf.is","exp","unif",5,"ssfOUT_30_12_3_BADGER","BADGER",3,0.0833333333333333,30,"no effect"
"ssfOUT_30_12_3_BADGER.17",0.683394644349456,-0.369413925117546,1.73620321381646,"ssf","mf.is","exp","unif",15,"ssfOUT_30_12_3_BADGER","BADGER",3,0.0833333333333333,30,"no effect"
"ssfOUT_30_12_3_BADGER.18",0.658250352356777,-0.379344743901705,1.69584544861526,"ssf","mf.is","exp","unif",50,"ssfOUT_30_12_3_BADGER","BADGER",3,0.0833333333333333,30,"no effect"
"ssfOUT_30_12_3_BADGER.19",0.654941010746269,-0.368166438580806,1.67804846007334,"ssf","mf.is","exp","unif",158,"ssfOUT_30_12_3_BADGER","BADGER",3,0.0833333333333333,30,"no effect"
"ssfOUT_30_12_3_BADGER.20",0.69360953023397,-0.329604807563813,1.71682386803175,"ssf","mf.is","exp","unif",500,"ssfOUT_30_12_3_BADGER","BADGER",3,0.0833333333333333,30,"no effect"
"ssfOUT_30_12_3_BADGER.21",0.423478262991915,-0.686187925028999,1.53314445101283,"ssf","mf.ss","gamma","vonmises",5,"ssfOUT_30_12_3_BADGER","BADGER",3,0.0833333333333333,30,"no effect"
"ssfOUT_30_12_3_BADGER.22",0.675983169461782,-0.371810826470353,1.72377716539392,"ssf","mf.ss","gamma","vonmises",15,"ssfOUT_30_12_3_BADGER","BADGER",3,0.0833333333333333,30,"no effect"
"ssfOUT_30_12_3_BADGER.23",0.495027061576225,-0.527181821080506,1.51723594423296,"ssf","mf.ss","gamma","vonmises",50,"ssfOUT_30_12_3_BADGER","BADGER",3,0.0833333333333333,30,"no effect"
"ssfOUT_30_12_3_BADGER.24",0.632051582607574,-0.383686751081119,1.64778991629627,"ssf","mf.ss","gamma","vonmises",158,"ssfOUT_30_12_3_BADGER","BADGER",3,0.0833333333333333,30,"no effect"
"ssfOUT_30_12_3_BADGER.25",0.649224807552407,-0.366344904526895,1.66479451963171,"ssf","mf.ss","gamma","vonmises",500,"ssfOUT_30_12_3_BADGER","BADGER",3,0.0833333333333333,30,"no effect"
"ssfOUT_30_12_3_BADGER.26",0.404422506009045,-0.710286748260689,1.51913176027878,"ssf","mf.ss","gamma","unif",5,"ssfOUT_30_12_3_BADGER","BADGER",3,0.0833333333333333,30,"no effect"
"ssfOUT_30_12_3_BADGER.27",0.69288152012051,-0.348968961013037,1.73473200125406,"ssf","mf.ss","gamma","unif",15,"ssfOUT_30_12_3_BADGER","BADGER",3,0.0833333333333333,30,"no effect"
"ssfOUT_30_12_3_BADGER.28",0.785217113605142,-0.23504592397441,1.8054801511847,"ssf","mf.ss","gamma","unif",50,"ssfOUT_30_12_3_BADGER","BADGER",3,0.0833333333333333,30,"no effect"
"ssfOUT_30_12_3_BADGER.29",0.669727069065819,-0.351893124728832,1.69134726286047,"ssf","mf.ss","gamma","unif",158,"ssfOUT_30_12_3_BADGER","BADGER",3,0.0833333333333333,30,"no effect"
"ssfOUT_30_12_3_BADGER.30",0.642356921591204,-0.374406184928479,1.65912002811089,"ssf","mf.ss","gamma","unif",500,"ssfOUT_30_12_3_BADGER","BADGER",3,0.0833333333333333,30,"no effect"
"ssfOUT_30_12_3_BADGER.31",0.845996592429605,-0.206748858737115,1.89874204359633,"ssf","mf.ss","exp","vonmises",5,"ssfOUT_30_12_3_BADGER","BADGER",3,0.0833333333333333,30,"no effect"
"ssfOUT_30_12_3_BADGER.32",0.801696340489579,-0.247200987323494,1.85059366830265,"ssf","mf.ss","exp","vonmises",15,"ssfOUT_30_12_3_BADGER","BADGER",3,0.0833333333333333,30,"no effect"
"ssfOUT_30_12_3_BADGER.33",0.658116325586748,-0.370568178953152,1.68680083012665,"ssf","mf.ss","exp","vonmises",50,"ssfOUT_30_12_3_BADGER","BADGER",3,0.0833333333333333,30,"no effect"
"ssfOUT_30_12_3_BADGER.34",0.424071961872844,-0.595039168080403,1.44318309182609,"ssf","mf.ss","exp","vonmises",158,"ssfOUT_30_12_3_BADGER","BADGER",3,0.0833333333333333,30,"no effect"
"ssfOUT_30_12_3_BADGER.35",0.463880722958072,-0.552743231164557,1.4805046770807,"ssf","mf.ss","exp","vonmises",500,"ssfOUT_30_12_3_BADGER","BADGER",3,0.0833333333333333,30,"no effect"
"ssfOUT_30_12_3_BADGER.36",0.507241887666054,-0.581227138543092,1.5957109138752,"ssf","mf.ss","exp","unif",5,"ssfOUT_30_12_3_BADGER","BADGER",3,0.0833333333333333,30,"no effect"
"ssfOUT_30_12_3_BADGER.37",0.568164684127939,-0.475327117038905,1.61165648529478,"ssf","mf.ss","exp","unif",15,"ssfOUT_30_12_3_BADGER","BADGER",3,0.0833333333333333,30,"no effect"
"ssfOUT_30_12_3_BADGER.38",0.437394649413918,-0.590838967020792,1.46562826584863,"ssf","mf.ss","exp","unif",50,"ssfOUT_30_12_3_BADGER","BADGER",3,0.0833333333333333,30,"no effect"
"ssfOUT_30_12_3_BADGER.39",0.499274896767947,-0.519833444246401,1.5183832377823,"ssf","mf.ss","exp","unif",158,"ssfOUT_30_12_3_BADGER","BADGER",3,0.0833333333333333,30,"no effect"
"ssfOUT_30_12_3_BADGER.40",0.513703079042761,-0.505717137608942,1.53312329569446,"ssf","mf.ss","exp","unif",500,"ssfOUT_30_12_3_BADGER","BADGER",3,0.0833333333333333,30,"no effect"
"ssfOUT_30_12_3_VULTURE.1",16.0704904767532,-5888.63459389338,5920.77557484689,"ssf","mf.is","gamma","vonmises",5,"ssfOUT_30_12_3_VULTURE","VULTURE",3,0.0833333333333333,30,"no effect"
"ssfOUT_30_12_3_VULTURE.2",16.6120113124902,-4078.58927305478,4111.81329567976,"ssf","mf.is","gamma","vonmises",15,"ssfOUT_30_12_3_VULTURE","VULTURE",3,0.0833333333333333,30,"no effect"
"ssfOUT_30_12_3_VULTURE.3",16.6059346111349,-3402.55387438955,3435.76574361182,"ssf","mf.is","gamma","vonmises",50,"ssfOUT_30_12_3_VULTURE","VULTURE",3,0.0833333333333333,30,"no effect"
"ssfOUT_30_12_3_VULTURE.4",16.510621879378,-3545.41402493388,3578.43526869264,"ssf","mf.is","gamma","vonmises",158,"ssfOUT_30_12_3_VULTURE","VULTURE",3,0.0833333333333333,30,"no effect"
"ssfOUT_30_12_3_VULTURE.5",16.6486618331901,-3516.9288582712,3550.22618193758,"ssf","mf.is","gamma","vonmises",500,"ssfOUT_30_12_3_VULTURE","VULTURE",3,0.0833333333333333,30,"no effect"
"ssfOUT_30_12_3_VULTURE.6",17.7012571186372,-6399.57541446986,6434.97792870713,"ssf","mf.is","gamma","unif",5,"ssfOUT_30_12_3_VULTURE","VULTURE",3,0.0833333333333333,30,"no effect"
"ssfOUT_30_12_3_VULTURE.7",16.4119828510827,-3318.46528229677,3351.28924799894,"ssf","mf.is","gamma","unif",15,"ssfOUT_30_12_3_VULTURE","VULTURE",3,0.0833333333333333,30,"no effect"
"ssfOUT_30_12_3_VULTURE.8",16.5429975935097,-3246.40147496984,3279.48747015686,"ssf","mf.is","gamma","unif",50,"ssfOUT_30_12_3_VULTURE","VULTURE",3,0.0833333333333333,30,"no effect"
"ssfOUT_30_12_3_VULTURE.9",16.4507500875679,-3202.44210091291,3235.34360108805,"ssf","mf.is","gamma","unif",158,"ssfOUT_30_12_3_VULTURE","VULTURE",3,0.0833333333333333,30,"no effect"
"ssfOUT_30_12_3_VULTURE.10",16.4792151122004,-3304.63337186537,3337.59180208978,"ssf","mf.is","gamma","unif",500,"ssfOUT_30_12_3_VULTURE","VULTURE",3,0.0833333333333333,30,"no effect"
"ssfOUT_30_12_3_VULTURE.11",16.6942751311131,-4765.28539256335,4798.67394282558,"ssf","mf.is","exp","vonmises",5,"ssfOUT_30_12_3_VULTURE","VULTURE",3,0.0833333333333333,30,"no effect"
"ssfOUT_30_12_3_VULTURE.12",16.358335764672,-3871.29245088825,3904.0091224176,"ssf","mf.is","exp","vonmises",15,"ssfOUT_30_12_3_VULTURE","VULTURE",3,0.0833333333333333,30,"no effect"
"ssfOUT_30_12_3_VULTURE.13",16.3868408512766,-3820.06662036921,3852.84030207176,"ssf","mf.is","exp","vonmises",50,"ssfOUT_30_12_3_VULTURE","VULTURE",3,0.0833333333333333,30,"no effect"
"ssfOUT_30_12_3_VULTURE.14",16.648304728303,-3837.74105591415,3871.03766537075,"ssf","mf.is","exp","vonmises",158,"ssfOUT_30_12_3_VULTURE","VULTURE",3,0.0833333333333333,30,"no effect"
"ssfOUT_30_12_3_VULTURE.15",16.6879612874183,-3718.84179563493,3752.21771820977,"ssf","mf.is","exp","vonmises",500,"ssfOUT_30_12_3_VULTURE","VULTURE",3,0.0833333333333333,30,"no effect"
"ssfOUT_30_12_3_VULTURE.16",16.5403305451124,-5652.3497885572,5685.43044964743,"ssf","mf.is","exp","unif",5,"ssfOUT_30_12_3_VULTURE","VULTURE",3,0.0833333333333333,30,"no effect"
"ssfOUT_30_12_3_VULTURE.17",17.7295962683132,-5217.52470618082,5252.98389871744,"ssf","mf.is","exp","unif",15,"ssfOUT_30_12_3_VULTURE","VULTURE",3,0.0833333333333333,30,"no effect"
"ssfOUT_30_12_3_VULTURE.18",16.6827648011369,-3332.59313065655,3365.95866025883,"ssf","mf.is","exp","unif",50,"ssfOUT_30_12_3_VULTURE","VULTURE",3,0.0833333333333333,30,"no effect"
"ssfOUT_30_12_3_VULTURE.19",16.6158199230456,-3556.53327371547,3589.76491356156,"ssf","mf.is","exp","unif",158,"ssfOUT_30_12_3_VULTURE","VULTURE",3,0.0833333333333333,30,"no effect"
"ssfOUT_30_12_3_VULTURE.20",16.5393308995961,-3398.86246416162,3431.94112596082,"ssf","mf.is","exp","unif",500,"ssfOUT_30_12_3_VULTURE","VULTURE",3,0.0833333333333333,30,"no effect"
"ssfOUT_30_12_3_VULTURE.21",16.3890433463075,-5481.51378577984,5514.29187247246,"ssf","mf.ss","gamma","vonmises",5,"ssfOUT_30_12_3_VULTURE","VULTURE",3,0.0833333333333333,30,"no effect"
"ssfOUT_30_12_3_VULTURE.22",16.2809240650546,-4078.5479475407,4111.10979567081,"ssf","mf.ss","gamma","vonmises",15,"ssfOUT_30_12_3_VULTURE","VULTURE",3,0.0833333333333333,30,"no effect"
"ssfOUT_30_12_3_VULTURE.23",16.231412798853,-3547.32772839412,3579.79055399182,"ssf","mf.ss","gamma","vonmises",50,"ssfOUT_30_12_3_VULTURE","VULTURE",3,0.0833333333333333,30,"no effect"
"ssfOUT_30_12_3_VULTURE.24",16.2095655389369,-3496.09209961522,3528.51123069309,"ssf","mf.ss","gamma","vonmises",158,"ssfOUT_30_12_3_VULTURE","VULTURE",3,0.0833333333333333,30,"no effect"
"ssfOUT_30_12_3_VULTURE.25",16.225813654171,-3508.58281645245,3541.03444376079,"ssf","mf.ss","gamma","vonmises",500,"ssfOUT_30_12_3_VULTURE","VULTURE",3,0.0833333333333333,30,"no effect"
"ssfOUT_30_12_3_VULTURE.26",17.5871226955889,-6455.04065065636,6490.21489604754,"ssf","mf.ss","gamma","unif",5,"ssfOUT_30_12_3_VULTURE","VULTURE",3,0.0833333333333333,30,"no effect"
"ssfOUT_30_12_3_VULTURE.27",16.2814377433546,-3274.65207406637,3307.21494955308,"ssf","mf.ss","gamma","unif",15,"ssfOUT_30_12_3_VULTURE","VULTURE",3,0.0833333333333333,30,"no effect"
"ssfOUT_30_12_3_VULTURE.28",16.3520555760584,-3254.66503905582,3287.36915020793,"ssf","mf.ss","gamma","unif",50,"ssfOUT_30_12_3_VULTURE","VULTURE",3,0.0833333333333333,30,"no effect"
"ssfOUT_30_12_3_VULTURE.29",16.2660019990356,-3201.41639095897,3233.94839495704,"ssf","mf.ss","gamma","unif",158,"ssfOUT_30_12_3_VULTURE","VULTURE",3,0.0833333333333333,30,"no effect"
"ssfOUT_30_12_3_VULTURE.30",16.2699649417302,-3293.59646073356,3326.13639061702,"ssf","mf.ss","gamma","unif",500,"ssfOUT_30_12_3_VULTURE","VULTURE",3,0.0833333333333333,30,"no effect"
"ssfOUT_30_12_3_VULTURE.31",16.4989004875115,-4483.23668303485,4516.23448400987,"ssf","mf.ss","exp","vonmises",5,"ssfOUT_30_12_3_VULTURE","VULTURE",3,0.0833333333333333,30,"no effect"
"ssfOUT_30_12_3_VULTURE.32",16.3307732385197,-3882.29632328674,3914.95786976378,"ssf","mf.ss","exp","vonmises",15,"ssfOUT_30_12_3_VULTURE","VULTURE",3,0.0833333333333333,30,"no effect"
"ssfOUT_30_12_3_VULTURE.33",16.20540900598,-3694.25686761623,3726.66768562819,"ssf","mf.ss","exp","vonmises",50,"ssfOUT_30_12_3_VULTURE","VULTURE",3,0.0833333333333333,30,"no effect"
"ssfOUT_30_12_3_VULTURE.34",16.1869587951637,-3788.4281492444,3820.80206683473,"ssf","mf.ss","exp","vonmises",158,"ssfOUT_30_12_3_VULTURE","VULTURE",3,0.0833333333333333,30,"no effect"
"ssfOUT_30_12_3_VULTURE.35",15.2033125208961,-2211.97906484732,2242.38568988911,"ssf","mf.ss","exp","vonmises",500,"ssfOUT_30_12_3_VULTURE","VULTURE",3,0.0833333333333333,30,"no effect"
"ssfOUT_30_12_3_VULTURE.36",17.437113950733,-6363.68417033583,6398.55839823729,"ssf","mf.ss","exp","unif",5,"ssfOUT_30_12_3_VULTURE","VULTURE",3,0.0833333333333333,30,"no effect"
"ssfOUT_30_12_3_VULTURE.37",17.2949276573722,-5196.03719994106,5230.62705525581,"ssf","mf.ss","exp","unif",15,"ssfOUT_30_12_3_VULTURE","VULTURE",3,0.0833333333333333,30,"no effect"
"ssfOUT_30_12_3_VULTURE.38",16.2410552334498,-3182.64204132942,3215.12415179632,"ssf","mf.ss","exp","unif",50,"ssfOUT_30_12_3_VULTURE","VULTURE",3,0.0833333333333333,30,"no effect"
"ssfOUT_30_12_3_VULTURE.39",16.2412729962742,-3533.59574140541,3566.07828739796,"ssf","mf.ss","exp","unif",158,"ssfOUT_30_12_3_VULTURE","VULTURE",3,0.0833333333333333,30,"no effect"
"ssfOUT_30_12_3_VULTURE.40",16.2230668324018,-3322.56278596287,3355.00891962768,"ssf","mf.ss","exp","unif",500,"ssfOUT_30_12_3_VULTURE","VULTURE",3,0.0833333333333333,30,"no effect"
"ssfOUT_30_12_3_KINGCOBRA.1",0.460846293902074,-0.0764638439353008,0.998156431739449,"ssf","mf.is","gamma","vonmises",5,"ssfOUT_30_12_3_KINGCOBRA","KINGCOBRA",3,0.0833333333333333,30,"no effect"
"ssfOUT_30_12_3_KINGCOBRA.2",13.7698758920476,-4528.17437953924,4555.71413132333,"ssf","mf.is","gamma","vonmises",15,"ssfOUT_30_12_3_KINGCOBRA","KINGCOBRA",3,0.0833333333333333,30,"no effect"
"ssfOUT_30_12_3_KINGCOBRA.3",14.1368675361965,-3720.05938167279,3748.33311674518,"ssf","mf.is","gamma","vonmises",50,"ssfOUT_30_12_3_KINGCOBRA","KINGCOBRA",3,0.0833333333333333,30,"no effect"
"ssfOUT_30_12_3_KINGCOBRA.4",15.1952549534063,-3390.81039925218,3421.20090915899,"ssf","mf.is","gamma","vonmises",158,"ssfOUT_30_12_3_KINGCOBRA","KINGCOBRA",3,0.0833333333333333,30,"no effect"
"ssfOUT_30_12_3_KINGCOBRA.5",13.9201450279742,-2443.7706765004,2471.61096655634,"ssf","mf.is","gamma","vonmises",500,"ssfOUT_30_12_3_KINGCOBRA","KINGCOBRA",3,0.0833333333333333,30,"no effect"
"ssfOUT_30_12_3_KINGCOBRA.6",0.270174689424527,-0.176447784989591,0.716797163838645,"ssf","mf.is","gamma","unif",5,"ssfOUT_30_12_3_KINGCOBRA","KINGCOBRA",3,0.0833333333333333,30,"no effect"
"ssfOUT_30_12_3_KINGCOBRA.7",15.5099679135713,-4879.71715914475,4910.73709497189,"ssf","mf.is","gamma","unif",15,"ssfOUT_30_12_3_KINGCOBRA","KINGCOBRA",3,0.0833333333333333,30,"no effect"
"ssfOUT_30_12_3_KINGCOBRA.8",13.864198548207,-3249.8951817563,3277.62357885271,"ssf","mf.is","gamma","unif",50,"ssfOUT_30_12_3_KINGCOBRA","KINGCOBRA",3,0.0833333333333333,30,"no effect"
"ssfOUT_30_12_3_KINGCOBRA.9",14.609165017407,-2897.47599393335,2926.69432396816,"ssf","mf.is","gamma","unif",158,"ssfOUT_30_12_3_KINGCOBRA","KINGCOBRA",3,0.0833333333333333,30,"no effect"
"ssfOUT_30_12_3_KINGCOBRA.10",14.4459144201086,-3284.19783010823,3313.08965894845,"ssf","mf.is","gamma","unif",500,"ssfOUT_30_12_3_KINGCOBRA","KINGCOBRA",3,0.0833333333333333,30,"no effect"
"ssfOUT_30_12_3_KINGCOBRA.11",0.661831650004931,0.186661203713451,1.13700209629641,"ssf","mf.is","exp","vonmises",5,"ssfOUT_30_12_3_KINGCOBRA","KINGCOBRA",3,0.0833333333333333,30,"preference"
"ssfOUT_30_12_3_KINGCOBRA.12",13.8745178389834,-4395.93106092593,4423.68009660389,"ssf","mf.is","exp","vonmises",15,"ssfOUT_30_12_3_KINGCOBRA","KINGCOBRA",3,0.0833333333333333,30,"no effect"
"ssfOUT_30_12_3_KINGCOBRA.13",14.1011088442195,-5240.57992682376,5268.7821445122,"ssf","mf.is","exp","vonmises",50,"ssfOUT_30_12_3_KINGCOBRA","KINGCOBRA",3,0.0833333333333333,30,"no effect"
"ssfOUT_30_12_3_KINGCOBRA.14",13.4020640922852,-3302.7090476657,3329.51317585027,"ssf","mf.is","exp","vonmises",158,"ssfOUT_30_12_3_KINGCOBRA","KINGCOBRA",3,0.0833333333333333,30,"no effect"
"ssfOUT_30_12_3_KINGCOBRA.15",14.2649018893926,-3834.34133368326,3862.87113746204,"ssf","mf.is","exp","vonmises",500,"ssfOUT_30_12_3_KINGCOBRA","KINGCOBRA",3,0.0833333333333333,30,"no effect"
"ssfOUT_30_12_3_KINGCOBRA.16",0.898856930607341,0.423196458870414,1.37451740234427,"ssf","mf.is","exp","unif",5,"ssfOUT_30_12_3_KINGCOBRA","KINGCOBRA",3,0.0833333333333333,30,"preference"
"ssfOUT_30_12_3_KINGCOBRA.17",NA,NA,NA,"ssf","mf.is","exp","unif",15,"ssfOUT_30_12_3_KINGCOBRA","KINGCOBRA",3,0.0833333333333333,30,NA
"ssfOUT_30_12_3_KINGCOBRA.18",12.8071373665421,-3470.1919071618,3495.80618189489,"ssf","mf.is","exp","unif",50,"ssfOUT_30_12_3_KINGCOBRA","KINGCOBRA",3,0.0833333333333333,30,"no effect"
"ssfOUT_30_12_3_KINGCOBRA.19",15.3150266313673,-3541.95915093967,3572.5892042024,"ssf","mf.is","exp","unif",158,"ssfOUT_30_12_3_KINGCOBRA","KINGCOBRA",3,0.0833333333333333,30,"no effect"
"ssfOUT_30_12_3_KINGCOBRA.20",13.8582025736567,-2427.0810461559,2454.79745130321,"ssf","mf.is","exp","unif",500,"ssfOUT_30_12_3_KINGCOBRA","KINGCOBRA",3,0.0833333333333333,30,"no effect"
"ssfOUT_30_12_3_KINGCOBRA.21",0.66299571783882,0.240385529724981,1.08560590595266,"ssf","mf.ss","gamma","vonmises",5,"ssfOUT_30_12_3_KINGCOBRA","KINGCOBRA",3,0.0833333333333333,30,"preference"
"ssfOUT_30_12_3_KINGCOBRA.22",15.1961587064108,-5238.49729972504,5268.88961713787,"ssf","mf.ss","gamma","vonmises",15,"ssfOUT_30_12_3_KINGCOBRA","KINGCOBRA",3,0.0833333333333333,30,"no effect"
"ssfOUT_30_12_3_KINGCOBRA.23",13.090289542342,-2760.84079912706,2787.02137821174,"ssf","mf.ss","gamma","vonmises",50,"ssfOUT_30_12_3_KINGCOBRA","KINGCOBRA",3,0.0833333333333333,30,"no effect"
"ssfOUT_30_12_3_KINGCOBRA.24",14.1269324532111,-3032.57660366727,3060.83046857369,"ssf","mf.ss","gamma","vonmises",158,"ssfOUT_30_12_3_KINGCOBRA","KINGCOBRA",3,0.0833333333333333,30,"no effect"
"ssfOUT_30_12_3_KINGCOBRA.25",13.1207554910156,-2223.40267461267,2249.64418559471,"ssf","mf.ss","gamma","vonmises",500,"ssfOUT_30_12_3_KINGCOBRA","KINGCOBRA",3,0.0833333333333333,30,"no effect"
"ssfOUT_30_12_3_KINGCOBRA.26",0.581289083039376,0.153193175663715,1.00938499041504,"ssf","mf.ss","gamma","unif",5,"ssfOUT_30_12_3_KINGCOBRA","KINGCOBRA",3,0.0833333333333333,30,"preference"
"ssfOUT_30_12_3_KINGCOBRA.27",14.2401411505606,-4517.76268489983,4546.24296720095,"ssf","mf.ss","gamma","unif",15,"ssfOUT_30_12_3_KINGCOBRA","KINGCOBRA",3,0.0833333333333333,30,"no effect"
"ssfOUT_30_12_3_KINGCOBRA.28",14.1649185459199,-3231.7449608304,3260.07479792224,"ssf","mf.ss","gamma","unif",50,"ssfOUT_30_12_3_KINGCOBRA","KINGCOBRA",3,0.0833333333333333,30,"no effect"
"ssfOUT_30_12_3_KINGCOBRA.29",14.1443613560102,-2838.91540473063,2867.20412744265,"ssf","mf.ss","gamma","unif",158,"ssfOUT_30_12_3_KINGCOBRA","KINGCOBRA",3,0.0833333333333333,30,"no effect"
"ssfOUT_30_12_3_KINGCOBRA.30",14.1491466830704,-3269.91794116366,3298.2162345298,"ssf","mf.ss","gamma","unif",500,"ssfOUT_30_12_3_KINGCOBRA","KINGCOBRA",3,0.0833333333333333,30,"no effect"
"ssfOUT_30_12_3_KINGCOBRA.31",0.946973104057922,0.538279545133156,1.35566666298269,"ssf","mf.ss","exp","vonmises",5,"ssfOUT_30_12_3_KINGCOBRA","KINGCOBRA",3,0.0833333333333333,30,"preference"
"ssfOUT_30_12_3_KINGCOBRA.32",15.2346928779259,-5243.05990229776,5273.52928805361,"ssf","mf.ss","exp","vonmises",15,"ssfOUT_30_12_3_KINGCOBRA","KINGCOBRA",3,0.0833333333333333,30,"no effect"
"ssfOUT_30_12_3_KINGCOBRA.33",13.1337817350315,-2766.32288195604,2792.5904454261,"ssf","mf.ss","exp","vonmises",50,"ssfOUT_30_12_3_KINGCOBRA","KINGCOBRA",3,0.0833333333333333,30,"no effect"
"ssfOUT_30_12_3_KINGCOBRA.34",13.2405622183351,-2828.260963032,2854.74208746867,"ssf","mf.ss","exp","vonmises",158,"ssfOUT_30_12_3_KINGCOBRA","KINGCOBRA",3,0.0833333333333333,30,"no effect"
"ssfOUT_30_12_3_KINGCOBRA.35",12.1837662804103,-2205.97586074832,2230.34339330914,"ssf","mf.ss","exp","vonmises",500,"ssfOUT_30_12_3_KINGCOBRA","KINGCOBRA",3,0.0833333333333333,30,"no effect"
"ssfOUT_30_12_3_KINGCOBRA.36",0.814007538734571,0.410913289461891,1.21710178800725,"ssf","mf.ss","exp","unif",5,"ssfOUT_30_12_3_KINGCOBRA","KINGCOBRA",3,0.0833333333333333,30,"preference"
"ssfOUT_30_12_3_KINGCOBRA.37",14.1026144260299,-4456.74061390497,4484.94584275703,"ssf","mf.ss","exp","unif",15,"ssfOUT_30_12_3_KINGCOBRA","KINGCOBRA",3,0.0833333333333333,30,"no effect"
"ssfOUT_30_12_3_KINGCOBRA.38",13.2772736077965,-2791.68711847271,2818.2416656883,"ssf","mf.ss","exp","unif",50,"ssfOUT_30_12_3_KINGCOBRA","KINGCOBRA",3,0.0833333333333333,30,"no effect"
"ssfOUT_30_12_3_KINGCOBRA.39",13.2292035893533,-2829.19647968509,2855.6548868638,"ssf","mf.ss","exp","unif",158,"ssfOUT_30_12_3_KINGCOBRA","KINGCOBRA",3,0.0833333333333333,30,"no effect"
"ssfOUT_30_12_3_KINGCOBRA.40",13.2702085281287,-2553.13945178698,2579.67986884324,"ssf","mf.ss","exp","unif",500,"ssfOUT_30_12_3_KINGCOBRA","KINGCOBRA",3,0.0833333333333333,30,"no effect"
"ssfOUT_30_12_4_BADGER.1",18.5720356499918,-6891.84982835376,6928.99389965375,"ssf","mf.is","gamma","vonmises",5,"ssfOUT_30_12_4_BADGER","BADGER",4,0.0833333333333333,30,"no effect"
"ssfOUT_30_12_4_BADGER.2",18.5651374624425,-4298.57817924217,4335.70845416705,"ssf","mf.is","gamma","vonmises",15,"ssfOUT_30_12_4_BADGER","BADGER",4,0.0833333333333333,30,"no effect"
"ssfOUT_30_12_4_BADGER.3",18.5010416285624,-5035.68654293489,5072.68862619201,"ssf","mf.is","gamma","vonmises",50,"ssfOUT_30_12_4_BADGER","BADGER",4,0.0833333333333333,30,"no effect"
"ssfOUT_30_12_4_BADGER.4",17.4423164914216,-3107.34041408787,3142.22504707072,"ssf","mf.is","gamma","vonmises",158,"ssfOUT_30_12_4_BADGER","BADGER",4,0.0833333333333333,30,"no effect"
"ssfOUT_30_12_4_BADGER.5",17.2511535291141,-3056.55289569281,3091.05520275104,"ssf","mf.is","gamma","vonmises",500,"ssfOUT_30_12_4_BADGER","BADGER",4,0.0833333333333333,30,"no effect"
"ssfOUT_30_12_4_BADGER.6",16.5656334980157,-5663.0918554049,5696.22312240093,"ssf","mf.is","gamma","unif",5,"ssfOUT_30_12_4_BADGER","BADGER",4,0.0833333333333333,30,"no effect"
"ssfOUT_30_12_4_BADGER.7",18.2560149925147,-5040.69140612599,5077.20343611102,"ssf","mf.is","gamma","unif",15,"ssfOUT_30_12_4_BADGER","BADGER",4,0.0833333333333333,30,"no effect"
"ssfOUT_30_12_4_BADGER.8",18.1418132563122,-4535.70813058918,4571.99175710181,"ssf","mf.is","gamma","unif",50,"ssfOUT_30_12_4_BADGER","BADGER",4,0.0833333333333333,30,"no effect"
"ssfOUT_30_12_4_BADGER.9",17.0833940993151,-2941.86300058223,2976.02978878086,"ssf","mf.is","gamma","unif",158,"ssfOUT_30_12_4_BADGER","BADGER",4,0.0833333333333333,30,"no effect"
"ssfOUT_30_12_4_BADGER.10",17.1569020796001,-2880.02706647229,2914.34087063149,"ssf","mf.is","gamma","unif",500,"ssfOUT_30_12_4_BADGER","BADGER",4,0.0833333333333333,30,"no effect"
"ssfOUT_30_12_4_BADGER.11",19.6656438602217,-6276.54008204556,6315.871369766,"ssf","mf.is","exp","vonmises",5,"ssfOUT_30_12_4_BADGER","BADGER",4,0.0833333333333333,30,"no effect"
"ssfOUT_30_12_4_BADGER.12",18.2122125612231,-5222.60935724304,5259.03378236549,"ssf","mf.is","exp","vonmises",15,"ssfOUT_30_12_4_BADGER","BADGER",4,0.0833333333333333,30,"no effect"
"ssfOUT_30_12_4_BADGER.13",18.0876636017166,-4957.40371216308,4993.57903936652,"ssf","mf.is","exp","vonmises",50,"ssfOUT_30_12_4_BADGER","BADGER",4,0.0833333333333333,30,"no effect"
"ssfOUT_30_12_4_BADGER.14",17.3609622580795,-3227.29427312145,3262.0161976376,"ssf","mf.is","exp","vonmises",158,"ssfOUT_30_12_4_BADGER","BADGER",4,0.0833333333333333,30,"no effect"
"ssfOUT_30_12_4_BADGER.15",17.2988635678537,-3272.0915199612,3306.68924709691,"ssf","mf.is","exp","vonmises",500,"ssfOUT_30_12_4_BADGER","BADGER",4,0.0833333333333333,30,"no effect"
"ssfOUT_30_12_4_BADGER.16",18.338720935313,-4892.07871133676,4928.75615320739,"ssf","mf.is","exp","unif",5,"ssfOUT_30_12_4_BADGER","BADGER",4,0.0833333333333333,30,"no effect"
"ssfOUT_30_12_4_BADGER.17",18.1393496373453,-4889.24184784329,4925.52054711798,"ssf","mf.is","exp","unif",15,"ssfOUT_30_12_4_BADGER","BADGER",4,0.0833333333333333,30,"no effect"
"ssfOUT_30_12_4_BADGER.18",17.2367314347279,-3318.47600730028,3352.94947016974,"ssf","mf.is","exp","unif",50,"ssfOUT_30_12_4_BADGER","BADGER",4,0.0833333333333333,30,"no effect"
"ssfOUT_30_12_4_BADGER.19",17.1830275778924,-2981.75815443438,3016.12420959016,"ssf","mf.is","exp","unif",158,"ssfOUT_30_12_4_BADGER","BADGER",4,0.0833333333333333,30,"no effect"
"ssfOUT_30_12_4_BADGER.20",17.3256608417633,-2973.64050974644,3008.29183142997,"ssf","mf.is","exp","unif",500,"ssfOUT_30_12_4_BADGER","BADGER",4,0.0833333333333333,30,"no effect"
"ssfOUT_30_12_4_BADGER.21",17.9264041267346,-6038.9524332688,6074.80524152227,"ssf","mf.ss","gamma","vonmises",5,"ssfOUT_30_12_4_BADGER","BADGER",4,0.0833333333333333,30,"no effect"
"ssfOUT_30_12_4_BADGER.22",17.5753874262053,-4885.32611332892,4920.47688818133,"ssf","mf.ss","gamma","vonmises",15,"ssfOUT_30_12_4_BADGER","BADGER",4,0.0833333333333333,30,"no effect"
"ssfOUT_30_12_4_BADGER.23",16.4283915057754,-3119.08853713141,3151.94532014296,"ssf","mf.ss","gamma","vonmises",50,"ssfOUT_30_12_4_BADGER","BADGER",4,0.0833333333333333,30,"no effect"
"ssfOUT_30_12_4_BADGER.24",16.4268178275182,-3175.29315487348,3208.14679052852,"ssf","mf.ss","gamma","vonmises",158,"ssfOUT_30_12_4_BADGER","BADGER",4,0.0833333333333333,30,"no effect"
"ssfOUT_30_12_4_BADGER.25",16.4363115335487,-3266.94100143435,3299.81362450145,"ssf","mf.ss","gamma","vonmises",500,"ssfOUT_30_12_4_BADGER","BADGER",4,0.0833333333333333,30,"no effect"
"ssfOUT_30_12_4_BADGER.26",15.7178002497821,-4933.05122538646,4964.48682588602,"ssf","mf.ss","gamma","unif",5,"ssfOUT_30_12_4_BADGER","BADGER",4,0.0833333333333333,30,"no effect"
"ssfOUT_30_12_4_BADGER.27",17.6270631041402,-5403.63571486176,5438.88984107004,"ssf","mf.ss","gamma","unif",15,"ssfOUT_30_12_4_BADGER","BADGER",4,0.0833333333333333,30,"no effect"
"ssfOUT_30_12_4_BADGER.28",16.600677873816,-2809.76496680261,2842.96632255024,"ssf","mf.ss","gamma","unif",50,"ssfOUT_30_12_4_BADGER","BADGER",4,0.0833333333333333,30,"no effect"
"ssfOUT_30_12_4_BADGER.29",16.5477006552374,-2966.38723953414,2999.48264084461,"ssf","mf.ss","gamma","unif",158,"ssfOUT_30_12_4_BADGER","BADGER",4,0.0833333333333333,30,"no effect"
"ssfOUT_30_12_4_BADGER.30",16.5891298028391,-2914.15406821035,2947.33232781603,"ssf","mf.ss","gamma","unif",500,"ssfOUT_30_12_4_BADGER","BADGER",4,0.0833333333333333,30,"no effect"
"ssfOUT_30_12_4_BADGER.31",16.8114120154055,-5555.83060777341,5589.45343180423,"ssf","mf.ss","exp","vonmises",5,"ssfOUT_30_12_4_BADGER","BADGER",4,0.0833333333333333,30,"no effect"
"ssfOUT_30_12_4_BADGER.32",16.4483573988816,-3594.58295577311,3627.47967057088,"ssf","mf.ss","exp","vonmises",15,"ssfOUT_30_12_4_BADGER","BADGER",4,0.0833333333333333,30,"no effect"
"ssfOUT_30_12_4_BADGER.33",16.3957720420496,-3383.18800998683,3415.97955407092,"ssf","mf.ss","exp","vonmises",50,"ssfOUT_30_12_4_BADGER","BADGER",4,0.0833333333333333,30,"no effect"
"ssfOUT_30_12_4_BADGER.34",16.3896394658272,-3388.37071136295,3421.14999029461,"ssf","mf.ss","exp","vonmises",158,"ssfOUT_30_12_4_BADGER","BADGER",4,0.0833333333333333,30,"no effect"
"ssfOUT_30_12_4_BADGER.35",16.3913182490751,-3474.38037152042,3507.16300801857,"ssf","mf.ss","exp","vonmises",500,"ssfOUT_30_12_4_BADGER","BADGER",4,0.0833333333333333,30,"no effect"
"ssfOUT_30_12_4_BADGER.36",17.786699218789,-4606.21331744131,4641.78671587889,"ssf","mf.ss","exp","unif",5,"ssfOUT_30_12_4_BADGER","BADGER",4,0.0833333333333333,30,"no effect"
"ssfOUT_30_12_4_BADGER.37",17.5979647198991,-5007.64489201346,5042.84082145326,"ssf","mf.ss","exp","unif",15,"ssfOUT_30_12_4_BADGER","BADGER",4,0.0833333333333333,30,"no effect"
"ssfOUT_30_12_4_BADGER.38",16.5307945348012,-3340.7584820785,3373.8200711481,"ssf","mf.ss","exp","unif",50,"ssfOUT_30_12_4_BADGER","BADGER",4,0.0833333333333333,30,"no effect"
"ssfOUT_30_12_4_BADGER.39",16.5389700196847,-3011.21909050536,3044.29703054472,"ssf","mf.ss","exp","unif",158,"ssfOUT_30_12_4_BADGER","BADGER",4,0.0833333333333333,30,"no effect"
"ssfOUT_30_12_4_BADGER.40",16.5457656078937,-2949.21229149477,2982.30382271056,"ssf","mf.ss","exp","unif",500,"ssfOUT_30_12_4_BADGER","BADGER",4,0.0833333333333333,30,"no effect"
"ssfOUT_30_12_4_VULTURE.1",-0.136580455563601,-0.956035595427777,0.682874684300574,"ssf","mf.is","gamma","vonmises",5,"ssfOUT_30_12_4_VULTURE","VULTURE",4,0.0833333333333333,30,"no effect"
"ssfOUT_30_12_4_VULTURE.2",0.354965837785573,-0.400107342875315,1.11003901844646,"ssf","mf.is","gamma","vonmises",15,"ssfOUT_30_12_4_VULTURE","VULTURE",4,0.0833333333333333,30,"no effect"
"ssfOUT_30_12_4_VULTURE.3",-0.10664904701905,-0.849388403592541,0.63609030955444,"ssf","mf.is","gamma","vonmises",50,"ssfOUT_30_12_4_VULTURE","VULTURE",4,0.0833333333333333,30,"no effect"
"ssfOUT_30_12_4_VULTURE.4",0.0902662817788707,-0.648019048297276,0.828551611855017,"ssf","mf.is","gamma","vonmises",158,"ssfOUT_30_12_4_VULTURE","VULTURE",4,0.0833333333333333,30,"no effect"
"ssfOUT_30_12_4_VULTURE.5",-0.102945980506506,-0.8361522985203,0.630260337507287,"ssf","mf.is","gamma","vonmises",500,"ssfOUT_30_12_4_VULTURE","VULTURE",4,0.0833333333333333,30,"no effect"
"ssfOUT_30_12_4_VULTURE.6",-0.639129130354405,-1.49047798073061,0.212219720021804,"ssf","mf.is","gamma","unif",5,"ssfOUT_30_12_4_VULTURE","VULTURE",4,0.0833333333333333,30,"no effect"
"ssfOUT_30_12_4_VULTURE.7",-0.10442691709352,-0.870010499189737,0.661156665002696,"ssf","mf.is","gamma","unif",15,"ssfOUT_30_12_4_VULTURE","VULTURE",4,0.0833333333333333,30,"no effect"
"ssfOUT_30_12_4_VULTURE.8",0.129753057223684,-0.61268802656653,0.872194141013897,"ssf","mf.is","gamma","unif",50,"ssfOUT_30_12_4_VULTURE","VULTURE",4,0.0833333333333333,30,"no effect"
"ssfOUT_30_12_4_VULTURE.9",0.027896653708366,-0.709002196254414,0.764795503671145,"ssf","mf.is","gamma","unif",158,"ssfOUT_30_12_4_VULTURE","VULTURE",4,0.0833333333333333,30,"no effect"
"ssfOUT_30_12_4_VULTURE.10",-0.0728163620131441,-0.806935499377009,0.661302775350721,"ssf","mf.is","gamma","unif",500,"ssfOUT_30_12_4_VULTURE","VULTURE",4,0.0833333333333333,30,"no effect"
"ssfOUT_30_12_4_VULTURE.11",-0.0981502149920797,-1.04388394134841,0.847583511364251,"ssf","mf.is","exp","vonmises",5,"ssfOUT_30_12_4_VULTURE","VULTURE",4,0.0833333333333333,30,"no effect"
"ssfOUT_30_12_4_VULTURE.12",-0.0688091562440932,-0.855220686445535,0.717602373957349,"ssf","mf.is","exp","vonmises",15,"ssfOUT_30_12_4_VULTURE","VULTURE",4,0.0833333333333333,30,"no effect"
"ssfOUT_30_12_4_VULTURE.13",0.145909032724694,-0.597926576639063,0.88974464208845,"ssf","mf.is","exp","vonmises",50,"ssfOUT_30_12_4_VULTURE","VULTURE",4,0.0833333333333333,30,"no effect"
"ssfOUT_30_12_4_VULTURE.14",0.189353699645053,-0.548703113123644,0.927410512413749,"ssf","mf.is","exp","vonmises",158,"ssfOUT_30_12_4_VULTURE","VULTURE",4,0.0833333333333333,30,"no effect"
"ssfOUT_30_12_4_VULTURE.15",0.0173032824440948,-0.718127719119986,0.752734284008176,"ssf","mf.is","exp","vonmises",500,"ssfOUT_30_12_4_VULTURE","VULTURE",4,0.0833333333333333,30,"no effect"
"ssfOUT_30_12_4_VULTURE.16",-0.0366522029948123,-0.860717454274977,0.787413048285352,"ssf","mf.is","exp","unif",5,"ssfOUT_30_12_4_VULTURE","VULTURE",4,0.0833333333333333,30,"no effect"
"ssfOUT_30_12_4_VULTURE.17",0.352929926146965,-0.416907123073313,1.12276697536724,"ssf","mf.is","exp","unif",15,"ssfOUT_30_12_4_VULTURE","VULTURE",4,0.0833333333333333,30,"no effect"
"ssfOUT_30_12_4_VULTURE.18",-0.0240812887153524,-0.769493480764537,0.721330903333833,"ssf","mf.is","exp","unif",50,"ssfOUT_30_12_4_VULTURE","VULTURE",4,0.0833333333333333,30,"no effect"
"ssfOUT_30_12_4_VULTURE.19",0.0369847991757698,-0.700097774540155,0.774067372891695,"ssf","mf.is","exp","unif",158,"ssfOUT_30_12_4_VULTURE","VULTURE",4,0.0833333333333333,30,"no effect"
"ssfOUT_30_12_4_VULTURE.20",0.00895915333755355,-0.725758966684069,0.743677273359176,"ssf","mf.is","exp","unif",500,"ssfOUT_30_12_4_VULTURE","VULTURE",4,0.0833333333333333,30,"no effect"
"ssfOUT_30_12_4_VULTURE.21",-0.172612920006135,-0.969282359004153,0.624056518991883,"ssf","mf.ss","gamma","vonmises",5,"ssfOUT_30_12_4_VULTURE","VULTURE",4,0.0833333333333333,30,"no effect"
"ssfOUT_30_12_4_VULTURE.22",0.344017011743543,-0.402301993547622,1.09033601703471,"ssf","mf.ss","gamma","vonmises",15,"ssfOUT_30_12_4_VULTURE","VULTURE",4,0.0833333333333333,30,"no effect"
"ssfOUT_30_12_4_VULTURE.23",0.0330963154019278,-0.705633165719163,0.771825796523019,"ssf","mf.ss","gamma","vonmises",50,"ssfOUT_30_12_4_VULTURE","VULTURE",4,0.0833333333333333,30,"no effect"
"ssfOUT_30_12_4_VULTURE.24",0.0630461183001171,-0.672038128923113,0.798130365523347,"ssf","mf.ss","gamma","vonmises",158,"ssfOUT_30_12_4_VULTURE","VULTURE",4,0.0833333333333333,30,"no effect"
"ssfOUT_30_12_4_VULTURE.25",-0.105065011186079,-0.836242050211058,0.626112027838899,"ssf","mf.ss","gamma","vonmises",500,"ssfOUT_30_12_4_VULTURE","VULTURE",4,0.0833333333333333,30,"no effect"
"ssfOUT_30_12_4_VULTURE.26",-0.629666588606937,-1.47462932800374,0.215296150789869,"ssf","mf.ss","gamma","unif",5,"ssfOUT_30_12_4_VULTURE","VULTURE",4,0.0833333333333333,30,"no effect"
"ssfOUT_30_12_4_VULTURE.27",-0.0665485462505936,-0.820152557588517,0.68705546508733,"ssf","mf.ss","gamma","unif",15,"ssfOUT_30_12_4_VULTURE","VULTURE",4,0.0833333333333333,30,"no effect"
"ssfOUT_30_12_4_VULTURE.28",0.165048594364073,-0.575191541696721,0.905288730424867,"ssf","mf.ss","gamma","unif",50,"ssfOUT_30_12_4_VULTURE","VULTURE",4,0.0833333333333333,30,"no effect"
"ssfOUT_30_12_4_VULTURE.29",-0.00944066281205405,-0.74471293992688,0.725831614302772,"ssf","mf.ss","gamma","unif",158,"ssfOUT_30_12_4_VULTURE","VULTURE",4,0.0833333333333333,30,"no effect"
"ssfOUT_30_12_4_VULTURE.30",-0.0790779787293026,-0.810858888478446,0.652702931019841,"ssf","mf.ss","gamma","unif",500,"ssfOUT_30_12_4_VULTURE","VULTURE",4,0.0833333333333333,30,"no effect"
"ssfOUT_30_12_4_VULTURE.31",-0.205120655934491,-1.07165182627474,0.661410514405759,"ssf","mf.ss","exp","vonmises",5,"ssfOUT_30_12_4_VULTURE","VULTURE",4,0.0833333333333333,30,"no effect"
"ssfOUT_30_12_4_VULTURE.32",-0.00177015638684386,-0.765134736892267,0.76159442411858,"ssf","mf.ss","exp","vonmises",15,"ssfOUT_30_12_4_VULTURE","VULTURE",4,0.0833333333333333,30,"no effect"
"ssfOUT_30_12_4_VULTURE.33",0.0779558122315525,-0.658098694073999,0.814010318537104,"ssf","mf.ss","exp","vonmises",50,"ssfOUT_30_12_4_VULTURE","VULTURE",4,0.0833333333333333,30,"no effect"
"ssfOUT_30_12_4_VULTURE.34",0.0312270335465549,-0.704154020407902,0.766608087501012,"ssf","mf.ss","exp","vonmises",158,"ssfOUT_30_12_4_VULTURE","VULTURE",4,0.0833333333333333,30,"no effect"
"ssfOUT_30_12_4_VULTURE.35",-0.0669921184251629,-0.80230009949318,0.668315862642855,"ssf","mf.ss","exp","vonmises",500,"ssfOUT_30_12_4_VULTURE","VULTURE",4,0.0833333333333333,30,"no effect"
"ssfOUT_30_12_4_VULTURE.36",0.254945352642916,-0.547800088718214,1.05769079400405,"ssf","mf.ss","exp","unif",5,"ssfOUT_30_12_4_VULTURE","VULTURE",4,0.0833333333333333,30,"no effect"
"ssfOUT_30_12_4_VULTURE.37",0.042602870716212,-0.725217651343318,0.810423392775742,"ssf","mf.ss","exp","unif",15,"ssfOUT_30_12_4_VULTURE","VULTURE",4,0.0833333333333333,30,"no effect"
"ssfOUT_30_12_4_VULTURE.38",-0.0798326217770454,-0.825564436889344,0.665899193335253,"ssf","mf.ss","exp","unif",50,"ssfOUT_30_12_4_VULTURE","VULTURE",4,0.0833333333333333,30,"no effect"
"ssfOUT_30_12_4_VULTURE.39",-0.0253371864795742,-0.762506526055031,0.711832153095882,"ssf","mf.ss","exp","unif",158,"ssfOUT_30_12_4_VULTURE","VULTURE",4,0.0833333333333333,30,"no effect"
"ssfOUT_30_12_4_VULTURE.40",-0.072194737425589,-0.807984230279286,0.663594755428108,"ssf","mf.ss","exp","unif",500,"ssfOUT_30_12_4_VULTURE","VULTURE",4,0.0833333333333333,30,"no effect"
"ssfOUT_30_12_4_KINGCOBRA.1",15.9532826523196,-4455.69337535064,4487.59994065528,"ssf","mf.is","gamma","vonmises",5,"ssfOUT_30_12_4_KINGCOBRA","KINGCOBRA",4,0.0833333333333333,30,"no effect"
"ssfOUT_30_12_4_KINGCOBRA.2",15.6492537013225,-5563.47867936216,5594.77718676481,"ssf","mf.is","gamma","vonmises",15,"ssfOUT_30_12_4_KINGCOBRA","KINGCOBRA",4,0.0833333333333333,30,"no effect"
"ssfOUT_30_12_4_KINGCOBRA.3",16.0117373785153,-3474.82954835208,3506.85302310911,"ssf","mf.is","gamma","vonmises",50,"ssfOUT_30_12_4_KINGCOBRA","KINGCOBRA",4,0.0833333333333333,30,"no effect"
"ssfOUT_30_12_4_KINGCOBRA.4",15.9561490516317,-3547.59474365649,3579.50704175976,"ssf","mf.is","gamma","vonmises",158,"ssfOUT_30_12_4_KINGCOBRA","KINGCOBRA",4,0.0833333333333333,30,"no effect"
"ssfOUT_30_12_4_KINGCOBRA.5",15.8811917216238,-3433.35994106182,3465.12232450507,"ssf","mf.is","gamma","vonmises",500,"ssfOUT_30_12_4_KINGCOBRA","KINGCOBRA",4,0.0833333333333333,30,"no effect"
"ssfOUT_30_12_4_KINGCOBRA.6",16.0024803332401,-4465.8015545995,4497.80651526598,"ssf","mf.is","gamma","unif",5,"ssfOUT_30_12_4_KINGCOBRA","KINGCOBRA",4,0.0833333333333333,30,"no effect"
"ssfOUT_30_12_4_KINGCOBRA.7",16.0149592741533,-3312.81556208408,3344.84548063238,"ssf","mf.is","gamma","unif",15,"ssfOUT_30_12_4_KINGCOBRA","KINGCOBRA",4,0.0833333333333333,30,"no effect"
"ssfOUT_30_12_4_KINGCOBRA.8",15.9880303279319,-3558.37030799103,3590.34636864689,"ssf","mf.is","gamma","unif",50,"ssfOUT_30_12_4_KINGCOBRA","KINGCOBRA",4,0.0833333333333333,30,"no effect"
"ssfOUT_30_12_4_KINGCOBRA.9",15.8916654577167,-3632.70251540925,3664.48584632468,"ssf","mf.is","gamma","unif",158,"ssfOUT_30_12_4_KINGCOBRA","KINGCOBRA",4,0.0833333333333333,30,"no effect"
"ssfOUT_30_12_4_KINGCOBRA.10",15.8734218696517,-3467.42803526376,3499.17487900307,"ssf","mf.is","gamma","unif",500,"ssfOUT_30_12_4_KINGCOBRA","KINGCOBRA",4,0.0833333333333333,30,"no effect"
"ssfOUT_30_12_4_KINGCOBRA.11",17.0876280121766,-5737.23318707277,5771.40844309712,"ssf","mf.is","exp","vonmises",5,"ssfOUT_30_12_4_KINGCOBRA","KINGCOBRA",4,0.0833333333333333,30,"no effect"
"ssfOUT_30_12_4_KINGCOBRA.12",15.7879692053627,-4583.85893094515,4615.43486935587,"ssf","mf.is","exp","vonmises",15,"ssfOUT_30_12_4_KINGCOBRA","KINGCOBRA",4,0.0833333333333333,30,"no effect"
"ssfOUT_30_12_4_KINGCOBRA.13",16.2555980990115,-4697.61859950462,4730.12979570264,"ssf","mf.is","exp","vonmises",50,"ssfOUT_30_12_4_KINGCOBRA","KINGCOBRA",4,0.0833333333333333,30,"no effect"
"ssfOUT_30_12_4_KINGCOBRA.14",15.4447535472194,-2966.54124912504,2997.43075621948,"ssf","mf.is","exp","vonmises",158,"ssfOUT_30_12_4_KINGCOBRA","KINGCOBRA",4,0.0833333333333333,30,"no effect"
"ssfOUT_30_12_4_KINGCOBRA.15",15.4985894145717,-2846.91426758229,2877.91144641143,"ssf","mf.is","exp","vonmises",500,"ssfOUT_30_12_4_KINGCOBRA","KINGCOBRA",4,0.0833333333333333,30,"no effect"
"ssfOUT_30_12_4_KINGCOBRA.16",15.06248983209,-6367.38527007302,6397.5102497372,"ssf","mf.is","exp","unif",5,"ssfOUT_30_12_4_KINGCOBRA","KINGCOBRA",4,0.0833333333333333,30,"no effect"
"ssfOUT_30_12_4_KINGCOBRA.17",16.9015915933219,-4100.66248330685,4134.4656664935,"ssf","mf.is","exp","unif",15,"ssfOUT_30_12_4_KINGCOBRA","KINGCOBRA",4,0.0833333333333333,30,"no effect"
"ssfOUT_30_12_4_KINGCOBRA.18",16.3450243083543,-4642.50887993016,4675.19892854687,"ssf","mf.is","exp","unif",50,"ssfOUT_30_12_4_KINGCOBRA","KINGCOBRA",4,0.0833333333333333,30,"no effect"
"ssfOUT_30_12_4_KINGCOBRA.19",15.5121793561292,-3109.62447436732,3140.64883307958,"ssf","mf.is","exp","unif",158,"ssfOUT_30_12_4_KINGCOBRA","KINGCOBRA",4,0.0833333333333333,30,"no effect"
"ssfOUT_30_12_4_KINGCOBRA.20",15.4595028917358,-2741.64272433165,2772.56173011513,"ssf","mf.is","exp","unif",500,"ssfOUT_30_12_4_KINGCOBRA","KINGCOBRA",4,0.0833333333333333,30,"no effect"
"ssfOUT_30_12_4_KINGCOBRA.21",17.0621411415095,-6394.46736170433,6428.59164398735,"ssf","mf.ss","gamma","vonmises",5,"ssfOUT_30_12_4_KINGCOBRA","KINGCOBRA",4,0.0833333333333333,30,"no effect"
"ssfOUT_30_12_4_KINGCOBRA.22",16.0510243038923,-4667.40166816417,4699.50371677195,"ssf","mf.ss","gamma","vonmises",15,"ssfOUT_30_12_4_KINGCOBRA","KINGCOBRA",4,0.0833333333333333,30,"no effect"
"ssfOUT_30_12_4_KINGCOBRA.23",15.9274634271353,-3470.55633923159,3502.41126608587,"ssf","mf.ss","gamma","vonmises",50,"ssfOUT_30_12_4_KINGCOBRA","KINGCOBRA",4,0.0833333333333333,30,"no effect"
"ssfOUT_30_12_4_KINGCOBRA.24",15.9168270720868,-3543.5409333946,3575.37458753877,"ssf","mf.ss","gamma","vonmises",158,"ssfOUT_30_12_4_KINGCOBRA","KINGCOBRA",4,0.0833333333333333,30,"no effect"
"ssfOUT_30_12_4_KINGCOBRA.25",15.8924374339055,-3457.45204921336,3489.23692408117,"ssf","mf.ss","gamma","vonmises",500,"ssfOUT_30_12_4_KINGCOBRA","KINGCOBRA",4,0.0833333333333333,30,"no effect"
"ssfOUT_30_12_4_KINGCOBRA.26",16.1779026058396,-4442.6512139786,4475.00701919027,"ssf","mf.ss","gamma","unif",5,"ssfOUT_30_12_4_KINGCOBRA","KINGCOBRA",4,0.0833333333333333,30,"no effect"
"ssfOUT_30_12_4_KINGCOBRA.27",15.99586376583,-3320.70998794318,3352.70171547484,"ssf","mf.ss","gamma","unif",15,"ssfOUT_30_12_4_KINGCOBRA","KINGCOBRA",4,0.0833333333333333,30,"no effect"
"ssfOUT_30_12_4_KINGCOBRA.28",15.8841539979613,-3545.53502297045,3577.30333096637,"ssf","mf.ss","gamma","unif",50,"ssfOUT_30_12_4_KINGCOBRA","KINGCOBRA",4,0.0833333333333333,30,"no effect"
"ssfOUT_30_12_4_KINGCOBRA.29",15.8988678432106,-3620.20014997303,3651.99788565945,"ssf","mf.ss","gamma","unif",158,"ssfOUT_30_12_4_KINGCOBRA","KINGCOBRA",4,0.0833333333333333,30,"no effect"
"ssfOUT_30_12_4_KINGCOBRA.30",15.8938487400675,-3475.57937266632,3507.36707014645,"ssf","mf.ss","gamma","unif",500,"ssfOUT_30_12_4_KINGCOBRA","KINGCOBRA",4,0.0833333333333333,30,"no effect"
"ssfOUT_30_12_4_KINGCOBRA.31",17.1863500559278,-5183.43082680468,5217.80352691654,"ssf","mf.ss","exp","vonmises",5,"ssfOUT_30_12_4_KINGCOBRA","KINGCOBRA",4,0.0833333333333333,30,"no effect"
"ssfOUT_30_12_4_KINGCOBRA.32",15.9953798196601,-3672.34753102896,3704.33829066828,"ssf","mf.ss","exp","vonmises",15,"ssfOUT_30_12_4_KINGCOBRA","KINGCOBRA",4,0.0833333333333333,30,"no effect"
"ssfOUT_30_12_4_KINGCOBRA.33",15.9367373266536,-3012.85743894263,3044.73091359594,"ssf","mf.ss","exp","vonmises",50,"ssfOUT_30_12_4_KINGCOBRA","KINGCOBRA",4,0.0833333333333333,30,"no effect"
"ssfOUT_30_12_4_KINGCOBRA.34",15.9091845656313,-3106.9378174271,3138.75618655837,"ssf","mf.ss","exp","vonmises",158,"ssfOUT_30_12_4_KINGCOBRA","KINGCOBRA",4,0.0833333333333333,30,"no effect"
"ssfOUT_30_12_4_KINGCOBRA.35",15.9166894907532,-3083.26929969666,3115.10267867817,"ssf","mf.ss","exp","vonmises",500,"ssfOUT_30_12_4_KINGCOBRA","KINGCOBRA",4,0.0833333333333333,30,"no effect"
"ssfOUT_30_12_4_KINGCOBRA.36",15.2026146600753,-4671.18455604127,4701.58978536142,"ssf","mf.ss","exp","unif",5,"ssfOUT_30_12_4_KINGCOBRA","KINGCOBRA",4,0.0833333333333333,30,"no effect"
"ssfOUT_30_12_4_KINGCOBRA.37",16.0132784900168,-3371.51725846232,3403.54381544235,"ssf","mf.ss","exp","unif",15,"ssfOUT_30_12_4_KINGCOBRA","KINGCOBRA",4,0.0833333333333333,30,"no effect"
"ssfOUT_30_12_4_KINGCOBRA.38",15.9400819118653,-3103.59150122852,3135.47166505225,"ssf","mf.ss","exp","unif",50,"ssfOUT_30_12_4_KINGCOBRA","KINGCOBRA",4,0.0833333333333333,30,"no effect"
"ssfOUT_30_12_4_KINGCOBRA.39",15.9181417090902,-3104.59616807486,3136.43245149304,"ssf","mf.ss","exp","unif",158,"ssfOUT_30_12_4_KINGCOBRA","KINGCOBRA",4,0.0833333333333333,30,"no effect"
"ssfOUT_30_12_4_KINGCOBRA.40",15.9007174689361,-3117.4368760119,3149.23831094977,"ssf","mf.ss","exp","unif",500,"ssfOUT_30_12_4_KINGCOBRA","KINGCOBRA",4,0.0833333333333333,30,"no effect"
"ssfOUT_60_0.5_1_BADGER.1",0.319403622332467,0.025553229432151,0.613254015232783,"ssf","mf.is","gamma","vonmises",5,"ssfOUT_60_0.5_1_BADGER","BADGER",1,2,60,"preference"
"ssfOUT_60_0.5_1_BADGER.2",0.216232661839667,-0.0677840074895737,0.500249331168907,"ssf","mf.is","gamma","vonmises",15,"ssfOUT_60_0.5_1_BADGER","BADGER",1,2,60,"no effect"
"ssfOUT_60_0.5_1_BADGER.3",0.320806339823226,0.0431057931235601,0.598506886522892,"ssf","mf.is","gamma","vonmises",50,"ssfOUT_60_0.5_1_BADGER","BADGER",1,2,60,"preference"
"ssfOUT_60_0.5_1_BADGER.4",0.275794401585457,-0.0040052228943116,0.555594026065225,"ssf","mf.is","gamma","vonmises",158,"ssfOUT_60_0.5_1_BADGER","BADGER",1,2,60,"no effect"
"ssfOUT_60_0.5_1_BADGER.5",0.304997867621148,0.0264656152017028,0.583530120040593,"ssf","mf.is","gamma","vonmises",500,"ssfOUT_60_0.5_1_BADGER","BADGER",1,2,60,"preference"
"ssfOUT_60_0.5_1_BADGER.6",0.354338648821216,0.0578795773197731,0.650797720322658,"ssf","mf.is","gamma","unif",5,"ssfOUT_60_0.5_1_BADGER","BADGER",1,2,60,"preference"
"ssfOUT_60_0.5_1_BADGER.7",0.341329376638304,0.055951095158512,0.626707658118096,"ssf","mf.is","gamma","unif",15,"ssfOUT_60_0.5_1_BADGER","BADGER",1,2,60,"preference"
"ssfOUT_60_0.5_1_BADGER.8",0.187927256120437,-0.0894370983973798,0.465291610638253,"ssf","mf.is","gamma","unif",50,"ssfOUT_60_0.5_1_BADGER","BADGER",1,2,60,"no effect"
"ssfOUT_60_0.5_1_BADGER.9",0.270437941121332,-0.00688811168570719,0.547763993928371,"ssf","mf.is","gamma","unif",158,"ssfOUT_60_0.5_1_BADGER","BADGER",1,2,60,"no effect"
"ssfOUT_60_0.5_1_BADGER.10",0.289548255242029,0.0112476651532223,0.567848845330835,"ssf","mf.is","gamma","unif",500,"ssfOUT_60_0.5_1_BADGER","BADGER",1,2,60,"preference"
"ssfOUT_60_0.5_1_BADGER.11",0.0437900158136096,-0.262323892791829,0.349903924419049,"ssf","mf.is","exp","vonmises",5,"ssfOUT_60_0.5_1_BADGER","BADGER",1,2,60,"no effect"
"ssfOUT_60_0.5_1_BADGER.12",0.153902286940027,-0.137789840311723,0.445594414191778,"ssf","mf.is","exp","vonmises",15,"ssfOUT_60_0.5_1_BADGER","BADGER",1,2,60,"no effect"
"ssfOUT_60_0.5_1_BADGER.13",0.317932054290839,0.0359719332120482,0.599892175369631,"ssf","mf.is","exp","vonmises",50,"ssfOUT_60_0.5_1_BADGER","BADGER",1,2,60,"preference"
"ssfOUT_60_0.5_1_BADGER.14",0.268340996464274,-0.0119059375875192,0.548587930516066,"ssf","mf.is","exp","vonmises",158,"ssfOUT_60_0.5_1_BADGER","BADGER",1,2,60,"no effect"
"ssfOUT_60_0.5_1_BADGER.15",0.297778684790903,0.0186118415905272,0.576945527991278,"ssf","mf.is","exp","vonmises",500,"ssfOUT_60_0.5_1_BADGER","BADGER",1,2,60,"preference"
"ssfOUT_60_0.5_1_BADGER.16",-0.0826777646211869,-0.388101849676883,0.222746320434509,"ssf","mf.is","exp","unif",5,"ssfOUT_60_0.5_1_BADGER","BADGER",1,2,60,"no effect"
"ssfOUT_60_0.5_1_BADGER.17",0.197419131497292,-0.0941063538526113,0.488944616847195,"ssf","mf.is","exp","unif",15,"ssfOUT_60_0.5_1_BADGER","BADGER",1,2,60,"no effect"
"ssfOUT_60_0.5_1_BADGER.18",0.279901518538059,-0.00290895016030346,0.56271198723642,"ssf","mf.is","exp","unif",50,"ssfOUT_60_0.5_1_BADGER","BADGER",1,2,60,"no effect"
"ssfOUT_60_0.5_1_BADGER.19",0.2878513131143,0.00656217447611696,0.569140451752483,"ssf","mf.is","exp","unif",158,"ssfOUT_60_0.5_1_BADGER","BADGER",1,2,60,"preference"
"ssfOUT_60_0.5_1_BADGER.20",0.311617892633951,0.0333309635346715,0.58990482173323,"ssf","mf.is","exp","unif",500,"ssfOUT_60_0.5_1_BADGER","BADGER",1,2,60,"preference"
"ssfOUT_60_0.5_1_BADGER.21",0.311626836914443,0.0173115977649867,0.6059420760639,"ssf","mf.ss","gamma","vonmises",5,"ssfOUT_60_0.5_1_BADGER","BADGER",1,2,60,"preference"
"ssfOUT_60_0.5_1_BADGER.22",0.211088906288792,-0.0731562649727198,0.495334077550304,"ssf","mf.ss","gamma","vonmises",15,"ssfOUT_60_0.5_1_BADGER","BADGER",1,2,60,"no effect"
"ssfOUT_60_0.5_1_BADGER.23",0.316780280437285,0.0388763915597896,0.594684169314781,"ssf","mf.ss","gamma","vonmises",50,"ssfOUT_60_0.5_1_BADGER","BADGER",1,2,60,"preference"
"ssfOUT_60_0.5_1_BADGER.24",0.274252242163059,-0.0057043835466094,0.554208867872728,"ssf","mf.ss","gamma","vonmises",158,"ssfOUT_60_0.5_1_BADGER","BADGER",1,2,60,"no effect"
"ssfOUT_60_0.5_1_BADGER.25",0.304630957472711,0.0261128449961018,0.583149069949321,"ssf","mf.ss","gamma","vonmises",500,"ssfOUT_60_0.5_1_BADGER","BADGER",1,2,60,"preference"
"ssfOUT_60_0.5_1_BADGER.26",0.346866074936003,0.0504237717970132,0.643308378074992,"ssf","mf.ss","gamma","unif",5,"ssfOUT_60_0.5_1_BADGER","BADGER",1,2,60,"preference"
"ssfOUT_60_0.5_1_BADGER.27",0.353214642538323,0.068067496808666,0.638361788267979,"ssf","mf.ss","gamma","unif",15,"ssfOUT_60_0.5_1_BADGER","BADGER",1,2,60,"preference"
"ssfOUT_60_0.5_1_BADGER.28",0.190411940203057,-0.0869846490302938,0.467808529436408,"ssf","mf.ss","gamma","unif",50,"ssfOUT_60_0.5_1_BADGER","BADGER",1,2,60,"no effect"
"ssfOUT_60_0.5_1_BADGER.29",0.270729925847579,-0.00672755525203295,0.548187406947191,"ssf","mf.ss","gamma","unif",158,"ssfOUT_60_0.5_1_BADGER","BADGER",1,2,60,"no effect"
"ssfOUT_60_0.5_1_BADGER.30",0.293118421991708,0.0148326930113274,0.57140415097209,"ssf","mf.ss","gamma","unif",500,"ssfOUT_60_0.5_1_BADGER","BADGER",1,2,60,"preference"
"ssfOUT_60_0.5_1_BADGER.31",0.0377589596904239,-0.263896541788493,0.339414461169341,"ssf","mf.ss","exp","vonmises",5,"ssfOUT_60_0.5_1_BADGER","BADGER",1,2,60,"no effect"
"ssfOUT_60_0.5_1_BADGER.32",0.196414491755926,-0.0891555362331506,0.481984519745003,"ssf","mf.ss","exp","vonmises",15,"ssfOUT_60_0.5_1_BADGER","BADGER",1,2,60,"no effect"
"ssfOUT_60_0.5_1_BADGER.33",0.271685906313686,-0.00810308962568257,0.551474902253054,"ssf","mf.ss","exp","vonmises",50,"ssfOUT_60_0.5_1_BADGER","BADGER",1,2,60,"no effect"
"ssfOUT_60_0.5_1_BADGER.34",0.21100684229475,-0.0673463540418174,0.489360038631317,"ssf","mf.ss","exp","vonmises",158,"ssfOUT_60_0.5_1_BADGER","BADGER",1,2,60,"no effect"
"ssfOUT_60_0.5_1_BADGER.35",0.243431224744267,-0.0334894930935951,0.52035194258213,"ssf","mf.ss","exp","vonmises",500,"ssfOUT_60_0.5_1_BADGER","BADGER",1,2,60,"no effect"
"ssfOUT_60_0.5_1_BADGER.36",0.0536777989885695,-0.248401782133815,0.355757380110954,"ssf","mf.ss","exp","unif",5,"ssfOUT_60_0.5_1_BADGER","BADGER",1,2,60,"no effect"
"ssfOUT_60_0.5_1_BADGER.37",0.0881383711382579,-0.19575227112789,0.372029013404406,"ssf","mf.ss","exp","unif",15,"ssfOUT_60_0.5_1_BADGER","BADGER",1,2,60,"no effect"
"ssfOUT_60_0.5_1_BADGER.38",0.263656597108198,-0.0175716589456684,0.544884853162064,"ssf","mf.ss","exp","unif",50,"ssfOUT_60_0.5_1_BADGER","BADGER",1,2,60,"no effect"
"ssfOUT_60_0.5_1_BADGER.39",0.223629333324818,-0.0551487959446951,0.502407462594331,"ssf","mf.ss","exp","unif",158,"ssfOUT_60_0.5_1_BADGER","BADGER",1,2,60,"no effect"
"ssfOUT_60_0.5_1_BADGER.40",0.268792796111562,-0.00819526348411648,0.545780855707241,"ssf","mf.ss","exp","unif",500,"ssfOUT_60_0.5_1_BADGER","BADGER",1,2,60,"no effect"
"ssfOUT_60_0.5_1_VULTURE.1",0.269809065905273,0.038684455759533,0.500933676051012,"ssf","mf.is","gamma","vonmises",5,"ssfOUT_60_0.5_1_VULTURE","VULTURE",1,2,60,"preference"
"ssfOUT_60_0.5_1_VULTURE.2",0.366093157658026,0.143792811477557,0.588393503838495,"ssf","mf.is","gamma","vonmises",15,"ssfOUT_60_0.5_1_VULTURE","VULTURE",1,2,60,"preference"
"ssfOUT_60_0.5_1_VULTURE.3",0.275211875451762,0.0592416222677908,0.491182128635732,"ssf","mf.is","gamma","vonmises",50,"ssfOUT_60_0.5_1_VULTURE","VULTURE",1,2,60,"preference"
"ssfOUT_60_0.5_1_VULTURE.4",0.289991937819958,0.075519813171861,0.504464062468055,"ssf","mf.is","gamma","vonmises",158,"ssfOUT_60_0.5_1_VULTURE","VULTURE",1,2,60,"preference"
"ssfOUT_60_0.5_1_VULTURE.5",0.284802570052166,0.0707999348364149,0.498805205267918,"ssf","mf.is","gamma","vonmises",500,"ssfOUT_60_0.5_1_VULTURE","VULTURE",1,2,60,"preference"
"ssfOUT_60_0.5_1_VULTURE.6",0.121112307023552,-0.119595035477822,0.361819649524926,"ssf","mf.is","gamma","unif",5,"ssfOUT_60_0.5_1_VULTURE","VULTURE",1,2,60,"no effect"
"ssfOUT_60_0.5_1_VULTURE.7",0.284810753631276,0.0631791745635663,0.506442332698986,"ssf","mf.is","gamma","unif",15,"ssfOUT_60_0.5_1_VULTURE","VULTURE",1,2,60,"preference"
"ssfOUT_60_0.5_1_VULTURE.8",0.274874231947365,0.0581572986697582,0.491591165224971,"ssf","mf.is","gamma","unif",50,"ssfOUT_60_0.5_1_VULTURE","VULTURE",1,2,60,"preference"
"ssfOUT_60_0.5_1_VULTURE.9",0.286287952707948,0.0703501075670939,0.502225797848802,"ssf","mf.is","gamma","unif",158,"ssfOUT_60_0.5_1_VULTURE","VULTURE",1,2,60,"preference"
"ssfOUT_60_0.5_1_VULTURE.10",0.26712443757951,0.0527853946127657,0.481463480546255,"ssf","mf.is","gamma","unif",500,"ssfOUT_60_0.5_1_VULTURE","VULTURE",1,2,60,"preference"
"ssfOUT_60_0.5_1_VULTURE.11",0.32517801262954,0.0889920650404132,0.561363960218667,"ssf","mf.is","exp","vonmises",5,"ssfOUT_60_0.5_1_VULTURE","VULTURE",1,2,60,"preference"
"ssfOUT_60_0.5_1_VULTURE.12",0.241083194035831,0.0140480900799955,0.468118297991667,"ssf","mf.is","exp","vonmises",15,"ssfOUT_60_0.5_1_VULTURE","VULTURE",1,2,60,"preference"
"ssfOUT_60_0.5_1_VULTURE.13",0.211922554442958,-0.00630458786543883,0.430149696751356,"ssf","mf.is","exp","vonmises",50,"ssfOUT_60_0.5_1_VULTURE","VULTURE",1,2,60,"no effect"
"ssfOUT_60_0.5_1_VULTURE.14",0.298488549346239,0.0823285728263989,0.514648525866079,"ssf","mf.is","exp","vonmises",158,"ssfOUT_60_0.5_1_VULTURE","VULTURE",1,2,60,"preference"
"ssfOUT_60_0.5_1_VULTURE.15",0.276126113372189,0.0617899986882835,0.490462228056094,"ssf","mf.is","exp","vonmises",500,"ssfOUT_60_0.5_1_VULTURE","VULTURE",1,2,60,"preference"
"ssfOUT_60_0.5_1_VULTURE.16",0.460802143740413,0.223792551371549,0.697811736109277,"ssf","mf.is","exp","unif",5,"ssfOUT_60_0.5_1_VULTURE","VULTURE",1,2,60,"preference"
"ssfOUT_60_0.5_1_VULTURE.17",0.265787332702428,0.0429527810854258,0.48862188431943,"ssf","mf.is","exp","unif",15,"ssfOUT_60_0.5_1_VULTURE","VULTURE",1,2,60,"preference"
"ssfOUT_60_0.5_1_VULTURE.18",0.284705724187388,0.0682418069289813,0.501169641445794,"ssf","mf.is","exp","unif",50,"ssfOUT_60_0.5_1_VULTURE","VULTURE",1,2,60,"preference"
"ssfOUT_60_0.5_1_VULTURE.19",0.251106254005382,0.0366715857531231,0.465540922257642,"ssf","mf.is","exp","unif",158,"ssfOUT_60_0.5_1_VULTURE","VULTURE",1,2,60,"preference"
"ssfOUT_60_0.5_1_VULTURE.20",0.267057160209297,0.0525297136523568,0.481584606766238,"ssf","mf.is","exp","unif",500,"ssfOUT_60_0.5_1_VULTURE","VULTURE",1,2,60,"preference"
"ssfOUT_60_0.5_1_VULTURE.21",0.272896633508208,0.0416486124863201,0.504144654530095,"ssf","mf.ss","gamma","vonmises",5,"ssfOUT_60_0.5_1_VULTURE","VULTURE",1,2,60,"preference"
"ssfOUT_60_0.5_1_VULTURE.22",0.36614286544871,0.143702696214221,0.588583034683198,"ssf","mf.ss","gamma","vonmises",15,"ssfOUT_60_0.5_1_VULTURE","VULTURE",1,2,60,"preference"
"ssfOUT_60_0.5_1_VULTURE.23",0.274472313194763,0.05830836027515,0.490636266114376,"ssf","mf.ss","gamma","vonmises",50,"ssfOUT_60_0.5_1_VULTURE","VULTURE",1,2,60,"preference"
"ssfOUT_60_0.5_1_VULTURE.24",0.289096942436441,0.0744580574929675,0.503735827379914,"ssf","mf.ss","gamma","vonmises",158,"ssfOUT_60_0.5_1_VULTURE","VULTURE",1,2,60,"preference"
"ssfOUT_60_0.5_1_VULTURE.25",0.283947469971814,0.0697806890573472,0.498114250886281,"ssf","mf.ss","gamma","vonmises",500,"ssfOUT_60_0.5_1_VULTURE","VULTURE",1,2,60,"preference"
"ssfOUT_60_0.5_1_VULTURE.26",0.12185079100525,-0.119015783802007,0.362717365812506,"ssf","mf.ss","gamma","unif",5,"ssfOUT_60_0.5_1_VULTURE","VULTURE",1,2,60,"no effect"
"ssfOUT_60_0.5_1_VULTURE.27",0.286129056784818,0.0645057538372801,0.507752359732356,"ssf","mf.ss","gamma","unif",15,"ssfOUT_60_0.5_1_VULTURE","VULTURE",1,2,60,"preference"
"ssfOUT_60_0.5_1_VULTURE.28",0.276598123845502,0.0597907474440831,0.49340550024692,"ssf","mf.ss","gamma","unif",50,"ssfOUT_60_0.5_1_VULTURE","VULTURE",1,2,60,"preference"
"ssfOUT_60_0.5_1_VULTURE.29",0.286674058599455,0.0706125420455062,0.502735575153403,"ssf","mf.ss","gamma","unif",158,"ssfOUT_60_0.5_1_VULTURE","VULTURE",1,2,60,"preference"
"ssfOUT_60_0.5_1_VULTURE.30",0.267718700682963,0.0532458619692488,0.482191539396677,"ssf","mf.ss","gamma","unif",500,"ssfOUT_60_0.5_1_VULTURE","VULTURE",1,2,60,"preference"
"ssfOUT_60_0.5_1_VULTURE.31",0.298925082538525,0.0669011375826546,0.530949027494395,"ssf","mf.ss","exp","vonmises",5,"ssfOUT_60_0.5_1_VULTURE","VULTURE",1,2,60,"preference"
"ssfOUT_60_0.5_1_VULTURE.32",0.202028899891569,-0.0248830740714509,0.428940873854589,"ssf","mf.ss","exp","vonmises",15,"ssfOUT_60_0.5_1_VULTURE","VULTURE",1,2,60,"no effect"
"ssfOUT_60_0.5_1_VULTURE.33",0.213408000839744,-0.00648435014053692,0.433300351820024,"ssf","mf.ss","exp","vonmises",50,"ssfOUT_60_0.5_1_VULTURE","VULTURE",1,2,60,"no effect"
"ssfOUT_60_0.5_1_VULTURE.34",0.282509678132861,0.065015063145422,0.5000042931203,"ssf","mf.ss","exp","vonmises",158,"ssfOUT_60_0.5_1_VULTURE","VULTURE",1,2,60,"preference"
"ssfOUT_60_0.5_1_VULTURE.35",0.26470778832525,0.0481330601919092,0.48128251645859,"ssf","mf.ss","exp","vonmises",500,"ssfOUT_60_0.5_1_VULTURE","VULTURE",1,2,60,"preference"
"ssfOUT_60_0.5_1_VULTURE.36",0.414786027463788,0.182590373242294,0.646981681685282,"ssf","mf.ss","exp","unif",5,"ssfOUT_60_0.5_1_VULTURE","VULTURE",1,2,60,"preference"
"ssfOUT_60_0.5_1_VULTURE.37",0.254802321312951,0.0319576096473105,0.477647032978592,"ssf","mf.ss","exp","unif",15,"ssfOUT_60_0.5_1_VULTURE","VULTURE",1,2,60,"preference"
"ssfOUT_60_0.5_1_VULTURE.38",0.280989765049874,0.0630201288127665,0.498959401286982,"ssf","mf.ss","exp","unif",50,"ssfOUT_60_0.5_1_VULTURE","VULTURE",1,2,60,"preference"
"ssfOUT_60_0.5_1_VULTURE.39",0.24703166183595,0.0305388013161018,0.463524522355799,"ssf","mf.ss","exp","unif",158,"ssfOUT_60_0.5_1_VULTURE","VULTURE",1,2,60,"preference"
"ssfOUT_60_0.5_1_VULTURE.40",0.265576811763953,0.0488443356121377,0.482309287915768,"ssf","mf.ss","exp","unif",500,"ssfOUT_60_0.5_1_VULTURE","VULTURE",1,2,60,"preference"
"ssfOUT_60_0.5_1_KINGCOBRA.1",0.923003558936586,0.462469400385019,1.38353771748815,"ssf","mf.is","gamma","vonmises",5,"ssfOUT_60_0.5_1_KINGCOBRA","KINGCOBRA",1,2,60,"preference"
"ssfOUT_60_0.5_1_KINGCOBRA.2",1.02633138178754,0.584880449254813,1.46778231432027,"ssf","mf.is","gamma","vonmises",15,"ssfOUT_60_0.5_1_KINGCOBRA","KINGCOBRA",1,2,60,"preference"
"ssfOUT_60_0.5_1_KINGCOBRA.3",0.955291816118931,0.518828581679875,1.39175505055799,"ssf","mf.is","gamma","vonmises",50,"ssfOUT_60_0.5_1_KINGCOBRA","KINGCOBRA",1,2,60,"preference"
"ssfOUT_60_0.5_1_KINGCOBRA.4",0.959942722647295,0.523929044174592,1.39595640112,"ssf","mf.is","gamma","vonmises",158,"ssfOUT_60_0.5_1_KINGCOBRA","KINGCOBRA",1,2,60,"preference"
"ssfOUT_60_0.5_1_KINGCOBRA.5",0.881858520276199,0.44652302141987,1.31719401913253,"ssf","mf.is","gamma","vonmises",500,"ssfOUT_60_0.5_1_KINGCOBRA","KINGCOBRA",1,2,60,"preference"
"ssfOUT_60_0.5_1_KINGCOBRA.6",0.866624814817271,0.393434677154826,1.33981495247972,"ssf","mf.is","gamma","unif",5,"ssfOUT_60_0.5_1_KINGCOBRA","KINGCOBRA",1,2,60,"preference"
"ssfOUT_60_0.5_1_KINGCOBRA.7",0.956306296637052,0.506485246013541,1.40612734726056,"ssf","mf.is","gamma","unif",15,"ssfOUT_60_0.5_1_KINGCOBRA","KINGCOBRA",1,2,60,"preference"
"ssfOUT_60_0.5_1_KINGCOBRA.8",0.932514963176376,0.494003946257214,1.37102598009554,"ssf","mf.is","gamma","unif",50,"ssfOUT_60_0.5_1_KINGCOBRA","KINGCOBRA",1,2,60,"preference"
"ssfOUT_60_0.5_1_KINGCOBRA.9",0.903538904944845,0.464899132580433,1.34217867730926,"ssf","mf.is","gamma","unif",158,"ssfOUT_60_0.5_1_KINGCOBRA","KINGCOBRA",1,2,60,"preference"
"ssfOUT_60_0.5_1_KINGCOBRA.10",0.912332856342213,0.475816632794156,1.34884907989027,"ssf","mf.is","gamma","unif",500,"ssfOUT_60_0.5_1_KINGCOBRA","KINGCOBRA",1,2,60,"preference"
"ssfOUT_60_0.5_1_KINGCOBRA.11",0.303905662626321,-0.149369290670101,0.757180615922742,"ssf","mf.is","exp","vonmises",5,"ssfOUT_60_0.5_1_KINGCOBRA","KINGCOBRA",1,2,60,"no effect"
"ssfOUT_60_0.5_1_KINGCOBRA.12",1.09831146886478,0.648187322399602,1.54843561532997,"ssf","mf.is","exp","vonmises",15,"ssfOUT_60_0.5_1_KINGCOBRA","KINGCOBRA",1,2,60,"preference"
"ssfOUT_60_0.5_1_KINGCOBRA.13",0.594332554602501,0.157183205530692,1.03148190367431,"ssf","mf.is","exp","vonmises",50,"ssfOUT_60_0.5_1_KINGCOBRA","KINGCOBRA",1,2,60,"preference"
"ssfOUT_60_0.5_1_KINGCOBRA.14",0.996852748430046,0.54357128106268,1.45013421579741,"ssf","mf.is","exp","vonmises",158,"ssfOUT_60_0.5_1_KINGCOBRA","KINGCOBRA",1,2,60,"preference"
"ssfOUT_60_0.5_1_KINGCOBRA.15",0.935691366592464,0.495621548028176,1.37576118515675,"ssf","mf.is","exp","vonmises",500,"ssfOUT_60_0.5_1_KINGCOBRA","KINGCOBRA",1,2,60,"preference"
"ssfOUT_60_0.5_1_KINGCOBRA.16",0.166133664484671,-0.291235185534817,0.62350251450416,"ssf","mf.is","exp","unif",5,"ssfOUT_60_0.5_1_KINGCOBRA","KINGCOBRA",1,2,60,"no effect"
"ssfOUT_60_0.5_1_KINGCOBRA.17",0.654556591304558,0.176147125138987,1.13296605747013,"ssf","mf.is","exp","unif",15,"ssfOUT_60_0.5_1_KINGCOBRA","KINGCOBRA",1,2,60,"preference"
"ssfOUT_60_0.5_1_KINGCOBRA.18",0.871263607223192,0.41786694584087,1.32466026860551,"ssf","mf.is","exp","unif",50,"ssfOUT_60_0.5_1_KINGCOBRA","KINGCOBRA",1,2,60,"preference"
"ssfOUT_60_0.5_1_KINGCOBRA.19",0.778463490935206,0.336179948138532,1.22074703373188,"ssf","mf.is","exp","unif",158,"ssfOUT_60_0.5_1_KINGCOBRA","KINGCOBRA",1,2,60,"preference"
"ssfOUT_60_0.5_1_KINGCOBRA.20",0.840398505718719,0.400279906055305,1.28051710538213,"ssf","mf.is","exp","unif",500,"ssfOUT_60_0.5_1_KINGCOBRA","KINGCOBRA",1,2,60,"preference"
"ssfOUT_60_0.5_1_KINGCOBRA.21",1.03397030999818,0.570655253415139,1.49728536658121,"ssf","mf.ss","gamma","vonmises",5,"ssfOUT_60_0.5_1_KINGCOBRA","KINGCOBRA",1,2,60,"preference"
"ssfOUT_60_0.5_1_KINGCOBRA.22",1.14911453649278,0.700608990207941,1.59762008277762,"ssf","mf.ss","gamma","vonmises",15,"ssfOUT_60_0.5_1_KINGCOBRA","KINGCOBRA",1,2,60,"preference"
"ssfOUT_60_0.5_1_KINGCOBRA.23",1.07603859198477,0.630487004544872,1.52159017942467,"ssf","mf.ss","gamma","vonmises",50,"ssfOUT_60_0.5_1_KINGCOBRA","KINGCOBRA",1,2,60,"preference"
"ssfOUT_60_0.5_1_KINGCOBRA.24",1.08000010972472,0.635501384087597,1.52449883536184,"ssf","mf.ss","gamma","vonmises",158,"ssfOUT_60_0.5_1_KINGCOBRA","KINGCOBRA",1,2,60,"preference"
"ssfOUT_60_0.5_1_KINGCOBRA.25",1.0096698378822,0.565158137950446,1.45418153781395,"ssf","mf.ss","gamma","vonmises",500,"ssfOUT_60_0.5_1_KINGCOBRA","KINGCOBRA",1,2,60,"preference"
"ssfOUT_60_0.5_1_KINGCOBRA.26",0.957860441102598,0.485294251201322,1.43042663100387,"ssf","mf.ss","gamma","unif",5,"ssfOUT_60_0.5_1_KINGCOBRA","KINGCOBRA",1,2,60,"preference"
"ssfOUT_60_0.5_1_KINGCOBRA.27",1.0777505128217,0.621535388834963,1.53396563680843,"ssf","mf.ss","gamma","unif",15,"ssfOUT_60_0.5_1_KINGCOBRA","KINGCOBRA",1,2,60,"preference"
"ssfOUT_60_0.5_1_KINGCOBRA.28",1.05946039807122,0.613013628654645,1.5059071674878,"ssf","mf.ss","gamma","unif",50,"ssfOUT_60_0.5_1_KINGCOBRA","KINGCOBRA",1,2,60,"preference"
"ssfOUT_60_0.5_1_KINGCOBRA.29",1.02119772317516,0.575642989511935,1.46675245683839,"ssf","mf.ss","gamma","unif",158,"ssfOUT_60_0.5_1_KINGCOBRA","KINGCOBRA",1,2,60,"preference"
"ssfOUT_60_0.5_1_KINGCOBRA.30",1.03323699504308,0.589052304013419,1.47742168607274,"ssf","mf.ss","gamma","unif",500,"ssfOUT_60_0.5_1_KINGCOBRA","KINGCOBRA",1,2,60,"preference"
"ssfOUT_60_0.5_1_KINGCOBRA.31",1.17371049301206,0.731815831933295,1.61560515409082,"ssf","mf.ss","exp","vonmises",5,"ssfOUT_60_0.5_1_KINGCOBRA","KINGCOBRA",1,2,60,"preference"
"ssfOUT_60_0.5_1_KINGCOBRA.32",1.55713302625377,1.11445841082978,1.99980764167777,"ssf","mf.ss","exp","vonmises",15,"ssfOUT_60_0.5_1_KINGCOBRA","KINGCOBRA",1,2,60,"preference"
"ssfOUT_60_0.5_1_KINGCOBRA.33",1.41558186700893,0.983930318093289,1.84723341592456,"ssf","mf.ss","exp","vonmises",50,"ssfOUT_60_0.5_1_KINGCOBRA","KINGCOBRA",1,2,60,"preference"
"ssfOUT_60_0.5_1_KINGCOBRA.34",1.37336117202803,0.944142649374033,1.80257969468203,"ssf","mf.ss","exp","vonmises",158,"ssfOUT_60_0.5_1_KINGCOBRA","KINGCOBRA",1,2,60,"preference"
"ssfOUT_60_0.5_1_KINGCOBRA.35",1.36712384021703,0.939196073621458,1.7950516068126,"ssf","mf.ss","exp","vonmises",500,"ssfOUT_60_0.5_1_KINGCOBRA","KINGCOBRA",1,2,60,"preference"
"ssfOUT_60_0.5_1_KINGCOBRA.36",1.10721400471685,0.660668606687619,1.55375940274607,"ssf","mf.ss","exp","unif",5,"ssfOUT_60_0.5_1_KINGCOBRA","KINGCOBRA",1,2,60,"preference"
"ssfOUT_60_0.5_1_KINGCOBRA.37",1.31046942210772,0.895578410950977,1.72536043326445,"ssf","mf.ss","exp","unif",15,"ssfOUT_60_0.5_1_KINGCOBRA","KINGCOBRA",1,2,60,"preference"
"ssfOUT_60_0.5_1_KINGCOBRA.38",1.29305587210988,0.864547144103905,1.72156460011585,"ssf","mf.ss","exp","unif",50,"ssfOUT_60_0.5_1_KINGCOBRA","KINGCOBRA",1,2,60,"preference"
"ssfOUT_60_0.5_1_KINGCOBRA.39",1.37155833491548,0.941254581199109,1.80186208863186,"ssf","mf.ss","exp","unif",158,"ssfOUT_60_0.5_1_KINGCOBRA","KINGCOBRA",1,2,60,"preference"
"ssfOUT_60_0.5_1_KINGCOBRA.40",1.3451366517579,0.919581402129254,1.77069190138654,"ssf","mf.ss","exp","unif",500,"ssfOUT_60_0.5_1_KINGCOBRA","KINGCOBRA",1,2,60,"preference"
"ssfOUT_60_0.5_2_BADGER.1",0.490115053290515,0.301721449049459,0.678508657531571,"ssf","mf.is","gamma","vonmises",5,"ssfOUT_60_0.5_2_BADGER","BADGER",2,2,60,"preference"
"ssfOUT_60_0.5_2_BADGER.2",0.495423370480977,0.314138717239286,0.676708023722668,"ssf","mf.is","gamma","vonmises",15,"ssfOUT_60_0.5_2_BADGER","BADGER",2,2,60,"preference"
"ssfOUT_60_0.5_2_BADGER.3",0.446873829165052,0.267583352919425,0.62616430541068,"ssf","mf.is","gamma","vonmises",50,"ssfOUT_60_0.5_2_BADGER","BADGER",2,2,60,"preference"
"ssfOUT_60_0.5_2_BADGER.4",0.462842380381103,0.283822038535566,0.64186272222664,"ssf","mf.is","gamma","vonmises",158,"ssfOUT_60_0.5_2_BADGER","BADGER",2,2,60,"preference"
"ssfOUT_60_0.5_2_BADGER.5",0.467114684750635,0.289411944000219,0.644817425501051,"ssf","mf.is","gamma","vonmises",500,"ssfOUT_60_0.5_2_BADGER","BADGER",2,2,60,"preference"
"ssfOUT_60_0.5_2_BADGER.6",0.627435781176234,0.440931310193386,0.813940252159082,"ssf","mf.is","gamma","unif",5,"ssfOUT_60_0.5_2_BADGER","BADGER",2,2,60,"preference"
"ssfOUT_60_0.5_2_BADGER.7",0.50717795629608,0.323381596723019,0.690974315869141,"ssf","mf.is","gamma","unif",15,"ssfOUT_60_0.5_2_BADGER","BADGER",2,2,60,"preference"
"ssfOUT_60_0.5_2_BADGER.8",0.483204249580125,0.302612581868511,0.66379591729174,"ssf","mf.is","gamma","unif",50,"ssfOUT_60_0.5_2_BADGER","BADGER",2,2,60,"preference"
"ssfOUT_60_0.5_2_BADGER.9",0.472095996545759,0.293597245823127,0.650594747268391,"ssf","mf.is","gamma","unif",158,"ssfOUT_60_0.5_2_BADGER","BADGER",2,2,60,"preference"
"ssfOUT_60_0.5_2_BADGER.10",0.452041824476862,0.274687190297993,0.629396458655731,"ssf","mf.is","gamma","unif",500,"ssfOUT_60_0.5_2_BADGER","BADGER",2,2,60,"preference"
"ssfOUT_60_0.5_2_BADGER.11",0.413229534884594,0.221320041256418,0.60513902851277,"ssf","mf.is","exp","vonmises",5,"ssfOUT_60_0.5_2_BADGER","BADGER",2,2,60,"preference"
"ssfOUT_60_0.5_2_BADGER.12",0.401943731667055,0.220516257027767,0.583371206306342,"ssf","mf.is","exp","vonmises",15,"ssfOUT_60_0.5_2_BADGER","BADGER",2,2,60,"preference"
"ssfOUT_60_0.5_2_BADGER.13",0.482162709359355,0.302141605999153,0.662183812719557,"ssf","mf.is","exp","vonmises",50,"ssfOUT_60_0.5_2_BADGER","BADGER",2,2,60,"preference"
"ssfOUT_60_0.5_2_BADGER.14",0.446243063399671,0.268135751012403,0.624350375786939,"ssf","mf.is","exp","vonmises",158,"ssfOUT_60_0.5_2_BADGER","BADGER",2,2,60,"preference"
"ssfOUT_60_0.5_2_BADGER.15",0.47467597464673,0.296931208600943,0.652420740692518,"ssf","mf.is","exp","vonmises",500,"ssfOUT_60_0.5_2_BADGER","BADGER",2,2,60,"preference"
"ssfOUT_60_0.5_2_BADGER.16",0.511219496188835,0.323201839495171,0.699237152882499,"ssf","mf.is","exp","unif",5,"ssfOUT_60_0.5_2_BADGER","BADGER",2,2,60,"preference"
"ssfOUT_60_0.5_2_BADGER.17",0.306852660410482,0.12185863234471,0.491846688476254,"ssf","mf.is","exp","unif",15,"ssfOUT_60_0.5_2_BADGER","BADGER",2,2,60,"preference"
"ssfOUT_60_0.5_2_BADGER.18",0.45922330010599,0.27693085271685,0.641515747495129,"ssf","mf.is","exp","unif",50,"ssfOUT_60_0.5_2_BADGER","BADGER",2,2,60,"preference"
"ssfOUT_60_0.5_2_BADGER.19",0.466052741474249,0.286978185822669,0.645127297125829,"ssf","mf.is","exp","unif",158,"ssfOUT_60_0.5_2_BADGER","BADGER",2,2,60,"preference"
"ssfOUT_60_0.5_2_BADGER.20",0.440259165092321,0.263155896648286,0.617362433536356,"ssf","mf.is","exp","unif",500,"ssfOUT_60_0.5_2_BADGER","BADGER",2,2,60,"preference"
"ssfOUT_60_0.5_2_BADGER.21",0.485008495051284,0.296113147116061,0.673903842986508,"ssf","mf.ss","gamma","vonmises",5,"ssfOUT_60_0.5_2_BADGER","BADGER",2,2,60,"preference"
"ssfOUT_60_0.5_2_BADGER.22",0.489957652931452,0.308007534803282,0.671907771059622,"ssf","mf.ss","gamma","vonmises",15,"ssfOUT_60_0.5_2_BADGER","BADGER",2,2,60,"preference"
"ssfOUT_60_0.5_2_BADGER.23",0.440476077387127,0.259983348880899,0.620968805893355,"ssf","mf.ss","gamma","vonmises",50,"ssfOUT_60_0.5_2_BADGER","BADGER",2,2,60,"preference"
"ssfOUT_60_0.5_2_BADGER.24",0.453866004830895,0.27341184919455,0.63432016046724,"ssf","mf.ss","gamma","vonmises",158,"ssfOUT_60_0.5_2_BADGER","BADGER",2,2,60,"preference"
"ssfOUT_60_0.5_2_BADGER.25",0.459848001852865,0.280884692500701,0.638811311205029,"ssf","mf.ss","gamma","vonmises",500,"ssfOUT_60_0.5_2_BADGER","BADGER",2,2,60,"preference"
"ssfOUT_60_0.5_2_BADGER.26",0.615960510798021,0.428617861220129,0.803303160375913,"ssf","mf.ss","gamma","unif",5,"ssfOUT_60_0.5_2_BADGER","BADGER",2,2,60,"preference"
"ssfOUT_60_0.5_2_BADGER.27",0.498085669840312,0.312870702667148,0.683300637013475,"ssf","mf.ss","gamma","unif",15,"ssfOUT_60_0.5_2_BADGER","BADGER",2,2,60,"preference"
"ssfOUT_60_0.5_2_BADGER.28",0.477083605373713,0.295375660288356,0.658791550459071,"ssf","mf.ss","gamma","unif",50,"ssfOUT_60_0.5_2_BADGER","BADGER",2,2,60,"preference"
"ssfOUT_60_0.5_2_BADGER.29",0.464045536238213,0.28424637172825,0.643844700748176,"ssf","mf.ss","gamma","unif",158,"ssfOUT_60_0.5_2_BADGER","BADGER",2,2,60,"preference"
"ssfOUT_60_0.5_2_BADGER.30",0.444080819412332,0.265557275387421,0.622604363437243,"ssf","mf.ss","gamma","unif",500,"ssfOUT_60_0.5_2_BADGER","BADGER",2,2,60,"preference"
"ssfOUT_60_0.5_2_BADGER.31",0.420073688076686,0.229709045187543,0.610438330965829,"ssf","mf.ss","exp","vonmises",5,"ssfOUT_60_0.5_2_BADGER","BADGER",2,2,60,"preference"
"ssfOUT_60_0.5_2_BADGER.32",0.385583811877386,0.203298772837278,0.567868850917495,"ssf","mf.ss","exp","vonmises",15,"ssfOUT_60_0.5_2_BADGER","BADGER",2,2,60,"preference"
"ssfOUT_60_0.5_2_BADGER.33",0.46110346499914,0.281584124079349,0.640622805918931,"ssf","mf.ss","exp","vonmises",50,"ssfOUT_60_0.5_2_BADGER","BADGER",2,2,60,"preference"
"ssfOUT_60_0.5_2_BADGER.34",0.428926946190729,0.251319585982315,0.606534306399142,"ssf","mf.ss","exp","vonmises",158,"ssfOUT_60_0.5_2_BADGER","BADGER",2,2,60,"preference"
"ssfOUT_60_0.5_2_BADGER.35",0.448782945906977,0.271338749588147,0.626227142225807,"ssf","mf.ss","exp","vonmises",500,"ssfOUT_60_0.5_2_BADGER","BADGER",2,2,60,"preference"
"ssfOUT_60_0.5_2_BADGER.36",0.527469122318812,0.340696606987487,0.714241637650136,"ssf","mf.ss","exp","unif",5,"ssfOUT_60_0.5_2_BADGER","BADGER",2,2,60,"preference"
"ssfOUT_60_0.5_2_BADGER.37",0.339607692329656,0.155584940043879,0.523630444615432,"ssf","mf.ss","exp","unif",15,"ssfOUT_60_0.5_2_BADGER","BADGER",2,2,60,"preference"
"ssfOUT_60_0.5_2_BADGER.38",0.429567691835538,0.249674270679145,0.609461112991931,"ssf","mf.ss","exp","unif",50,"ssfOUT_60_0.5_2_BADGER","BADGER",2,2,60,"preference"
"ssfOUT_60_0.5_2_BADGER.39",0.44917307299531,0.270562699935023,0.627783446055598,"ssf","mf.ss","exp","unif",158,"ssfOUT_60_0.5_2_BADGER","BADGER",2,2,60,"preference"
"ssfOUT_60_0.5_2_BADGER.40",0.426969663911518,0.24992414661146,0.604015181211577,"ssf","mf.ss","exp","unif",500,"ssfOUT_60_0.5_2_BADGER","BADGER",2,2,60,"preference"
"ssfOUT_60_0.5_2_VULTURE.1",0.216515744077554,0.0331815812095191,0.399849906945588,"ssf","mf.is","gamma","vonmises",5,"ssfOUT_60_0.5_2_VULTURE","VULTURE",2,2,60,"preference"
"ssfOUT_60_0.5_2_VULTURE.2",0.26236339477665,0.0880138488029994,0.4367129407503,"ssf","mf.is","gamma","vonmises",15,"ssfOUT_60_0.5_2_VULTURE","VULTURE",2,2,60,"preference"
"ssfOUT_60_0.5_2_VULTURE.3",0.281684969289774,0.111330234103285,0.452039704476262,"ssf","mf.is","gamma","vonmises",50,"ssfOUT_60_0.5_2_VULTURE","VULTURE",2,2,60,"preference"
"ssfOUT_60_0.5_2_VULTURE.4",0.310454539491451,0.1408999345805,0.480009144402403,"ssf","mf.is","gamma","vonmises",158,"ssfOUT_60_0.5_2_VULTURE","VULTURE",2,2,60,"preference"
"ssfOUT_60_0.5_2_VULTURE.5",0.301645979585661,0.13253198911751,0.470759970053813,"ssf","mf.is","gamma","vonmises",500,"ssfOUT_60_0.5_2_VULTURE","VULTURE",2,2,60,"preference"
"ssfOUT_60_0.5_2_VULTURE.6",0.310070436397387,0.128470760169997,0.491670112624777,"ssf","mf.is","gamma","unif",5,"ssfOUT_60_0.5_2_VULTURE","VULTURE",2,2,60,"preference"
"ssfOUT_60_0.5_2_VULTURE.7",0.250634651490797,0.0774398935487516,0.423829409432843,"ssf","mf.is","gamma","unif",15,"ssfOUT_60_0.5_2_VULTURE","VULTURE",2,2,60,"preference"
"ssfOUT_60_0.5_2_VULTURE.8",0.319793412684775,0.149412175566342,0.490174649803208,"ssf","mf.is","gamma","unif",50,"ssfOUT_60_0.5_2_VULTURE","VULTURE",2,2,60,"preference"
"ssfOUT_60_0.5_2_VULTURE.9",0.31042315951712,0.140645078004869,0.480201241029371,"ssf","mf.is","gamma","unif",158,"ssfOUT_60_0.5_2_VULTURE","VULTURE",2,2,60,"preference"
"ssfOUT_60_0.5_2_VULTURE.10",0.288297564400006,0.119087273300811,0.457507855499201,"ssf","mf.is","gamma","unif",500,"ssfOUT_60_0.5_2_VULTURE","VULTURE",2,2,60,"preference"
"ssfOUT_60_0.5_2_VULTURE.11",0.325880571953914,0.140035986550146,0.511725157357682,"ssf","mf.is","exp","vonmises",5,"ssfOUT_60_0.5_2_VULTURE","VULTURE",2,2,60,"preference"
"ssfOUT_60_0.5_2_VULTURE.12",0.305668206935779,0.130891707017982,0.480444706853576,"ssf","mf.is","exp","vonmises",15,"ssfOUT_60_0.5_2_VULTURE","VULTURE",2,2,60,"preference"
"ssfOUT_60_0.5_2_VULTURE.13",0.281780649168396,0.110678623842104,0.452882674494688,"ssf","mf.is","exp","vonmises",50,"ssfOUT_60_0.5_2_VULTURE","VULTURE",2,2,60,"preference"
"ssfOUT_60_0.5_2_VULTURE.14",0.297340015704264,0.127696067982291,0.466983963426238,"ssf","mf.is","exp","vonmises",158,"ssfOUT_60_0.5_2_VULTURE","VULTURE",2,2,60,"preference"
"ssfOUT_60_0.5_2_VULTURE.15",0.29703137683145,0.127731566066424,0.466331187596476,"ssf","mf.is","exp","vonmises",500,"ssfOUT_60_0.5_2_VULTURE","VULTURE",2,2,60,"preference"
"ssfOUT_60_0.5_2_VULTURE.16",0.512186278799922,0.323932270030851,0.700440287568992,"ssf","mf.is","exp","unif",5,"ssfOUT_60_0.5_2_VULTURE","VULTURE",2,2,60,"preference"
"ssfOUT_60_0.5_2_VULTURE.17",0.260900193772437,0.0866659692886947,0.43513441825618,"ssf","mf.is","exp","unif",15,"ssfOUT_60_0.5_2_VULTURE","VULTURE",2,2,60,"preference"
"ssfOUT_60_0.5_2_VULTURE.18",0.262966260544422,0.0917140861445711,0.434218434944274,"ssf","mf.is","exp","unif",50,"ssfOUT_60_0.5_2_VULTURE","VULTURE",2,2,60,"preference"
"ssfOUT_60_0.5_2_VULTURE.19",0.283494108140699,0.114022338485317,0.452965877796082,"ssf","mf.is","exp","unif",158,"ssfOUT_60_0.5_2_VULTURE","VULTURE",2,2,60,"preference"
"ssfOUT_60_0.5_2_VULTURE.20",0.28698931530872,0.117784186145305,0.456194444472136,"ssf","mf.is","exp","unif",500,"ssfOUT_60_0.5_2_VULTURE","VULTURE",2,2,60,"preference"
"ssfOUT_60_0.5_2_VULTURE.21",0.213559764205027,0.0301825023967162,0.396937026013338,"ssf","mf.ss","gamma","vonmises",5,"ssfOUT_60_0.5_2_VULTURE","VULTURE",2,2,60,"preference"
"ssfOUT_60_0.5_2_VULTURE.22",0.261005348980678,0.0866368138182078,0.435373884143147,"ssf","mf.ss","gamma","vonmises",15,"ssfOUT_60_0.5_2_VULTURE","VULTURE",2,2,60,"preference"
"ssfOUT_60_0.5_2_VULTURE.23",0.27948184469765,0.109103655966589,0.449860033428712,"ssf","mf.ss","gamma","vonmises",50,"ssfOUT_60_0.5_2_VULTURE","VULTURE",2,2,60,"preference"
"ssfOUT_60_0.5_2_VULTURE.24",0.30847236081071,0.138904865617436,0.478039856003984,"ssf","mf.ss","gamma","vonmises",158,"ssfOUT_60_0.5_2_VULTURE","VULTURE",2,2,60,"preference"
"ssfOUT_60_0.5_2_VULTURE.25",0.299823119347702,0.130679725799875,0.468966512895529,"ssf","mf.ss","gamma","vonmises",500,"ssfOUT_60_0.5_2_VULTURE","VULTURE",2,2,60,"preference"
"ssfOUT_60_0.5_2_VULTURE.26",0.306231044233762,0.124795634263913,0.487666454203611,"ssf","mf.ss","gamma","unif",5,"ssfOUT_60_0.5_2_VULTURE","VULTURE",2,2,60,"preference"
"ssfOUT_60_0.5_2_VULTURE.27",0.257127316596871,0.083970561993937,0.430284071199804,"ssf","mf.ss","gamma","unif",15,"ssfOUT_60_0.5_2_VULTURE","VULTURE",2,2,60,"preference"
"ssfOUT_60_0.5_2_VULTURE.28",0.323326128347231,0.152951182667172,0.493701074027291,"ssf","mf.ss","gamma","unif",50,"ssfOUT_60_0.5_2_VULTURE","VULTURE",2,2,60,"preference"
"ssfOUT_60_0.5_2_VULTURE.29",0.31545113291114,0.145663332390686,0.485238933431595,"ssf","mf.ss","gamma","unif",158,"ssfOUT_60_0.5_2_VULTURE","VULTURE",2,2,60,"preference"
"ssfOUT_60_0.5_2_VULTURE.30",0.29303672883627,0.123824081501354,0.462249376171185,"ssf","mf.ss","gamma","unif",500,"ssfOUT_60_0.5_2_VULTURE","VULTURE",2,2,60,"preference"
"ssfOUT_60_0.5_2_VULTURE.31",0.199733929351292,0.0165654902832348,0.382902368419349,"ssf","mf.ss","exp","vonmises",5,"ssfOUT_60_0.5_2_VULTURE","VULTURE",2,2,60,"preference"
"ssfOUT_60_0.5_2_VULTURE.32",0.229830674640846,0.0553344797441406,0.404326869537552,"ssf","mf.ss","exp","vonmises",15,"ssfOUT_60_0.5_2_VULTURE","VULTURE",2,2,60,"preference"
"ssfOUT_60_0.5_2_VULTURE.33",0.229938014882335,0.058153643103351,0.401722386661318,"ssf","mf.ss","exp","vonmises",50,"ssfOUT_60_0.5_2_VULTURE","VULTURE",2,2,60,"preference"
"ssfOUT_60_0.5_2_VULTURE.34",0.247868917775188,0.0770029797068789,0.418734855843496,"ssf","mf.ss","exp","vonmises",158,"ssfOUT_60_0.5_2_VULTURE","VULTURE",2,2,60,"preference"
"ssfOUT_60_0.5_2_VULTURE.35",0.250491187002304,0.0798811474023306,0.421101226602278,"ssf","mf.ss","exp","vonmises",500,"ssfOUT_60_0.5_2_VULTURE","VULTURE",2,2,60,"preference"
"ssfOUT_60_0.5_2_VULTURE.36",0.39902062414544,0.215091979157195,0.582949269133686,"ssf","mf.ss","exp","unif",5,"ssfOUT_60_0.5_2_VULTURE","VULTURE",2,2,60,"preference"
"ssfOUT_60_0.5_2_VULTURE.37",0.216034008506198,0.0413699228907932,0.390698094121603,"ssf","mf.ss","exp","unif",15,"ssfOUT_60_0.5_2_VULTURE","VULTURE",2,2,60,"preference"
"ssfOUT_60_0.5_2_VULTURE.38",0.232168451536338,0.0597814698356753,0.404555433237002,"ssf","mf.ss","exp","unif",50,"ssfOUT_60_0.5_2_VULTURE","VULTURE",2,2,60,"preference"
"ssfOUT_60_0.5_2_VULTURE.39",0.247935170250923,0.0772609412131534,0.418609399288692,"ssf","mf.ss","exp","unif",158,"ssfOUT_60_0.5_2_VULTURE","VULTURE",2,2,60,"preference"
"ssfOUT_60_0.5_2_VULTURE.40",0.242462568133909,0.0719801837258094,0.412944952542008,"ssf","mf.ss","exp","unif",500,"ssfOUT_60_0.5_2_VULTURE","VULTURE",2,2,60,"preference"
"ssfOUT_60_0.5_2_KINGCOBRA.1",0.520009050012594,0.272340108078765,0.767677991946423,"ssf","mf.is","gamma","vonmises",5,"ssfOUT_60_0.5_2_KINGCOBRA","KINGCOBRA",2,2,60,"preference"
"ssfOUT_60_0.5_2_KINGCOBRA.2",0.439002263921021,0.197103375588332,0.68090115225371,"ssf","mf.is","gamma","vonmises",15,"ssfOUT_60_0.5_2_KINGCOBRA","KINGCOBRA",2,2,60,"preference"
"ssfOUT_60_0.5_2_KINGCOBRA.3",0.493757490127272,0.262582454655447,0.724932525599098,"ssf","mf.is","gamma","vonmises",50,"ssfOUT_60_0.5_2_KINGCOBRA","KINGCOBRA",2,2,60,"preference"
"ssfOUT_60_0.5_2_KINGCOBRA.4",0.492342070357772,0.259120951942674,0.72556318877287,"ssf","mf.is","gamma","vonmises",158,"ssfOUT_60_0.5_2_KINGCOBRA","KINGCOBRA",2,2,60,"preference"
"ssfOUT_60_0.5_2_KINGCOBRA.5",0.472660069047682,0.240088401485204,0.705231736610159,"ssf","mf.is","gamma","vonmises",500,"ssfOUT_60_0.5_2_KINGCOBRA","KINGCOBRA",2,2,60,"preference"
"ssfOUT_60_0.5_2_KINGCOBRA.6",0.491129445215358,0.246124315352436,0.736134575078279,"ssf","mf.is","gamma","unif",5,"ssfOUT_60_0.5_2_KINGCOBRA","KINGCOBRA",2,2,60,"preference"
"ssfOUT_60_0.5_2_KINGCOBRA.7",0.479455356690628,0.242245763137168,0.716664950244088,"ssf","mf.is","gamma","unif",15,"ssfOUT_60_0.5_2_KINGCOBRA","KINGCOBRA",2,2,60,"preference"
"ssfOUT_60_0.5_2_KINGCOBRA.8",0.525123848852115,0.290545113292073,0.759702584412157,"ssf","mf.is","gamma","unif",50,"ssfOUT_60_0.5_2_KINGCOBRA","KINGCOBRA",2,2,60,"preference"
"ssfOUT_60_0.5_2_KINGCOBRA.9",0.473971700480378,0.24008422593081,0.707859175029946,"ssf","mf.is","gamma","unif",158,"ssfOUT_60_0.5_2_KINGCOBRA","KINGCOBRA",2,2,60,"preference"
"ssfOUT_60_0.5_2_KINGCOBRA.10",0.462721814468614,0.231420499741743,0.694023129195485,"ssf","mf.is","gamma","unif",500,"ssfOUT_60_0.5_2_KINGCOBRA","KINGCOBRA",2,2,60,"preference"
"ssfOUT_60_0.5_2_KINGCOBRA.11",0.35370528702506,0.103830371116969,0.603580202933152,"ssf","mf.is","exp","vonmises",5,"ssfOUT_60_0.5_2_KINGCOBRA","KINGCOBRA",2,2,60,"preference"
"ssfOUT_60_0.5_2_KINGCOBRA.12",0.271310310133683,0.0281215737927626,0.514499046474604,"ssf","mf.is","exp","vonmises",15,"ssfOUT_60_0.5_2_KINGCOBRA","KINGCOBRA",2,2,60,"preference"
"ssfOUT_60_0.5_2_KINGCOBRA.13",0.455786039349059,0.219314194972378,0.69225788372574,"ssf","mf.is","exp","vonmises",50,"ssfOUT_60_0.5_2_KINGCOBRA","KINGCOBRA",2,2,60,"preference"
"ssfOUT_60_0.5_2_KINGCOBRA.14",0.513190808906329,0.270881385694284,0.755500232118373,"ssf","mf.is","exp","vonmises",158,"ssfOUT_60_0.5_2_KINGCOBRA","KINGCOBRA",2,2,60,"preference"
"ssfOUT_60_0.5_2_KINGCOBRA.15",0.440579744107733,0.205159878530958,0.675999609684509,"ssf","mf.is","exp","vonmises",500,"ssfOUT_60_0.5_2_KINGCOBRA","KINGCOBRA",2,2,60,"preference"
"ssfOUT_60_0.5_2_KINGCOBRA.16",0.463173247935975,0.213226940085271,0.713119555786679,"ssf","mf.is","exp","unif",5,"ssfOUT_60_0.5_2_KINGCOBRA","KINGCOBRA",2,2,60,"preference"
"ssfOUT_60_0.5_2_KINGCOBRA.17",0.497399630614594,0.257360430014816,0.737438831214372,"ssf","mf.is","exp","unif",15,"ssfOUT_60_0.5_2_KINGCOBRA","KINGCOBRA",2,2,60,"preference"
"ssfOUT_60_0.5_2_KINGCOBRA.18",0.502863605408696,0.258745675599736,0.746981535217655,"ssf","mf.is","exp","unif",50,"ssfOUT_60_0.5_2_KINGCOBRA","KINGCOBRA",2,2,60,"preference"
"ssfOUT_60_0.5_2_KINGCOBRA.19",0.473400367488844,0.233232945520926,0.713567789456761,"ssf","mf.is","exp","unif",158,"ssfOUT_60_0.5_2_KINGCOBRA","KINGCOBRA",2,2,60,"preference"
"ssfOUT_60_0.5_2_KINGCOBRA.20",0.463943823716414,0.223952776147143,0.703934871285685,"ssf","mf.is","exp","unif",500,"ssfOUT_60_0.5_2_KINGCOBRA","KINGCOBRA",2,2,60,"preference"
"ssfOUT_60_0.5_2_KINGCOBRA.21",0.511131767266249,0.263359449473443,0.758904085059056,"ssf","mf.ss","gamma","vonmises",5,"ssfOUT_60_0.5_2_KINGCOBRA","KINGCOBRA",2,2,60,"preference"
"ssfOUT_60_0.5_2_KINGCOBRA.22",0.430737850102679,0.187941894121368,0.67353380608399,"ssf","mf.ss","gamma","vonmises",15,"ssfOUT_60_0.5_2_KINGCOBRA","KINGCOBRA",2,2,60,"preference"
"ssfOUT_60_0.5_2_KINGCOBRA.23",0.48877493658462,0.256838334327385,0.720711538841856,"ssf","mf.ss","gamma","vonmises",50,"ssfOUT_60_0.5_2_KINGCOBRA","KINGCOBRA",2,2,60,"preference"
"ssfOUT_60_0.5_2_KINGCOBRA.24",0.489212100640951,0.255185336463806,0.723238864818097,"ssf","mf.ss","gamma","vonmises",158,"ssfOUT_60_0.5_2_KINGCOBRA","KINGCOBRA",2,2,60,"preference"
"ssfOUT_60_0.5_2_KINGCOBRA.25",0.470064748082951,0.236683057457115,0.703446438708788,"ssf","mf.ss","gamma","vonmises",500,"ssfOUT_60_0.5_2_KINGCOBRA","KINGCOBRA",2,2,60,"preference"
"ssfOUT_60_0.5_2_KINGCOBRA.26",0.48120826816527,0.235491258045722,0.726925278284818,"ssf","mf.ss","gamma","unif",5,"ssfOUT_60_0.5_2_KINGCOBRA","KINGCOBRA",2,2,60,"preference"
"ssfOUT_60_0.5_2_KINGCOBRA.27",0.474406036293807,0.236277139872964,0.71253493271465,"ssf","mf.ss","gamma","unif",15,"ssfOUT_60_0.5_2_KINGCOBRA","KINGCOBRA",2,2,60,"preference"
"ssfOUT_60_0.5_2_KINGCOBRA.28",0.521326593986329,0.285695298080648,0.756957889892011,"ssf","mf.ss","gamma","unif",50,"ssfOUT_60_0.5_2_KINGCOBRA","KINGCOBRA",2,2,60,"preference"
"ssfOUT_60_0.5_2_KINGCOBRA.29",0.47101946168039,0.236152982646489,0.705885940714291,"ssf","mf.ss","gamma","unif",158,"ssfOUT_60_0.5_2_KINGCOBRA","KINGCOBRA",2,2,60,"preference"
"ssfOUT_60_0.5_2_KINGCOBRA.30",0.459537818646917,0.227366018021886,0.691709619271948,"ssf","mf.ss","gamma","unif",500,"ssfOUT_60_0.5_2_KINGCOBRA","KINGCOBRA",2,2,60,"preference"
"ssfOUT_60_0.5_2_KINGCOBRA.31",0.531641173307005,0.290270216700832,0.773012129913178,"ssf","mf.ss","exp","vonmises",5,"ssfOUT_60_0.5_2_KINGCOBRA","KINGCOBRA",2,2,60,"preference"
"ssfOUT_60_0.5_2_KINGCOBRA.32",0.444869832982909,0.212731425264725,0.677008240701094,"ssf","mf.ss","exp","vonmises",15,"ssfOUT_60_0.5_2_KINGCOBRA","KINGCOBRA",2,2,60,"preference"
"ssfOUT_60_0.5_2_KINGCOBRA.33",0.500317949007042,0.275818207186012,0.724817690828072,"ssf","mf.ss","exp","vonmises",50,"ssfOUT_60_0.5_2_KINGCOBRA","KINGCOBRA",2,2,60,"preference"
"ssfOUT_60_0.5_2_KINGCOBRA.34",0.507324548258914,0.283849863965087,0.73079923255274,"ssf","mf.ss","exp","vonmises",158,"ssfOUT_60_0.5_2_KINGCOBRA","KINGCOBRA",2,2,60,"preference"
"ssfOUT_60_0.5_2_KINGCOBRA.35",0.48158844629843,0.259255411644459,0.703921480952402,"ssf","mf.ss","exp","vonmises",500,"ssfOUT_60_0.5_2_KINGCOBRA","KINGCOBRA",2,2,60,"preference"
"ssfOUT_60_0.5_2_KINGCOBRA.36",0.636978468558429,0.39930448766426,0.874652449452598,"ssf","mf.ss","exp","unif",5,"ssfOUT_60_0.5_2_KINGCOBRA","KINGCOBRA",2,2,60,"preference"
"ssfOUT_60_0.5_2_KINGCOBRA.37",0.593990808487266,0.367830587504104,0.820151029470429,"ssf","mf.ss","exp","unif",15,"ssfOUT_60_0.5_2_KINGCOBRA","KINGCOBRA",2,2,60,"preference"
"ssfOUT_60_0.5_2_KINGCOBRA.38",0.480621267395781,0.255986062606265,0.705256472185297,"ssf","mf.ss","exp","unif",50,"ssfOUT_60_0.5_2_KINGCOBRA","KINGCOBRA",2,2,60,"preference"
"ssfOUT_60_0.5_2_KINGCOBRA.39",0.491143422824326,0.267313071253927,0.714973774394724,"ssf","mf.ss","exp","unif",158,"ssfOUT_60_0.5_2_KINGCOBRA","KINGCOBRA",2,2,60,"preference"
"ssfOUT_60_0.5_2_KINGCOBRA.40",0.479177531691593,0.256340382233743,0.702014681149442,"ssf","mf.ss","exp","unif",500,"ssfOUT_60_0.5_2_KINGCOBRA","KINGCOBRA",2,2,60,"preference"
"ssfOUT_60_0.5_3_BADGER.1",0.053818893726012,-0.128355351549929,0.235993139001953,"ssf","mf.is","gamma","vonmises",5,"ssfOUT_60_0.5_3_BADGER","BADGER",3,2,60,"no effect"
"ssfOUT_60_0.5_3_BADGER.2",0.00678108871649533,-0.166545743324372,0.180107920757362,"ssf","mf.is","gamma","vonmises",15,"ssfOUT_60_0.5_3_BADGER","BADGER",3,2,60,"no effect"
"ssfOUT_60_0.5_3_BADGER.3",0.0280542524145944,-0.139946412373805,0.196054917202994,"ssf","mf.is","gamma","vonmises",50,"ssfOUT_60_0.5_3_BADGER","BADGER",3,2,60,"no effect"
"ssfOUT_60_0.5_3_BADGER.4",0.0425369475462305,-0.124978082777126,0.210051977869587,"ssf","mf.is","gamma","vonmises",158,"ssfOUT_60_0.5_3_BADGER","BADGER",3,2,60,"no effect"
"ssfOUT_60_0.5_3_BADGER.5",0.0332266527531593,-0.133913897756031,0.20036720326235,"ssf","mf.is","gamma","vonmises",500,"ssfOUT_60_0.5_3_BADGER","BADGER",3,2,60,"no effect"
"ssfOUT_60_0.5_3_BADGER.6",0.0235761382300051,-0.157654377640066,0.204806654100076,"ssf","mf.is","gamma","unif",5,"ssfOUT_60_0.5_3_BADGER","BADGER",3,2,60,"no effect"
"ssfOUT_60_0.5_3_BADGER.7",0.00924820372747394,-0.162723589409888,0.181219996864836,"ssf","mf.is","gamma","unif",15,"ssfOUT_60_0.5_3_BADGER","BADGER",3,2,60,"no effect"
"ssfOUT_60_0.5_3_BADGER.8",0.046094423589301,-0.123079078094459,0.215267925273061,"ssf","mf.is","gamma","unif",50,"ssfOUT_60_0.5_3_BADGER","BADGER",3,2,60,"no effect"
"ssfOUT_60_0.5_3_BADGER.9",0.0162770467985759,-0.151272939295555,0.183827032892707,"ssf","mf.is","gamma","unif",158,"ssfOUT_60_0.5_3_BADGER","BADGER",3,2,60,"no effect"
"ssfOUT_60_0.5_3_BADGER.10",0.0207214541395552,-0.146678907730711,0.188121816009822,"ssf","mf.is","gamma","unif",500,"ssfOUT_60_0.5_3_BADGER","BADGER",3,2,60,"no effect"
"ssfOUT_60_0.5_3_BADGER.11",0.003659744315306,-0.180771373728845,0.188090862359457,"ssf","mf.is","exp","vonmises",5,"ssfOUT_60_0.5_3_BADGER","BADGER",3,2,60,"no effect"
"ssfOUT_60_0.5_3_BADGER.12",0.0262411396062651,-0.147196802446135,0.199679081658665,"ssf","mf.is","exp","vonmises",15,"ssfOUT_60_0.5_3_BADGER","BADGER",3,2,60,"no effect"
"ssfOUT_60_0.5_3_BADGER.13",0.00801203321086088,-0.160831102555283,0.176855168977005,"ssf","mf.is","exp","vonmises",50,"ssfOUT_60_0.5_3_BADGER","BADGER",3,2,60,"no effect"
"ssfOUT_60_0.5_3_BADGER.14",0.0275845937054,-0.140121688711556,0.195290876122356,"ssf","mf.is","exp","vonmises",158,"ssfOUT_60_0.5_3_BADGER","BADGER",3,2,60,"no effect"
"ssfOUT_60_0.5_3_BADGER.15",0.0375792193223854,-0.129607852534283,0.204766291179054,"ssf","mf.is","exp","vonmises",500,"ssfOUT_60_0.5_3_BADGER","BADGER",3,2,60,"no effect"
"ssfOUT_60_0.5_3_BADGER.16",0.0522791417545239,-0.133377325586795,0.237935609095843,"ssf","mf.is","exp","unif",5,"ssfOUT_60_0.5_3_BADGER","BADGER",3,2,60,"no effect"
"ssfOUT_60_0.5_3_BADGER.17",-0.0349255433862443,-0.205400318562661,0.135549231790172,"ssf","mf.is","exp","unif",15,"ssfOUT_60_0.5_3_BADGER","BADGER",3,2,60,"no effect"
"ssfOUT_60_0.5_3_BADGER.18",0.0148267987750124,-0.154411504705412,0.184065102255437,"ssf","mf.is","exp","unif",50,"ssfOUT_60_0.5_3_BADGER","BADGER",3,2,60,"no effect"
"ssfOUT_60_0.5_3_BADGER.19",0.0141015360610304,-0.15293842851658,0.181141500638641,"ssf","mf.is","exp","unif",158,"ssfOUT_60_0.5_3_BADGER","BADGER",3,2,60,"no effect"
"ssfOUT_60_0.5_3_BADGER.20",0.0277430885230493,-0.1391747157129,0.194660892758998,"ssf","mf.is","exp","unif",500,"ssfOUT_60_0.5_3_BADGER","BADGER",3,2,60,"no effect"
"ssfOUT_60_0.5_3_BADGER.21",0.0507336918713845,-0.131379438777139,0.232846822519908,"ssf","mf.ss","gamma","vonmises",5,"ssfOUT_60_0.5_3_BADGER","BADGER",3,2,60,"no effect"
"ssfOUT_60_0.5_3_BADGER.22",0.00659954338846075,-0.166977243732138,0.18017633050906,"ssf","mf.ss","gamma","vonmises",15,"ssfOUT_60_0.5_3_BADGER","BADGER",3,2,60,"no effect"
"ssfOUT_60_0.5_3_BADGER.23",0.0276756147502388,-0.140468166848287,0.195819396348764,"ssf","mf.ss","gamma","vonmises",50,"ssfOUT_60_0.5_3_BADGER","BADGER",3,2,60,"no effect"
"ssfOUT_60_0.5_3_BADGER.24",0.0427732495899429,-0.124778414686149,0.210324913866035,"ssf","mf.ss","gamma","vonmises",158,"ssfOUT_60_0.5_3_BADGER","BADGER",3,2,60,"no effect"
"ssfOUT_60_0.5_3_BADGER.25",0.0332899946472167,-0.133912435492395,0.200492424786828,"ssf","mf.ss","gamma","vonmises",500,"ssfOUT_60_0.5_3_BADGER","BADGER",3,2,60,"no effect"
"ssfOUT_60_0.5_3_BADGER.26",0.0111392633548165,-0.169083029706658,0.191361556416291,"ssf","mf.ss","gamma","unif",5,"ssfOUT_60_0.5_3_BADGER","BADGER",3,2,60,"no effect"
"ssfOUT_60_0.5_3_BADGER.27",0.00993358477085095,-0.161643158862975,0.181510328404677,"ssf","mf.ss","gamma","unif",15,"ssfOUT_60_0.5_3_BADGER","BADGER",3,2,60,"no effect"
"ssfOUT_60_0.5_3_BADGER.28",0.0461469480031865,-0.123128601554496,0.215422497560869,"ssf","mf.ss","gamma","unif",50,"ssfOUT_60_0.5_3_BADGER","BADGER",3,2,60,"no effect"
"ssfOUT_60_0.5_3_BADGER.29",0.0234693400047784,-0.144094971933124,0.191033651942681,"ssf","mf.ss","gamma","unif",158,"ssfOUT_60_0.5_3_BADGER","BADGER",3,2,60,"no effect"
"ssfOUT_60_0.5_3_BADGER.30",0.0239827370503101,-0.143328401493371,0.191293875593991,"ssf","mf.ss","gamma","unif",500,"ssfOUT_60_0.5_3_BADGER","BADGER",3,2,60,"no effect"
"ssfOUT_60_0.5_3_BADGER.31",0.00456641000363431,-0.179467570969547,0.188600390976815,"ssf","mf.ss","exp","vonmises",5,"ssfOUT_60_0.5_3_BADGER","BADGER",3,2,60,"no effect"
"ssfOUT_60_0.5_3_BADGER.32",0.0256661171154674,-0.147097965452925,0.198430199683859,"ssf","mf.ss","exp","vonmises",15,"ssfOUT_60_0.5_3_BADGER","BADGER",3,2,60,"no effect"
"ssfOUT_60_0.5_3_BADGER.33",-0.0024113836914672,-0.17062892392565,0.165806156542716,"ssf","mf.ss","exp","vonmises",50,"ssfOUT_60_0.5_3_BADGER","BADGER",3,2,60,"no effect"
"ssfOUT_60_0.5_3_BADGER.34",0.0211312124640677,-0.145875364737419,0.188137789665555,"ssf","mf.ss","exp","vonmises",158,"ssfOUT_60_0.5_3_BADGER","BADGER",3,2,60,"no effect"
"ssfOUT_60_0.5_3_BADGER.35",0.028888186539535,-0.137503019766953,0.195279392846023,"ssf","mf.ss","exp","vonmises",500,"ssfOUT_60_0.5_3_BADGER","BADGER",3,2,60,"no effect"
"ssfOUT_60_0.5_3_BADGER.36",0.0389443963351053,-0.145616779929183,0.223505572599393,"ssf","mf.ss","exp","unif",5,"ssfOUT_60_0.5_3_BADGER","BADGER",3,2,60,"no effect"
"ssfOUT_60_0.5_3_BADGER.37",-0.0327390736217348,-0.202517470550853,0.137039323307384,"ssf","mf.ss","exp","unif",15,"ssfOUT_60_0.5_3_BADGER","BADGER",3,2,60,"no effect"
"ssfOUT_60_0.5_3_BADGER.38",0.017814214389161,-0.150323700318166,0.185952129096488,"ssf","mf.ss","exp","unif",50,"ssfOUT_60_0.5_3_BADGER","BADGER",3,2,60,"no effect"
"ssfOUT_60_0.5_3_BADGER.39",0.00835366194489275,-0.157782278855777,0.174489602745562,"ssf","mf.ss","exp","unif",158,"ssfOUT_60_0.5_3_BADGER","BADGER",3,2,60,"no effect"
"ssfOUT_60_0.5_3_BADGER.40",0.0202659243993494,-0.145792822192113,0.186324670990812,"ssf","mf.ss","exp","unif",500,"ssfOUT_60_0.5_3_BADGER","BADGER",3,2,60,"no effect"
"ssfOUT_60_0.5_3_VULTURE.1",0.498055928979193,0.272066102402267,0.724045755556118,"ssf","mf.is","gamma","vonmises",5,"ssfOUT_60_0.5_3_VULTURE","VULTURE",3,2,60,"preference"
"ssfOUT_60_0.5_3_VULTURE.2",0.383778578638591,0.165626545730511,0.601930611546672,"ssf","mf.is","gamma","vonmises",15,"ssfOUT_60_0.5_3_VULTURE","VULTURE",3,2,60,"preference"
"ssfOUT_60_0.5_3_VULTURE.3",0.340971374003951,0.127866884018596,0.554075863989306,"ssf","mf.is","gamma","vonmises",50,"ssfOUT_60_0.5_3_VULTURE","VULTURE",3,2,60,"preference"
"ssfOUT_60_0.5_3_VULTURE.4",0.378250588465774,0.16617437426248,0.590326802669068,"ssf","mf.is","gamma","vonmises",158,"ssfOUT_60_0.5_3_VULTURE","VULTURE",3,2,60,"preference"
"ssfOUT_60_0.5_3_VULTURE.5",0.39130642018712,0.18008984616568,0.60252299420856,"ssf","mf.is","gamma","vonmises",500,"ssfOUT_60_0.5_3_VULTURE","VULTURE",3,2,60,"preference"
"ssfOUT_60_0.5_3_VULTURE.6",0.133369666953842,-0.0971424892338144,0.363881823141498,"ssf","mf.is","gamma","unif",5,"ssfOUT_60_0.5_3_VULTURE","VULTURE",3,2,60,"no effect"
"ssfOUT_60_0.5_3_VULTURE.7",0.353726150934741,0.136211024550765,0.571241277318718,"ssf","mf.is","gamma","unif",15,"ssfOUT_60_0.5_3_VULTURE","VULTURE",3,2,60,"preference"
"ssfOUT_60_0.5_3_VULTURE.8",0.371639717079116,0.159746855229475,0.583532578928758,"ssf","mf.is","gamma","unif",50,"ssfOUT_60_0.5_3_VULTURE","VULTURE",3,2,60,"preference"
"ssfOUT_60_0.5_3_VULTURE.9",0.38900539605097,0.177119891643432,0.600890900458508,"ssf","mf.is","gamma","unif",158,"ssfOUT_60_0.5_3_VULTURE","VULTURE",3,2,60,"preference"
"ssfOUT_60_0.5_3_VULTURE.10",0.375869863416093,0.164320112873268,0.587419613958918,"ssf","mf.is","gamma","unif",500,"ssfOUT_60_0.5_3_VULTURE","VULTURE",3,2,60,"preference"
"ssfOUT_60_0.5_3_VULTURE.11",0.352190838497036,0.12123487815714,0.583146798836931,"ssf","mf.is","exp","vonmises",5,"ssfOUT_60_0.5_3_VULTURE","VULTURE",3,2,60,"preference"
"ssfOUT_60_0.5_3_VULTURE.12",0.386477930618064,0.167340404947049,0.60561545628908,"ssf","mf.is","exp","vonmises",15,"ssfOUT_60_0.5_3_VULTURE","VULTURE",3,2,60,"preference"
"ssfOUT_60_0.5_3_VULTURE.13",0.345058922103673,0.130753618349613,0.559364225857734,"ssf","mf.is","exp","vonmises",50,"ssfOUT_60_0.5_3_VULTURE","VULTURE",3,2,60,"preference"
"ssfOUT_60_0.5_3_VULTURE.14",0.366997894757211,0.155028264985805,0.578967524528616,"ssf","mf.is","exp","vonmises",158,"ssfOUT_60_0.5_3_VULTURE","VULTURE",3,2,60,"preference"
"ssfOUT_60_0.5_3_VULTURE.15",0.369663151503143,0.158306829155482,0.581019473850805,"ssf","mf.is","exp","vonmises",500,"ssfOUT_60_0.5_3_VULTURE","VULTURE",3,2,60,"preference"
"ssfOUT_60_0.5_3_VULTURE.16",0.42840889475363,0.197309010356466,0.659508779150794,"ssf","mf.is","exp","unif",5,"ssfOUT_60_0.5_3_VULTURE","VULTURE",3,2,60,"preference"
"ssfOUT_60_0.5_3_VULTURE.17",0.324497429696436,0.106742429673314,0.542252429719558,"ssf","mf.is","exp","unif",15,"ssfOUT_60_0.5_3_VULTURE","VULTURE",3,2,60,"preference"
"ssfOUT_60_0.5_3_VULTURE.18",0.371901790501717,0.158190967514046,0.585612613489388,"ssf","mf.is","exp","unif",50,"ssfOUT_60_0.5_3_VULTURE","VULTURE",3,2,60,"preference"
"ssfOUT_60_0.5_3_VULTURE.19",0.366891887111875,0.154329663379175,0.579454110844575,"ssf","mf.is","exp","unif",158,"ssfOUT_60_0.5_3_VULTURE","VULTURE",3,2,60,"preference"
"ssfOUT_60_0.5_3_VULTURE.20",0.376458687500012,0.164526181604368,0.588391193395656,"ssf","mf.is","exp","unif",500,"ssfOUT_60_0.5_3_VULTURE","VULTURE",3,2,60,"preference"
"ssfOUT_60_0.5_3_VULTURE.21",0.496621579765405,0.27064390098698,0.722599258543829,"ssf","mf.ss","gamma","vonmises",5,"ssfOUT_60_0.5_3_VULTURE","VULTURE",3,2,60,"preference"
"ssfOUT_60_0.5_3_VULTURE.22",0.385869907902451,0.16772171451923,0.604018101285672,"ssf","mf.ss","gamma","vonmises",15,"ssfOUT_60_0.5_3_VULTURE","VULTURE",3,2,60,"preference"
"ssfOUT_60_0.5_3_VULTURE.23",0.341290404885621,0.128112294039059,0.554468515732183,"ssf","mf.ss","gamma","vonmises",50,"ssfOUT_60_0.5_3_VULTURE","VULTURE",3,2,60,"preference"
"ssfOUT_60_0.5_3_VULTURE.24",0.377308600973736,0.16511758940424,0.589499612543233,"ssf","mf.ss","gamma","vonmises",158,"ssfOUT_60_0.5_3_VULTURE","VULTURE",3,2,60,"preference"
"ssfOUT_60_0.5_3_VULTURE.25",0.390972336828565,0.179650866242965,0.602293807414164,"ssf","mf.ss","gamma","vonmises",500,"ssfOUT_60_0.5_3_VULTURE","VULTURE",3,2,60,"preference"
"ssfOUT_60_0.5_3_VULTURE.26",0.137342281174929,-0.0933192890749691,0.368003851424827,"ssf","mf.ss","gamma","unif",5,"ssfOUT_60_0.5_3_VULTURE","VULTURE",3,2,60,"no effect"
"ssfOUT_60_0.5_3_VULTURE.27",0.357516044568561,0.140010113895819,0.575021975241303,"ssf","mf.ss","gamma","unif",15,"ssfOUT_60_0.5_3_VULTURE","VULTURE",3,2,60,"preference"
"ssfOUT_60_0.5_3_VULTURE.28",0.377365928600074,0.165414530737272,0.589317326462876,"ssf","mf.ss","gamma","unif",50,"ssfOUT_60_0.5_3_VULTURE","VULTURE",3,2,60,"preference"
"ssfOUT_60_0.5_3_VULTURE.29",0.391510249315424,0.17949633832375,0.603524160307098,"ssf","mf.ss","gamma","unif",158,"ssfOUT_60_0.5_3_VULTURE","VULTURE",3,2,60,"preference"
"ssfOUT_60_0.5_3_VULTURE.30",0.379171106274817,0.167520982433555,0.59082123011608,"ssf","mf.ss","gamma","unif",500,"ssfOUT_60_0.5_3_VULTURE","VULTURE",3,2,60,"preference"
"ssfOUT_60_0.5_3_VULTURE.31",0.381342237199238,0.157103542645479,0.605580931752997,"ssf","mf.ss","exp","vonmises",5,"ssfOUT_60_0.5_3_VULTURE","VULTURE",3,2,60,"preference"
"ssfOUT_60_0.5_3_VULTURE.32",0.39603871326939,0.177255407287422,0.614822019251357,"ssf","mf.ss","exp","vonmises",15,"ssfOUT_60_0.5_3_VULTURE","VULTURE",3,2,60,"preference"
"ssfOUT_60_0.5_3_VULTURE.33",0.335643660714497,0.121645622427655,0.549641699001339,"ssf","mf.ss","exp","vonmises",50,"ssfOUT_60_0.5_3_VULTURE","VULTURE",3,2,60,"preference"
"ssfOUT_60_0.5_3_VULTURE.34",0.359127817185555,0.14665001947058,0.57160561490053,"ssf","mf.ss","exp","vonmises",158,"ssfOUT_60_0.5_3_VULTURE","VULTURE",3,2,60,"preference"
"ssfOUT_60_0.5_3_VULTURE.35",0.366526182628097,0.154418758824116,0.578633606432078,"ssf","mf.ss","exp","vonmises",500,"ssfOUT_60_0.5_3_VULTURE","VULTURE",3,2,60,"preference"
"ssfOUT_60_0.5_3_VULTURE.36",0.397949730142912,0.173136650734771,0.622762809551054,"ssf","mf.ss","exp","unif",5,"ssfOUT_60_0.5_3_VULTURE","VULTURE",3,2,60,"preference"
"ssfOUT_60_0.5_3_VULTURE.37",0.333541674994976,0.117321587103067,0.549761762886885,"ssf","mf.ss","exp","unif",15,"ssfOUT_60_0.5_3_VULTURE","VULTURE",3,2,60,"preference"
"ssfOUT_60_0.5_3_VULTURE.38",0.376405137066477,0.162526250830484,0.590284023302471,"ssf","mf.ss","exp","unif",50,"ssfOUT_60_0.5_3_VULTURE","VULTURE",3,2,60,"preference"
"ssfOUT_60_0.5_3_VULTURE.39",0.357974420068704,0.144627258847083,0.571321581290324,"ssf","mf.ss","exp","unif",158,"ssfOUT_60_0.5_3_VULTURE","VULTURE",3,2,60,"preference"
"ssfOUT_60_0.5_3_VULTURE.40",0.363864979821391,0.151479744087188,0.576250215555595,"ssf","mf.ss","exp","unif",500,"ssfOUT_60_0.5_3_VULTURE","VULTURE",3,2,60,"preference"
"ssfOUT_60_0.5_3_KINGCOBRA.1",0.56714120765492,-0.0495207416159762,1.18380315692582,"ssf","mf.is","gamma","vonmises",5,"ssfOUT_60_0.5_3_KINGCOBRA","KINGCOBRA",3,2,60,"no effect"
"ssfOUT_60_0.5_3_KINGCOBRA.2",0.703717064169889,0.0997380815079862,1.30769604683179,"ssf","mf.is","gamma","vonmises",15,"ssfOUT_60_0.5_3_KINGCOBRA","KINGCOBRA",3,2,60,"preference"
"ssfOUT_60_0.5_3_KINGCOBRA.3",0.701770150356383,0.102103479656205,1.30143682105656,"ssf","mf.is","gamma","vonmises",50,"ssfOUT_60_0.5_3_KINGCOBRA","KINGCOBRA",3,2,60,"preference"
"ssfOUT_60_0.5_3_KINGCOBRA.4",0.640765038390698,0.0489712995633104,1.23255877721809,"ssf","mf.is","gamma","vonmises",158,"ssfOUT_60_0.5_3_KINGCOBRA","KINGCOBRA",3,2,60,"preference"
"ssfOUT_60_0.5_3_KINGCOBRA.5",0.703692891296898,0.115482211003497,1.2919035715903,"ssf","mf.is","gamma","vonmises",500,"ssfOUT_60_0.5_3_KINGCOBRA","KINGCOBRA",3,2,60,"preference"
"ssfOUT_60_0.5_3_KINGCOBRA.6",0.438086439095271,-0.159596619933953,1.03576949812449,"ssf","mf.is","gamma","unif",5,"ssfOUT_60_0.5_3_KINGCOBRA","KINGCOBRA",3,2,60,"no effect"
"ssfOUT_60_0.5_3_KINGCOBRA.7",0.414180888536504,-0.210645606540544,1.03900738361355,"ssf","mf.is","gamma","unif",15,"ssfOUT_60_0.5_3_KINGCOBRA","KINGCOBRA",3,2,60,"no effect"
"ssfOUT_60_0.5_3_KINGCOBRA.8",0.68204625551007,0.0930425426588221,1.27104996836132,"ssf","mf.is","gamma","unif",50,"ssfOUT_60_0.5_3_KINGCOBRA","KINGCOBRA",3,2,60,"preference"
"ssfOUT_60_0.5_3_KINGCOBRA.9",0.567192278032191,-0.0257945548062595,1.16017911087064,"ssf","mf.is","gamma","unif",158,"ssfOUT_60_0.5_3_KINGCOBRA","KINGCOBRA",3,2,60,"no effect"
"ssfOUT_60_0.5_3_KINGCOBRA.10",0.643267320179458,0.0489901749298851,1.23754446542903,"ssf","mf.is","gamma","unif",500,"ssfOUT_60_0.5_3_KINGCOBRA","KINGCOBRA",3,2,60,"preference"
"ssfOUT_60_0.5_3_KINGCOBRA.11",0.733264234606585,0.0981769090096302,1.36835156020354,"ssf","mf.is","exp","vonmises",5,"ssfOUT_60_0.5_3_KINGCOBRA","KINGCOBRA",3,2,60,"preference"
"ssfOUT_60_0.5_3_KINGCOBRA.12",0.372069202851877,-0.264177681109612,1.00831608681337,"ssf","mf.is","exp","vonmises",15,"ssfOUT_60_0.5_3_KINGCOBRA","KINGCOBRA",3,2,60,"no effect"
"ssfOUT_60_0.5_3_KINGCOBRA.13",0.980965881453623,0.340997845749388,1.62093391715786,"ssf","mf.is","exp","vonmises",50,"ssfOUT_60_0.5_3_KINGCOBRA","KINGCOBRA",3,2,60,"preference"
"ssfOUT_60_0.5_3_KINGCOBRA.14",0.663260507212899,0.0466774244507226,1.27984358997508,"ssf","mf.is","exp","vonmises",158,"ssfOUT_60_0.5_3_KINGCOBRA","KINGCOBRA",3,2,60,"preference"
"ssfOUT_60_0.5_3_KINGCOBRA.15",0.660083102677477,0.0471266464559907,1.27303955889896,"ssf","mf.is","exp","vonmises",500,"ssfOUT_60_0.5_3_KINGCOBRA","KINGCOBRA",3,2,60,"preference"
"ssfOUT_60_0.5_3_KINGCOBRA.16",1.1040638513564,0.489478450501378,1.71864925221142,"ssf","mf.is","exp","unif",5,"ssfOUT_60_0.5_3_KINGCOBRA","KINGCOBRA",3,2,60,"preference"
"ssfOUT_60_0.5_3_KINGCOBRA.17",1.14263315100098,0.495661649275866,1.78960465272609,"ssf","mf.is","exp","unif",15,"ssfOUT_60_0.5_3_KINGCOBRA","KINGCOBRA",3,2,60,"preference"
"ssfOUT_60_0.5_3_KINGCOBRA.18",0.179611519901181,-0.425006760314003,0.784229800116366,"ssf","mf.is","exp","unif",50,"ssfOUT_60_0.5_3_KINGCOBRA","KINGCOBRA",3,2,60,"no effect"
"ssfOUT_60_0.5_3_KINGCOBRA.19",0.602563268351249,-0.00189703275217312,1.20702356945467,"ssf","mf.is","exp","unif",158,"ssfOUT_60_0.5_3_KINGCOBRA","KINGCOBRA",3,2,60,"no effect"
"ssfOUT_60_0.5_3_KINGCOBRA.20",0.887089091281362,0.269598720213238,1.50457946234949,"ssf","mf.is","exp","unif",500,"ssfOUT_60_0.5_3_KINGCOBRA","KINGCOBRA",3,2,60,"preference"
"ssfOUT_60_0.5_3_KINGCOBRA.21",0.525335844546895,-0.0936277934720636,1.14429948256585,"ssf","mf.ss","gamma","vonmises",5,"ssfOUT_60_0.5_3_KINGCOBRA","KINGCOBRA",3,2,60,"no effect"
"ssfOUT_60_0.5_3_KINGCOBRA.22",0.691316403311342,0.0851469304074709,1.29748587621521,"ssf","mf.ss","gamma","vonmises",15,"ssfOUT_60_0.5_3_KINGCOBRA","KINGCOBRA",3,2,60,"preference"
"ssfOUT_60_0.5_3_KINGCOBRA.23",0.706793959066242,0.103739700727127,1.30984821740536,"ssf","mf.ss","gamma","vonmises",50,"ssfOUT_60_0.5_3_KINGCOBRA","KINGCOBRA",3,2,60,"preference"
"ssfOUT_60_0.5_3_KINGCOBRA.24",0.626658412094203,0.0333082499899787,1.22000857419843,"ssf","mf.ss","gamma","vonmises",158,"ssfOUT_60_0.5_3_KINGCOBRA","KINGCOBRA",3,2,60,"preference"
"ssfOUT_60_0.5_3_KINGCOBRA.25",0.693306066611761,0.102737251120045,1.28387488210348,"ssf","mf.ss","gamma","vonmises",500,"ssfOUT_60_0.5_3_KINGCOBRA","KINGCOBRA",3,2,60,"preference"
"ssfOUT_60_0.5_3_KINGCOBRA.26",0.388614479650783,-0.210738877720973,0.987967837022539,"ssf","mf.ss","gamma","unif",5,"ssfOUT_60_0.5_3_KINGCOBRA","KINGCOBRA",3,2,60,"no effect"
"ssfOUT_60_0.5_3_KINGCOBRA.27",0.39298591754356,-0.23463372500029,1.02060556008741,"ssf","mf.ss","gamma","unif",15,"ssfOUT_60_0.5_3_KINGCOBRA","KINGCOBRA",3,2,60,"no effect"
"ssfOUT_60_0.5_3_KINGCOBRA.28",0.673396013680836,0.0817663701004521,1.26502565726122,"ssf","mf.ss","gamma","unif",50,"ssfOUT_60_0.5_3_KINGCOBRA","KINGCOBRA",3,2,60,"preference"
"ssfOUT_60_0.5_3_KINGCOBRA.29",0.554112702852682,-0.0407839167783345,1.1490093224837,"ssf","mf.ss","gamma","unif",158,"ssfOUT_60_0.5_3_KINGCOBRA","KINGCOBRA",3,2,60,"no effect"
"ssfOUT_60_0.5_3_KINGCOBRA.30",0.632696664701712,0.0357375892125129,1.22965574019091,"ssf","mf.ss","gamma","unif",500,"ssfOUT_60_0.5_3_KINGCOBRA","KINGCOBRA",3,2,60,"preference"
"ssfOUT_60_0.5_3_KINGCOBRA.31",0.737427965047448,0.130052474476723,1.34480345561817,"ssf","mf.ss","exp","vonmises",5,"ssfOUT_60_0.5_3_KINGCOBRA","KINGCOBRA",3,2,60,"preference"
"ssfOUT_60_0.5_3_KINGCOBRA.32",0.416880723793755,-0.200718312052031,1.03447975963954,"ssf","mf.ss","exp","vonmises",15,"ssfOUT_60_0.5_3_KINGCOBRA","KINGCOBRA",3,2,60,"no effect"
"ssfOUT_60_0.5_3_KINGCOBRA.33",0.568199134016225,-0.00468711053058313,1.14108537856303,"ssf","mf.ss","exp","vonmises",50,"ssfOUT_60_0.5_3_KINGCOBRA","KINGCOBRA",3,2,60,"no effect"
"ssfOUT_60_0.5_3_KINGCOBRA.34",0.590148660562848,0.0188319367554413,1.16146538437026,"ssf","mf.ss","exp","vonmises",158,"ssfOUT_60_0.5_3_KINGCOBRA","KINGCOBRA",3,2,60,"preference"
"ssfOUT_60_0.5_3_KINGCOBRA.35",0.588364064442748,0.0145465829889199,1.16218154589658,"ssf","mf.ss","exp","vonmises",500,"ssfOUT_60_0.5_3_KINGCOBRA","KINGCOBRA",3,2,60,"preference"
"ssfOUT_60_0.5_3_KINGCOBRA.36",0.99309060309131,0.394212844563041,1.59196836161958,"ssf","mf.ss","exp","unif",5,"ssfOUT_60_0.5_3_KINGCOBRA","KINGCOBRA",3,2,60,"preference"
"ssfOUT_60_0.5_3_KINGCOBRA.37",0.557177127336428,-0.00714852698556256,1.12150278165842,"ssf","mf.ss","exp","unif",15,"ssfOUT_60_0.5_3_KINGCOBRA","KINGCOBRA",3,2,60,"no effect"
"ssfOUT_60_0.5_3_KINGCOBRA.38",0.464708858073267,-0.106995835557844,1.03641355170438,"ssf","mf.ss","exp","unif",50,"ssfOUT_60_0.5_3_KINGCOBRA","KINGCOBRA",3,2,60,"no effect"
"ssfOUT_60_0.5_3_KINGCOBRA.39",0.565411456609536,-0.00894536563593074,1.139768278855,"ssf","mf.ss","exp","unif",158,"ssfOUT_60_0.5_3_KINGCOBRA","KINGCOBRA",3,2,60,"no effect"
"ssfOUT_60_0.5_3_KINGCOBRA.40",0.581321595420164,0.0104903056019788,1.15215288523835,"ssf","mf.ss","exp","unif",500,"ssfOUT_60_0.5_3_KINGCOBRA","KINGCOBRA",3,2,60,"preference"
"ssfOUT_60_0.5_4_BADGER.1",0.871463749453683,0.658531191080653,1.08439630782671,"ssf","mf.is","gamma","vonmises",5,"ssfOUT_60_0.5_4_BADGER","BADGER",4,2,60,"preference"
"ssfOUT_60_0.5_4_BADGER.2",0.780758611709752,0.572381707540326,0.989135515879177,"ssf","mf.is","gamma","vonmises",15,"ssfOUT_60_0.5_4_BADGER","BADGER",4,2,60,"preference"
"ssfOUT_60_0.5_4_BADGER.3",0.691744877634161,0.487739884079015,0.895749871189307,"ssf","mf.is","gamma","vonmises",50,"ssfOUT_60_0.5_4_BADGER","BADGER",4,2,60,"preference"
"ssfOUT_60_0.5_4_BADGER.4",0.739231395356369,0.535331284300271,0.943131506412466,"ssf","mf.is","gamma","vonmises",158,"ssfOUT_60_0.5_4_BADGER","BADGER",4,2,60,"preference"
"ssfOUT_60_0.5_4_BADGER.5",0.753807695474824,0.548874699627763,0.958740691321886,"ssf","mf.is","gamma","vonmises",500,"ssfOUT_60_0.5_4_BADGER","BADGER",4,2,60,"preference"
"ssfOUT_60_0.5_4_BADGER.6",0.803816194240604,0.589699176100504,1.0179332123807,"ssf","mf.is","gamma","unif",5,"ssfOUT_60_0.5_4_BADGER","BADGER",4,2,60,"preference"
"ssfOUT_60_0.5_4_BADGER.7",0.762764617771411,0.552825020598744,0.972704214944079,"ssf","mf.is","gamma","unif",15,"ssfOUT_60_0.5_4_BADGER","BADGER",4,2,60,"preference"
"ssfOUT_60_0.5_4_BADGER.8",0.711959675426611,0.50533450265702,0.918584848196202,"ssf","mf.is","gamma","unif",50,"ssfOUT_60_0.5_4_BADGER","BADGER",4,2,60,"preference"
"ssfOUT_60_0.5_4_BADGER.9",0.767915522666249,0.56362102786481,0.972210017467688,"ssf","mf.is","gamma","unif",158,"ssfOUT_60_0.5_4_BADGER","BADGER",4,2,60,"preference"
"ssfOUT_60_0.5_4_BADGER.10",0.72348121050302,0.519485921762387,0.927476499243653,"ssf","mf.is","gamma","unif",500,"ssfOUT_60_0.5_4_BADGER","BADGER",4,2,60,"preference"
"ssfOUT_60_0.5_4_BADGER.11",0.685693933260935,0.463043855571466,0.908344010950403,"ssf","mf.is","exp","vonmises",5,"ssfOUT_60_0.5_4_BADGER","BADGER",4,2,60,"preference"
"ssfOUT_60_0.5_4_BADGER.12",0.770871204376708,0.561721965954884,0.980020442798532,"ssf","mf.is","exp","vonmises",15,"ssfOUT_60_0.5_4_BADGER","BADGER",4,2,60,"preference"
"ssfOUT_60_0.5_4_BADGER.13",0.669058238004419,0.463288169493138,0.8748283065157,"ssf","mf.is","exp","vonmises",50,"ssfOUT_60_0.5_4_BADGER","BADGER",4,2,60,"preference"
"ssfOUT_60_0.5_4_BADGER.14",0.705251074486875,0.501115913404527,0.909386235569224,"ssf","mf.is","exp","vonmises",158,"ssfOUT_60_0.5_4_BADGER","BADGER",4,2,60,"preference"
"ssfOUT_60_0.5_4_BADGER.15",0.749022953999785,0.54443235302143,0.953613554978141,"ssf","mf.is","exp","vonmises",500,"ssfOUT_60_0.5_4_BADGER","BADGER",4,2,60,"preference"
"ssfOUT_60_0.5_4_BADGER.16",0.68060435782421,0.462560899629858,0.898647816018561,"ssf","mf.is","exp","unif",5,"ssfOUT_60_0.5_4_BADGER","BADGER",4,2,60,"preference"
"ssfOUT_60_0.5_4_BADGER.17",0.707724800251474,0.496257194703542,0.919192405799407,"ssf","mf.is","exp","unif",15,"ssfOUT_60_0.5_4_BADGER","BADGER",4,2,60,"preference"
"ssfOUT_60_0.5_4_BADGER.18",0.696650946642621,0.490182546994589,0.903119346290653,"ssf","mf.is","exp","unif",50,"ssfOUT_60_0.5_4_BADGER","BADGER",4,2,60,"preference"
"ssfOUT_60_0.5_4_BADGER.19",0.739681815784781,0.535250620374776,0.944113011194787,"ssf","mf.is","exp","unif",158,"ssfOUT_60_0.5_4_BADGER","BADGER",4,2,60,"preference"
"ssfOUT_60_0.5_4_BADGER.20",0.766499143537066,0.561753568414558,0.971244718659574,"ssf","mf.is","exp","unif",500,"ssfOUT_60_0.5_4_BADGER","BADGER",4,2,60,"preference"
"ssfOUT_60_0.5_4_BADGER.21",0.858349145373964,0.645035687607086,1.07166260314084,"ssf","mf.ss","gamma","vonmises",5,"ssfOUT_60_0.5_4_BADGER","BADGER",4,2,60,"preference"
"ssfOUT_60_0.5_4_BADGER.22",0.770685692689458,0.561557928141582,0.979813457237335,"ssf","mf.ss","gamma","vonmises",15,"ssfOUT_60_0.5_4_BADGER","BADGER",4,2,60,"preference"
"ssfOUT_60_0.5_4_BADGER.23",0.68618654990929,0.481418200096654,0.890954899721925,"ssf","mf.ss","gamma","vonmises",50,"ssfOUT_60_0.5_4_BADGER","BADGER",4,2,60,"preference"
"ssfOUT_60_0.5_4_BADGER.24",0.732579908947083,0.527846769620549,0.937313048273617,"ssf","mf.ss","gamma","vonmises",158,"ssfOUT_60_0.5_4_BADGER","BADGER",4,2,60,"preference"
"ssfOUT_60_0.5_4_BADGER.25",0.746911905686991,0.541142831899409,0.952680979474573,"ssf","mf.ss","gamma","vonmises",500,"ssfOUT_60_0.5_4_BADGER","BADGER",4,2,60,"preference"
"ssfOUT_60_0.5_4_BADGER.26",0.78134557386181,0.566912844999297,0.995778302724323,"ssf","mf.ss","gamma","unif",5,"ssfOUT_60_0.5_4_BADGER","BADGER",4,2,60,"preference"
"ssfOUT_60_0.5_4_BADGER.27",0.75873510017196,0.548443426139419,0.969026774204502,"ssf","mf.ss","gamma","unif",15,"ssfOUT_60_0.5_4_BADGER","BADGER",4,2,60,"preference"
"ssfOUT_60_0.5_4_BADGER.28",0.713475537989537,0.506284683192393,0.920666392786682,"ssf","mf.ss","gamma","unif",50,"ssfOUT_60_0.5_4_BADGER","BADGER",4,2,60,"preference"
"ssfOUT_60_0.5_4_BADGER.29",0.773459879410285,0.568579657321203,0.978340101499366,"ssf","mf.ss","gamma","unif",158,"ssfOUT_60_0.5_4_BADGER","BADGER",4,2,60,"preference"
"ssfOUT_60_0.5_4_BADGER.30",0.727946239208758,0.523225473108831,0.932667005308686,"ssf","mf.ss","gamma","unif",500,"ssfOUT_60_0.5_4_BADGER","BADGER",4,2,60,"preference"
"ssfOUT_60_0.5_4_BADGER.31",0.726140049904386,0.50238632872873,0.949893771080041,"ssf","mf.ss","exp","vonmises",5,"ssfOUT_60_0.5_4_BADGER","BADGER",4,2,60,"preference"
"ssfOUT_60_0.5_4_BADGER.32",0.762308851955607,0.554011924039205,0.97060577987201,"ssf","mf.ss","exp","vonmises",15,"ssfOUT_60_0.5_4_BADGER","BADGER",4,2,60,"preference"
"ssfOUT_60_0.5_4_BADGER.33",0.693519911588694,0.487885292534931,0.899154530642457,"ssf","mf.ss","exp","vonmises",50,"ssfOUT_60_0.5_4_BADGER","BADGER",4,2,60,"preference"
"ssfOUT_60_0.5_4_BADGER.34",0.703055270948878,0.499565564748045,0.906544977149712,"ssf","mf.ss","exp","vonmises",158,"ssfOUT_60_0.5_4_BADGER","BADGER",4,2,60,"preference"
"ssfOUT_60_0.5_4_BADGER.35",0.728155087510891,0.524576453267946,0.931733721753836,"ssf","mf.ss","exp","vonmises",500,"ssfOUT_60_0.5_4_BADGER","BADGER",4,2,60,"preference"
"ssfOUT_60_0.5_4_BADGER.36",0.692793757038075,0.473602086713679,0.911985427362471,"ssf","mf.ss","exp","unif",5,"ssfOUT_60_0.5_4_BADGER","BADGER",4,2,60,"preference"
"ssfOUT_60_0.5_4_BADGER.37",0.720058644884916,0.510660424596775,0.929456865173057,"ssf","mf.ss","exp","unif",15,"ssfOUT_60_0.5_4_BADGER","BADGER",4,2,60,"preference"
"ssfOUT_60_0.5_4_BADGER.38",0.702003524869017,0.496547715890085,0.907459333847949,"ssf","mf.ss","exp","unif",50,"ssfOUT_60_0.5_4_BADGER","BADGER",4,2,60,"preference"
"ssfOUT_60_0.5_4_BADGER.39",0.750246282738644,0.546518978036399,0.953973587440889,"ssf","mf.ss","exp","unif",158,"ssfOUT_60_0.5_4_BADGER","BADGER",4,2,60,"preference"
"ssfOUT_60_0.5_4_BADGER.40",0.754401691615285,0.550627623010261,0.958175760220309,"ssf","mf.ss","exp","unif",500,"ssfOUT_60_0.5_4_BADGER","BADGER",4,2,60,"preference"
"ssfOUT_60_0.5_4_VULTURE.1",0.165085603946291,0.0070983150963039,0.323072892796278,"ssf","mf.is","gamma","vonmises",5,"ssfOUT_60_0.5_4_VULTURE","VULTURE",4,2,60,"preference"
"ssfOUT_60_0.5_4_VULTURE.2",0.143326839212216,-0.00523183344043057,0.291885511864863,"ssf","mf.is","gamma","vonmises",15,"ssfOUT_60_0.5_4_VULTURE","VULTURE",4,2,60,"no effect"
"ssfOUT_60_0.5_4_VULTURE.3",0.0725612946546399,-0.0721683449866336,0.217290934295913,"ssf","mf.is","gamma","vonmises",50,"ssfOUT_60_0.5_4_VULTURE","VULTURE",4,2,60,"no effect"
"ssfOUT_60_0.5_4_VULTURE.4",0.0972973583615477,-0.0465369797966085,0.241131696519704,"ssf","mf.is","gamma","vonmises",158,"ssfOUT_60_0.5_4_VULTURE","VULTURE",4,2,60,"no effect"
"ssfOUT_60_0.5_4_VULTURE.5",0.0772587905837586,-0.0663820274032687,0.220899608570786,"ssf","mf.is","gamma","vonmises",500,"ssfOUT_60_0.5_4_VULTURE","VULTURE",4,2,60,"no effect"
"ssfOUT_60_0.5_4_VULTURE.6",0.13237430611001,-0.0236883881056462,0.288437000325667,"ssf","mf.is","gamma","unif",5,"ssfOUT_60_0.5_4_VULTURE","VULTURE",4,2,60,"no effect"
"ssfOUT_60_0.5_4_VULTURE.7",0.0620231951473537,-0.0862675243453337,0.210313914640041,"ssf","mf.is","gamma","unif",15,"ssfOUT_60_0.5_4_VULTURE","VULTURE",4,2,60,"no effect"
"ssfOUT_60_0.5_4_VULTURE.8",0.106784766767713,-0.0383456280417899,0.251915161577217,"ssf","mf.is","gamma","unif",50,"ssfOUT_60_0.5_4_VULTURE","VULTURE",4,2,60,"no effect"
"ssfOUT_60_0.5_4_VULTURE.9",0.0708812160887858,-0.0731385023175896,0.214900934495161,"ssf","mf.is","gamma","unif",158,"ssfOUT_60_0.5_4_VULTURE","VULTURE",4,2,60,"no effect"
"ssfOUT_60_0.5_4_VULTURE.10",0.073402499382518,-0.0700697161577189,0.216874714922755,"ssf","mf.is","gamma","unif",500,"ssfOUT_60_0.5_4_VULTURE","VULTURE",4,2,60,"no effect"
"ssfOUT_60_0.5_4_VULTURE.11",0.0471696966139115,-0.117021515785316,0.211360909013139,"ssf","mf.is","exp","vonmises",5,"ssfOUT_60_0.5_4_VULTURE","VULTURE",4,2,60,"no effect"
"ssfOUT_60_0.5_4_VULTURE.12",0.0981270416769868,-0.0509343140342127,0.247188397388186,"ssf","mf.is","exp","vonmises",15,"ssfOUT_60_0.5_4_VULTURE","VULTURE",4,2,60,"no effect"
"ssfOUT_60_0.5_4_VULTURE.13",0.0923642759692533,-0.0527569252062994,0.237485477144806,"ssf","mf.is","exp","vonmises",50,"ssfOUT_60_0.5_4_VULTURE","VULTURE",4,2,60,"no effect"
"ssfOUT_60_0.5_4_VULTURE.14",0.0850376568158393,-0.0587418199054614,0.22881713353714,"ssf","mf.is","exp","vonmises",158,"ssfOUT_60_0.5_4_VULTURE","VULTURE",4,2,60,"no effect"
"ssfOUT_60_0.5_4_VULTURE.15",0.0841957712553719,-0.0594409582657744,0.227832500776518,"ssf","mf.is","exp","vonmises",500,"ssfOUT_60_0.5_4_VULTURE","VULTURE",4,2,60,"no effect"
"ssfOUT_60_0.5_4_VULTURE.16",-0.0379356869712582,-0.200745160293279,0.124873786350763,"ssf","mf.is","exp","unif",5,"ssfOUT_60_0.5_4_VULTURE","VULTURE",4,2,60,"no effect"
"ssfOUT_60_0.5_4_VULTURE.17",0.17897515656304,0.0288388810909011,0.329111432035179,"ssf","mf.is","exp","unif",15,"ssfOUT_60_0.5_4_VULTURE","VULTURE",4,2,60,"preference"
"ssfOUT_60_0.5_4_VULTURE.18",0.105234950348199,-0.039903116561236,0.250373017257634,"ssf","mf.is","exp","unif",50,"ssfOUT_60_0.5_4_VULTURE","VULTURE",4,2,60,"no effect"
"ssfOUT_60_0.5_4_VULTURE.19",0.0816915738710488,-0.062138797589137,0.225521945331235,"ssf","mf.is","exp","unif",158,"ssfOUT_60_0.5_4_VULTURE","VULTURE",4,2,60,"no effect"
"ssfOUT_60_0.5_4_VULTURE.20",0.0739552203323315,-0.0693777030422294,0.217288143706892,"ssf","mf.is","exp","unif",500,"ssfOUT_60_0.5_4_VULTURE","VULTURE",4,2,60,"no effect"
"ssfOUT_60_0.5_4_VULTURE.21",0.166346103629845,0.00825504567596222,0.324437161583728,"ssf","mf.ss","gamma","vonmises",5,"ssfOUT_60_0.5_4_VULTURE","VULTURE",4,2,60,"preference"
"ssfOUT_60_0.5_4_VULTURE.22",0.143837166828624,-0.00471599765998373,0.292390331317232,"ssf","mf.ss","gamma","vonmises",15,"ssfOUT_60_0.5_4_VULTURE","VULTURE",4,2,60,"no effect"
"ssfOUT_60_0.5_4_VULTURE.23",0.0722314478204708,-0.0725147920629821,0.216977687703924,"ssf","mf.ss","gamma","vonmises",50,"ssfOUT_60_0.5_4_VULTURE","VULTURE",4,2,60,"no effect"
"ssfOUT_60_0.5_4_VULTURE.24",0.0969590490828902,-0.0469151552853375,0.240833253451118,"ssf","mf.ss","gamma","vonmises",158,"ssfOUT_60_0.5_4_VULTURE","VULTURE",4,2,60,"no effect"
"ssfOUT_60_0.5_4_VULTURE.25",0.0766624500231362,-0.0670273378350507,0.220352237881323,"ssf","mf.ss","gamma","vonmises",500,"ssfOUT_60_0.5_4_VULTURE","VULTURE",4,2,60,"no effect"
"ssfOUT_60_0.5_4_VULTURE.26",0.135150797579902,-0.0203304641298576,0.290632059289661,"ssf","mf.ss","gamma","unif",5,"ssfOUT_60_0.5_4_VULTURE","VULTURE",4,2,60,"no effect"
"ssfOUT_60_0.5_4_VULTURE.27",0.0642923321712263,-0.0835924470579385,0.212177111400391,"ssf","mf.ss","gamma","unif",15,"ssfOUT_60_0.5_4_VULTURE","VULTURE",4,2,60,"no effect"
"ssfOUT_60_0.5_4_VULTURE.28",0.106359124068415,-0.0385299284587498,0.25124817659558,"ssf","mf.ss","gamma","unif",50,"ssfOUT_60_0.5_4_VULTURE","VULTURE",4,2,60,"no effect"
"ssfOUT_60_0.5_4_VULTURE.29",0.0711154693638356,-0.0727700773492366,0.215001016076908,"ssf","mf.ss","gamma","unif",158,"ssfOUT_60_0.5_4_VULTURE","VULTURE",4,2,60,"no effect"
"ssfOUT_60_0.5_4_VULTURE.30",0.0724976657306782,-0.0708357774218403,0.215831108883197,"ssf","mf.ss","gamma","unif",500,"ssfOUT_60_0.5_4_VULTURE","VULTURE",4,2,60,"no effect"
"ssfOUT_60_0.5_4_VULTURE.31",0.0792533045395739,-0.0812780597460886,0.239784668825236,"ssf","mf.ss","exp","vonmises",5,"ssfOUT_60_0.5_4_VULTURE","VULTURE",4,2,60,"no effect"
"ssfOUT_60_0.5_4_VULTURE.32",0.146139038416283,-0.00211291424434962,0.294390991076916,"ssf","mf.ss","exp","vonmises",15,"ssfOUT_60_0.5_4_VULTURE","VULTURE",4,2,60,"no effect"
"ssfOUT_60_0.5_4_VULTURE.33",0.105314647291911,-0.0407865901134537,0.251415884697276,"ssf","mf.ss","exp","vonmises",50,"ssfOUT_60_0.5_4_VULTURE","VULTURE",4,2,60,"no effect"
"ssfOUT_60_0.5_4_VULTURE.34",0.109265190533617,-0.0356993718429602,0.254229752910194,"ssf","mf.ss","exp","vonmises",158,"ssfOUT_60_0.5_4_VULTURE","VULTURE",4,2,60,"no effect"
"ssfOUT_60_0.5_4_VULTURE.35",0.123756848566347,-0.0212354441550772,0.268749141287771,"ssf","mf.ss","exp","vonmises",500,"ssfOUT_60_0.5_4_VULTURE","VULTURE",4,2,60,"no effect"
"ssfOUT_60_0.5_4_VULTURE.36",0.045329594069061,-0.112617337955041,0.203276526093163,"ssf","mf.ss","exp","unif",5,"ssfOUT_60_0.5_4_VULTURE","VULTURE",4,2,60,"no effect"
"ssfOUT_60_0.5_4_VULTURE.37",0.197468207282252,0.0477432352225022,0.347193179342002,"ssf","mf.ss","exp","unif",15,"ssfOUT_60_0.5_4_VULTURE","VULTURE",4,2,60,"preference"
"ssfOUT_60_0.5_4_VULTURE.38",0.141909084999614,-0.00390716694278528,0.287725336942012,"ssf","mf.ss","exp","unif",50,"ssfOUT_60_0.5_4_VULTURE","VULTURE",4,2,60,"no effect"
"ssfOUT_60_0.5_4_VULTURE.39",0.122763077244396,-0.0221892795479236,0.267715434036715,"ssf","mf.ss","exp","unif",158,"ssfOUT_60_0.5_4_VULTURE","VULTURE",4,2,60,"no effect"
"ssfOUT_60_0.5_4_VULTURE.40",0.111135460513641,-0.033459889290131,0.255730810317414,"ssf","mf.ss","exp","unif",500,"ssfOUT_60_0.5_4_VULTURE","VULTURE",4,2,60,"no effect"
"ssfOUT_60_0.5_4_KINGCOBRA.1",0.432442284811581,0.0858600510808759,0.779024518542287,"ssf","mf.is","gamma","vonmises",5,"ssfOUT_60_0.5_4_KINGCOBRA","KINGCOBRA",4,2,60,"preference"
"ssfOUT_60_0.5_4_KINGCOBRA.2",0.474205225411512,0.134795506459849,0.813614944363174,"ssf","mf.is","gamma","vonmises",15,"ssfOUT_60_0.5_4_KINGCOBRA","KINGCOBRA",4,2,60,"preference"
"ssfOUT_60_0.5_4_KINGCOBRA.3",0.513840313818512,0.176978856570104,0.850701771066921,"ssf","mf.is","gamma","vonmises",50,"ssfOUT_60_0.5_4_KINGCOBRA","KINGCOBRA",4,2,60,"preference"
"ssfOUT_60_0.5_4_KINGCOBRA.4",0.552714193862773,0.217495460493825,0.887932927231722,"ssf","mf.is","gamma","vonmises",158,"ssfOUT_60_0.5_4_KINGCOBRA","KINGCOBRA",4,2,60,"preference"
"ssfOUT_60_0.5_4_KINGCOBRA.5",0.549920861233444,0.214008766012469,0.885832956454419,"ssf","mf.is","gamma","vonmises",500,"ssfOUT_60_0.5_4_KINGCOBRA","KINGCOBRA",4,2,60,"preference"
"ssfOUT_60_0.5_4_KINGCOBRA.6",0.579524884417245,0.231140144549983,0.927909624284508,"ssf","mf.is","gamma","unif",5,"ssfOUT_60_0.5_4_KINGCOBRA","KINGCOBRA",4,2,60,"preference"
"ssfOUT_60_0.5_4_KINGCOBRA.7",0.508576742791464,0.166011429311275,0.851142056271654,"ssf","mf.is","gamma","unif",15,"ssfOUT_60_0.5_4_KINGCOBRA","KINGCOBRA",4,2,60,"preference"
"ssfOUT_60_0.5_4_KINGCOBRA.8",0.553825241710404,0.214727850216806,0.892922633204003,"ssf","mf.is","gamma","unif",50,"ssfOUT_60_0.5_4_KINGCOBRA","KINGCOBRA",4,2,60,"preference"
"ssfOUT_60_0.5_4_KINGCOBRA.9",0.560592775414369,0.224670057428452,0.896515493400286,"ssf","mf.is","gamma","unif",158,"ssfOUT_60_0.5_4_KINGCOBRA","KINGCOBRA",4,2,60,"preference"
"ssfOUT_60_0.5_4_KINGCOBRA.10",0.549132026452171,0.21347321573699,0.884790837167352,"ssf","mf.is","gamma","unif",500,"ssfOUT_60_0.5_4_KINGCOBRA","KINGCOBRA",4,2,60,"preference"
"ssfOUT_60_0.5_4_KINGCOBRA.11",0.760086623047404,0.37611773120485,1.14405551488996,"ssf","mf.is","exp","vonmises",5,"ssfOUT_60_0.5_4_KINGCOBRA","KINGCOBRA",4,2,60,"preference"
"ssfOUT_60_0.5_4_KINGCOBRA.12",0.635621317484643,0.287088096258244,0.984154538711043,"ssf","mf.is","exp","vonmises",15,"ssfOUT_60_0.5_4_KINGCOBRA","KINGCOBRA",4,2,60,"preference"
"ssfOUT_60_0.5_4_KINGCOBRA.13",0.627633268977694,0.290305471060543,0.964961066894846,"ssf","mf.is","exp","vonmises",50,"ssfOUT_60_0.5_4_KINGCOBRA","KINGCOBRA",4,2,60,"preference"
"ssfOUT_60_0.5_4_KINGCOBRA.14",0.685918249287656,0.336287857921845,1.03554864065347,"ssf","mf.is","exp","vonmises",158,"ssfOUT_60_0.5_4_KINGCOBRA","KINGCOBRA",4,2,60,"preference"
"ssfOUT_60_0.5_4_KINGCOBRA.15",0.560699995309106,0.221611369547008,0.899788621071203,"ssf","mf.is","exp","vonmises",500,"ssfOUT_60_0.5_4_KINGCOBRA","KINGCOBRA",4,2,60,"preference"
"ssfOUT_60_0.5_4_KINGCOBRA.16",0.812239891019099,0.451841562842923,1.17263821919527,"ssf","mf.is","exp","unif",5,"ssfOUT_60_0.5_4_KINGCOBRA","KINGCOBRA",4,2,60,"preference"
"ssfOUT_60_0.5_4_KINGCOBRA.17",0.661273827172086,0.30704752770083,1.01550012664334,"ssf","mf.is","exp","unif",15,"ssfOUT_60_0.5_4_KINGCOBRA","KINGCOBRA",4,2,60,"preference"
"ssfOUT_60_0.5_4_KINGCOBRA.18",0.544626102091214,0.202801759072529,0.886450445109898,"ssf","mf.is","exp","unif",50,"ssfOUT_60_0.5_4_KINGCOBRA","KINGCOBRA",4,2,60,"preference"
"ssfOUT_60_0.5_4_KINGCOBRA.19",0.695118816569613,0.342758246358888,1.04747938678034,"ssf","mf.is","exp","unif",158,"ssfOUT_60_0.5_4_KINGCOBRA","KINGCOBRA",4,2,60,"preference"
"ssfOUT_60_0.5_4_KINGCOBRA.20",0.688138452070876,0.339738221738076,1.03653868240367,"ssf","mf.is","exp","unif",500,"ssfOUT_60_0.5_4_KINGCOBRA","KINGCOBRA",4,2,60,"preference"
"ssfOUT_60_0.5_4_KINGCOBRA.21",0.430615847710762,0.0848204329099045,0.776411262511619,"ssf","mf.ss","gamma","vonmises",5,"ssfOUT_60_0.5_4_KINGCOBRA","KINGCOBRA",4,2,60,"preference"
"ssfOUT_60_0.5_4_KINGCOBRA.22",0.46016728801816,0.120848718228892,0.799485857807429,"ssf","mf.ss","gamma","vonmises",15,"ssfOUT_60_0.5_4_KINGCOBRA","KINGCOBRA",4,2,60,"preference"
"ssfOUT_60_0.5_4_KINGCOBRA.23",0.508027241233999,0.171243075010571,0.844811407457426,"ssf","mf.ss","gamma","vonmises",50,"ssfOUT_60_0.5_4_KINGCOBRA","KINGCOBRA",4,2,60,"preference"
"ssfOUT_60_0.5_4_KINGCOBRA.24",0.545315521691891,0.210406609289395,0.880224434094387,"ssf","mf.ss","gamma","vonmises",158,"ssfOUT_60_0.5_4_KINGCOBRA","KINGCOBRA",4,2,60,"preference"
"ssfOUT_60_0.5_4_KINGCOBRA.25",0.545589375439487,0.209970610880504,0.881208139998471,"ssf","mf.ss","gamma","vonmises",500,"ssfOUT_60_0.5_4_KINGCOBRA","KINGCOBRA",4,2,60,"preference"
"ssfOUT_60_0.5_4_KINGCOBRA.26",0.565899029852926,0.218331288382736,0.913466771323115,"ssf","mf.ss","gamma","unif",5,"ssfOUT_60_0.5_4_KINGCOBRA","KINGCOBRA",4,2,60,"preference"
"ssfOUT_60_0.5_4_KINGCOBRA.27",0.503172362738892,0.161113974435545,0.845230751042239,"ssf","mf.ss","gamma","unif",15,"ssfOUT_60_0.5_4_KINGCOBRA","KINGCOBRA",4,2,60,"preference"
"ssfOUT_60_0.5_4_KINGCOBRA.28",0.552764090194519,0.214145785486593,0.891382394902445,"ssf","mf.ss","gamma","unif",50,"ssfOUT_60_0.5_4_KINGCOBRA","KINGCOBRA",4,2,60,"preference"
"ssfOUT_60_0.5_4_KINGCOBRA.29",0.561186959927717,0.225640075928998,0.896733843926435,"ssf","mf.ss","gamma","unif",158,"ssfOUT_60_0.5_4_KINGCOBRA","KINGCOBRA",4,2,60,"preference"
"ssfOUT_60_0.5_4_KINGCOBRA.30",0.548071189776655,0.212810048355661,0.883332331197649,"ssf","mf.ss","gamma","unif",500,"ssfOUT_60_0.5_4_KINGCOBRA","KINGCOBRA",4,2,60,"preference"
"ssfOUT_60_0.5_4_KINGCOBRA.31",0.137098999797603,-0.214725769381791,0.488923768976998,"ssf","mf.ss","exp","vonmises",5,"ssfOUT_60_0.5_4_KINGCOBRA","KINGCOBRA",4,2,60,"no effect"
"ssfOUT_60_0.5_4_KINGCOBRA.32",0.193417628514473,-0.146905600168543,0.533740857197489,"ssf","mf.ss","exp","vonmises",15,"ssfOUT_60_0.5_4_KINGCOBRA","KINGCOBRA",4,2,60,"no effect"
"ssfOUT_60_0.5_4_KINGCOBRA.33",0.153663517673183,-0.178871864524534,0.486198899870899,"ssf","mf.ss","exp","vonmises",50,"ssfOUT_60_0.5_4_KINGCOBRA","KINGCOBRA",4,2,60,"no effect"
"ssfOUT_60_0.5_4_KINGCOBRA.34",0.172868139451064,-0.160388970123298,0.506125249025426,"ssf","mf.ss","exp","vonmises",158,"ssfOUT_60_0.5_4_KINGCOBRA","KINGCOBRA",4,2,60,"no effect"
"ssfOUT_60_0.5_4_KINGCOBRA.35",0.180853945343321,-0.151951257126023,0.513659147812666,"ssf","mf.ss","exp","vonmises",500,"ssfOUT_60_0.5_4_KINGCOBRA","KINGCOBRA",4,2,60,"no effect"
"ssfOUT_60_0.5_4_KINGCOBRA.36",0.403413363954291,0.0558678387774251,0.750958889131157,"ssf","mf.ss","exp","unif",5,"ssfOUT_60_0.5_4_KINGCOBRA","KINGCOBRA",4,2,60,"preference"
"ssfOUT_60_0.5_4_KINGCOBRA.37",0.0860286360116389,-0.252083023603725,0.424140295627003,"ssf","mf.ss","exp","unif",15,"ssfOUT_60_0.5_4_KINGCOBRA","KINGCOBRA",4,2,60,"no effect"
"ssfOUT_60_0.5_4_KINGCOBRA.38",0.213331943323613,-0.120221585043057,0.546885471690283,"ssf","mf.ss","exp","unif",50,"ssfOUT_60_0.5_4_KINGCOBRA","KINGCOBRA",4,2,60,"no effect"
"ssfOUT_60_0.5_4_KINGCOBRA.39",0.185987349659454,-0.146344123044143,0.518318822363051,"ssf","mf.ss","exp","unif",158,"ssfOUT_60_0.5_4_KINGCOBRA","KINGCOBRA",4,2,60,"no effect"
"ssfOUT_60_0.5_4_KINGCOBRA.40",0.194054060172008,-0.138786551607197,0.526894671951212,"ssf","mf.ss","exp","unif",500,"ssfOUT_60_0.5_4_KINGCOBRA","KINGCOBRA",4,2,60,"no effect"
"ssfOUT_60_1_1_BADGER.1",0.577417297152547,0.110816556914145,1.04401803739095,"ssf","mf.is","gamma","vonmises",5,"ssfOUT_60_1_1_BADGER","BADGER",1,1,60,"preference"
"ssfOUT_60_1_1_BADGER.2",0.450272272778122,0.0095150909330517,0.891029454623193,"ssf","mf.is","gamma","vonmises",15,"ssfOUT_60_1_1_BADGER","BADGER",1,1,60,"preference"
"ssfOUT_60_1_1_BADGER.3",0.734183575064173,0.303556224779704,1.16481092534864,"ssf","mf.is","gamma","vonmises",50,"ssfOUT_60_1_1_BADGER","BADGER",1,1,60,"preference"
"ssfOUT_60_1_1_BADGER.4",0.654072483971039,0.224119675521448,1.08402529242063,"ssf","mf.is","gamma","vonmises",158,"ssfOUT_60_1_1_BADGER","BADGER",1,1,60,"preference"
"ssfOUT_60_1_1_BADGER.5",0.664676003078721,0.235778165260223,1.09357384089722,"ssf","mf.is","gamma","vonmises",500,"ssfOUT_60_1_1_BADGER","BADGER",1,1,60,"preference"
"ssfOUT_60_1_1_BADGER.6",0.619578179137885,0.173562587881454,1.06559377039432,"ssf","mf.is","gamma","unif",5,"ssfOUT_60_1_1_BADGER","BADGER",1,1,60,"preference"
"ssfOUT_60_1_1_BADGER.7",0.446810537917257,0.00142508487976972,0.892195990954743,"ssf","mf.is","gamma","unif",15,"ssfOUT_60_1_1_BADGER","BADGER",1,1,60,"preference"
"ssfOUT_60_1_1_BADGER.8",0.621343618482496,0.18852091130845,1.05416632565654,"ssf","mf.is","gamma","unif",50,"ssfOUT_60_1_1_BADGER","BADGER",1,1,60,"preference"
"ssfOUT_60_1_1_BADGER.9",0.606169041571675,0.175582525123519,1.03675555801983,"ssf","mf.is","gamma","unif",158,"ssfOUT_60_1_1_BADGER","BADGER",1,1,60,"preference"
"ssfOUT_60_1_1_BADGER.10",0.649816911054351,0.22090302948894,1.07873079261976,"ssf","mf.is","gamma","unif",500,"ssfOUT_60_1_1_BADGER","BADGER",1,1,60,"preference"
"ssfOUT_60_1_1_BADGER.11",0.687624108194891,0.221957968407528,1.15329024798225,"ssf","mf.is","exp","vonmises",5,"ssfOUT_60_1_1_BADGER","BADGER",1,1,60,"preference"
"ssfOUT_60_1_1_BADGER.12",0.535184731660602,0.0889855643435908,0.981383898977613,"ssf","mf.is","exp","vonmises",15,"ssfOUT_60_1_1_BADGER","BADGER",1,1,60,"preference"
"ssfOUT_60_1_1_BADGER.13",0.635702518247003,0.203854193581613,1.06755084291239,"ssf","mf.is","exp","vonmises",50,"ssfOUT_60_1_1_BADGER","BADGER",1,1,60,"preference"
"ssfOUT_60_1_1_BADGER.14",0.655543238116415,0.22692738271271,1.08415909352012,"ssf","mf.is","exp","vonmises",158,"ssfOUT_60_1_1_BADGER","BADGER",1,1,60,"preference"
"ssfOUT_60_1_1_BADGER.15",0.648164261425652,0.219427639695267,1.07690088315604,"ssf","mf.is","exp","vonmises",500,"ssfOUT_60_1_1_BADGER","BADGER",1,1,60,"preference"
"ssfOUT_60_1_1_BADGER.16",0.642490303108289,0.169277886883027,1.11570271933355,"ssf","mf.is","exp","unif",5,"ssfOUT_60_1_1_BADGER","BADGER",1,1,60,"preference"
"ssfOUT_60_1_1_BADGER.17",0.618785528292376,0.181540236973749,1.056030819611,"ssf","mf.is","exp","unif",15,"ssfOUT_60_1_1_BADGER","BADGER",1,1,60,"preference"
"ssfOUT_60_1_1_BADGER.18",0.644331913474796,0.210660116259142,1.07800371069045,"ssf","mf.is","exp","unif",50,"ssfOUT_60_1_1_BADGER","BADGER",1,1,60,"preference"
"ssfOUT_60_1_1_BADGER.19",0.637919940081469,0.20737388546994,1.068465994693,"ssf","mf.is","exp","unif",158,"ssfOUT_60_1_1_BADGER","BADGER",1,1,60,"preference"
"ssfOUT_60_1_1_BADGER.20",0.668265549939011,0.238751153361465,1.09777994651656,"ssf","mf.is","exp","unif",500,"ssfOUT_60_1_1_BADGER","BADGER",1,1,60,"preference"
"ssfOUT_60_1_1_BADGER.21",0.563172114890861,0.0967598014892808,1.02958442829244,"ssf","mf.ss","gamma","vonmises",5,"ssfOUT_60_1_1_BADGER","BADGER",1,1,60,"preference"
"ssfOUT_60_1_1_BADGER.22",0.438334285683715,-0.00291213357205533,0.879580704939486,"ssf","mf.ss","gamma","vonmises",15,"ssfOUT_60_1_1_BADGER","BADGER",1,1,60,"no effect"
"ssfOUT_60_1_1_BADGER.23",0.727699867504689,0.296999162725953,1.15840057228342,"ssf","mf.ss","gamma","vonmises",50,"ssfOUT_60_1_1_BADGER","BADGER",1,1,60,"preference"
"ssfOUT_60_1_1_BADGER.24",0.647781694400967,0.217786795527631,1.0777765932743,"ssf","mf.ss","gamma","vonmises",158,"ssfOUT_60_1_1_BADGER","BADGER",1,1,60,"preference"
"ssfOUT_60_1_1_BADGER.25",0.659999867901629,0.231236677270271,1.08876305853299,"ssf","mf.ss","gamma","vonmises",500,"ssfOUT_60_1_1_BADGER","BADGER",1,1,60,"preference"
"ssfOUT_60_1_1_BADGER.26",0.607894245774746,0.16156924784364,1.05421924370585,"ssf","mf.ss","gamma","unif",5,"ssfOUT_60_1_1_BADGER","BADGER",1,1,60,"preference"
"ssfOUT_60_1_1_BADGER.27",0.440826989756638,-0.00475427599231915,0.886408255505596,"ssf","mf.ss","gamma","unif",15,"ssfOUT_60_1_1_BADGER","BADGER",1,1,60,"no effect"
"ssfOUT_60_1_1_BADGER.28",0.619220348885986,0.186554797299324,1.05188590047265,"ssf","mf.ss","gamma","unif",50,"ssfOUT_60_1_1_BADGER","BADGER",1,1,60,"preference"
"ssfOUT_60_1_1_BADGER.29",0.604630905063844,0.174207136535308,1.03505467359238,"ssf","mf.ss","gamma","unif",158,"ssfOUT_60_1_1_BADGER","BADGER",1,1,60,"preference"
"ssfOUT_60_1_1_BADGER.30",0.648003295724959,0.219266201135359,1.07674039031456,"ssf","mf.ss","gamma","unif",500,"ssfOUT_60_1_1_BADGER","BADGER",1,1,60,"preference"
"ssfOUT_60_1_1_BADGER.31",0.587792427982438,0.127918585566254,1.04766627039862,"ssf","mf.ss","exp","vonmises",5,"ssfOUT_60_1_1_BADGER","BADGER",1,1,60,"preference"
"ssfOUT_60_1_1_BADGER.32",0.522578217713027,0.0771085331368959,0.968047902289159,"ssf","mf.ss","exp","vonmises",15,"ssfOUT_60_1_1_BADGER","BADGER",1,1,60,"preference"
"ssfOUT_60_1_1_BADGER.33",0.646412872311373,0.215033233760041,1.07779251086271,"ssf","mf.ss","exp","vonmises",50,"ssfOUT_60_1_1_BADGER","BADGER",1,1,60,"preference"
"ssfOUT_60_1_1_BADGER.34",0.591961188462786,0.163869409758769,1.0200529671668,"ssf","mf.ss","exp","vonmises",158,"ssfOUT_60_1_1_BADGER","BADGER",1,1,60,"preference"
"ssfOUT_60_1_1_BADGER.35",0.601270557188722,0.173371229930501,1.02916988444694,"ssf","mf.ss","exp","vonmises",500,"ssfOUT_60_1_1_BADGER","BADGER",1,1,60,"preference"
"ssfOUT_60_1_1_BADGER.36",0.557139026726094,0.0929212155046426,1.02135683794755,"ssf","mf.ss","exp","unif",5,"ssfOUT_60_1_1_BADGER","BADGER",1,1,60,"preference"
"ssfOUT_60_1_1_BADGER.37",0.564764293053471,0.130073899357032,0.99945468674991,"ssf","mf.ss","exp","unif",15,"ssfOUT_60_1_1_BADGER","BADGER",1,1,60,"preference"
"ssfOUT_60_1_1_BADGER.38",0.618248328874679,0.187197584478403,1.04929907327095,"ssf","mf.ss","exp","unif",50,"ssfOUT_60_1_1_BADGER","BADGER",1,1,60,"preference"
"ssfOUT_60_1_1_BADGER.39",0.594596751078775,0.165274105084045,1.02391939707351,"ssf","mf.ss","exp","unif",158,"ssfOUT_60_1_1_BADGER","BADGER",1,1,60,"preference"
"ssfOUT_60_1_1_BADGER.40",0.611658071313934,0.183101646827276,1.04021449580059,"ssf","mf.ss","exp","unif",500,"ssfOUT_60_1_1_BADGER","BADGER",1,1,60,"preference"
"ssfOUT_60_1_1_VULTURE.1",0.398697470630805,0.084435084385331,0.712959856876279,"ssf","mf.is","gamma","vonmises",5,"ssfOUT_60_1_1_VULTURE","VULTURE",1,1,60,"preference"
"ssfOUT_60_1_1_VULTURE.2",0.390172415119574,0.0894160130365085,0.69092881720264,"ssf","mf.is","gamma","vonmises",15,"ssfOUT_60_1_1_VULTURE","VULTURE",1,1,60,"preference"
"ssfOUT_60_1_1_VULTURE.3",0.295855520120244,0.000932187126032435,0.590778853114456,"ssf","mf.is","gamma","vonmises",50,"ssfOUT_60_1_1_VULTURE","VULTURE",1,1,60,"preference"
"ssfOUT_60_1_1_VULTURE.4",0.30517447912499,0.0124905864127274,0.597858371837253,"ssf","mf.is","gamma","vonmises",158,"ssfOUT_60_1_1_VULTURE","VULTURE",1,1,60,"preference"
"ssfOUT_60_1_1_VULTURE.5",0.313204730304834,0.0207190269156555,0.605690433694013,"ssf","mf.is","gamma","vonmises",500,"ssfOUT_60_1_1_VULTURE","VULTURE",1,1,60,"preference"
"ssfOUT_60_1_1_VULTURE.6",0.400780030311433,0.0733292117911271,0.728230848831738,"ssf","mf.is","gamma","unif",5,"ssfOUT_60_1_1_VULTURE","VULTURE",1,1,60,"preference"
"ssfOUT_60_1_1_VULTURE.7",0.454814662997063,0.155774288403079,0.753855037591047,"ssf","mf.is","gamma","unif",15,"ssfOUT_60_1_1_VULTURE","VULTURE",1,1,60,"preference"
"ssfOUT_60_1_1_VULTURE.8",0.276340494333431,-0.0171857592919242,0.569866747958786,"ssf","mf.is","gamma","unif",50,"ssfOUT_60_1_1_VULTURE","VULTURE",1,1,60,"no effect"
"ssfOUT_60_1_1_VULTURE.9",0.304960163335924,0.0121422175175571,0.597778109154291,"ssf","mf.is","gamma","unif",158,"ssfOUT_60_1_1_VULTURE","VULTURE",1,1,60,"preference"
"ssfOUT_60_1_1_VULTURE.10",0.307051939007273,0.0144339190819608,0.599669958932585,"ssf","mf.is","gamma","unif",500,"ssfOUT_60_1_1_VULTURE","VULTURE",1,1,60,"preference"
"ssfOUT_60_1_1_VULTURE.11",0.234442198591018,-0.0859329021530392,0.554817299335075,"ssf","mf.is","exp","vonmises",5,"ssfOUT_60_1_1_VULTURE","VULTURE",1,1,60,"no effect"
"ssfOUT_60_1_1_VULTURE.12",0.34288673397524,0.0418149251705243,0.643958542779957,"ssf","mf.is","exp","vonmises",15,"ssfOUT_60_1_1_VULTURE","VULTURE",1,1,60,"preference"
"ssfOUT_60_1_1_VULTURE.13",0.270204970802725,-0.0266929209278843,0.567102862533333,"ssf","mf.is","exp","vonmises",50,"ssfOUT_60_1_1_VULTURE","VULTURE",1,1,60,"no effect"
"ssfOUT_60_1_1_VULTURE.14",0.304623993575392,0.0116170575506583,0.597630929600126,"ssf","mf.is","exp","vonmises",158,"ssfOUT_60_1_1_VULTURE","VULTURE",1,1,60,"preference"
"ssfOUT_60_1_1_VULTURE.15",0.279681275117874,-0.0125608162264625,0.57192336646221,"ssf","mf.is","exp","vonmises",500,"ssfOUT_60_1_1_VULTURE","VULTURE",1,1,60,"no effect"
"ssfOUT_60_1_1_VULTURE.16",0.319199596173881,-0.005989024170996,0.644388216518758,"ssf","mf.is","exp","unif",5,"ssfOUT_60_1_1_VULTURE","VULTURE",1,1,60,"no effect"
"ssfOUT_60_1_1_VULTURE.17",0.306273525605143,8.60826792849489e-05,0.612460968531001,"ssf","mf.is","exp","unif",15,"ssfOUT_60_1_1_VULTURE","VULTURE",1,1,60,"preference"
"ssfOUT_60_1_1_VULTURE.18",0.261434545603029,-0.0350097244155225,0.557878815621581,"ssf","mf.is","exp","unif",50,"ssfOUT_60_1_1_VULTURE","VULTURE",1,1,60,"no effect"
"ssfOUT_60_1_1_VULTURE.19",0.309095150551661,0.0152509193726276,0.602939381730695,"ssf","mf.is","exp","unif",158,"ssfOUT_60_1_1_VULTURE","VULTURE",1,1,60,"preference"
"ssfOUT_60_1_1_VULTURE.20",0.265154924477488,-0.0278739810488562,0.558183830003831,"ssf","mf.is","exp","unif",500,"ssfOUT_60_1_1_VULTURE","VULTURE",1,1,60,"no effect"
"ssfOUT_60_1_1_VULTURE.21",0.393567637379556,0.0794518854219846,0.707683389337127,"ssf","mf.ss","gamma","vonmises",5,"ssfOUT_60_1_1_VULTURE","VULTURE",1,1,60,"preference"
"ssfOUT_60_1_1_VULTURE.22",0.383879169543595,0.083125412178919,0.684632926908271,"ssf","mf.ss","gamma","vonmises",15,"ssfOUT_60_1_1_VULTURE","VULTURE",1,1,60,"preference"
"ssfOUT_60_1_1_VULTURE.23",0.293202941489859,-0.00185954467320842,0.588265427652927,"ssf","mf.ss","gamma","vonmises",50,"ssfOUT_60_1_1_VULTURE","VULTURE",1,1,60,"no effect"
"ssfOUT_60_1_1_VULTURE.24",0.302923264247755,0.0100936791156156,0.595752849379895,"ssf","mf.ss","gamma","vonmises",158,"ssfOUT_60_1_1_VULTURE","VULTURE",1,1,60,"preference"
"ssfOUT_60_1_1_VULTURE.25",0.310982013040883,0.0182673586787221,0.603696667403044,"ssf","mf.ss","gamma","vonmises",500,"ssfOUT_60_1_1_VULTURE","VULTURE",1,1,60,"preference"
"ssfOUT_60_1_1_VULTURE.26",0.402044442505883,0.0744139992616147,0.729674885750151,"ssf","mf.ss","gamma","unif",5,"ssfOUT_60_1_1_VULTURE","VULTURE",1,1,60,"preference"
"ssfOUT_60_1_1_VULTURE.27",0.453843922683033,0.154679745214519,0.753008100151547,"ssf","mf.ss","gamma","unif",15,"ssfOUT_60_1_1_VULTURE","VULTURE",1,1,60,"preference"
"ssfOUT_60_1_1_VULTURE.28",0.273603507614372,-0.0200978221183388,0.567304837347083,"ssf","mf.ss","gamma","unif",50,"ssfOUT_60_1_1_VULTURE","VULTURE",1,1,60,"no effect"
"ssfOUT_60_1_1_VULTURE.29",0.303644813702286,0.0106740935534917,0.59661553385108,"ssf","mf.ss","gamma","unif",158,"ssfOUT_60_1_1_VULTURE","VULTURE",1,1,60,"preference"
"ssfOUT_60_1_1_VULTURE.30",0.306001811660563,0.0132146385222078,0.598788984798917,"ssf","mf.ss","gamma","unif",500,"ssfOUT_60_1_1_VULTURE","VULTURE",1,1,60,"preference"
"ssfOUT_60_1_1_VULTURE.31",0.266835100859507,-0.0471359025007704,0.580806104219785,"ssf","mf.ss","exp","vonmises",5,"ssfOUT_60_1_1_VULTURE","VULTURE",1,1,60,"no effect"
"ssfOUT_60_1_1_VULTURE.32",0.321348637267377,0.020625202848813,0.622072071685941,"ssf","mf.ss","exp","vonmises",15,"ssfOUT_60_1_1_VULTURE","VULTURE",1,1,60,"preference"
"ssfOUT_60_1_1_VULTURE.33",0.32278810186526,0.0245075386331148,0.621068665097406,"ssf","mf.ss","exp","vonmises",50,"ssfOUT_60_1_1_VULTURE","VULTURE",1,1,60,"preference"
"ssfOUT_60_1_1_VULTURE.34",0.335169286696422,0.0411403247083598,0.629198248684485,"ssf","mf.ss","exp","vonmises",158,"ssfOUT_60_1_1_VULTURE","VULTURE",1,1,60,"preference"
"ssfOUT_60_1_1_VULTURE.35",0.297702898375381,0.00358064565997473,0.591825151090787,"ssf","mf.ss","exp","vonmises",500,"ssfOUT_60_1_1_VULTURE","VULTURE",1,1,60,"preference"
"ssfOUT_60_1_1_VULTURE.36",0.270169557934972,-0.0478890896400683,0.588228205510011,"ssf","mf.ss","exp","unif",5,"ssfOUT_60_1_1_VULTURE","VULTURE",1,1,60,"no effect"
"ssfOUT_60_1_1_VULTURE.37",0.335093582610094,0.0312248770538135,0.638962288166375,"ssf","mf.ss","exp","unif",15,"ssfOUT_60_1_1_VULTURE","VULTURE",1,1,60,"preference"
"ssfOUT_60_1_1_VULTURE.38",0.284269166601946,-0.0142428633033929,0.582781196507284,"ssf","mf.ss","exp","unif",50,"ssfOUT_60_1_1_VULTURE","VULTURE",1,1,60,"no effect"
"ssfOUT_60_1_1_VULTURE.39",0.322173868372051,0.0269985242312378,0.617349212512863,"ssf","mf.ss","exp","unif",158,"ssfOUT_60_1_1_VULTURE","VULTURE",1,1,60,"preference"
"ssfOUT_60_1_1_VULTURE.40",0.294906531179343,0.000488069096155841,0.589324993262531,"ssf","mf.ss","exp","unif",500,"ssfOUT_60_1_1_VULTURE","VULTURE",1,1,60,"preference"
"ssfOUT_60_1_1_KINGCOBRA.1",0.448791719684077,-0.0570402760186484,0.954623715386802,"ssf","mf.is","gamma","vonmises",5,"ssfOUT_60_1_1_KINGCOBRA","KINGCOBRA",1,1,60,"no effect"
"ssfOUT_60_1_1_KINGCOBRA.2",0.459919960452148,-0.0342271639327337,0.954067084837029,"ssf","mf.is","gamma","vonmises",15,"ssfOUT_60_1_1_KINGCOBRA","KINGCOBRA",1,1,60,"no effect"
"ssfOUT_60_1_1_KINGCOBRA.3",0.467644053990064,-0.00850592696246089,0.943794034942589,"ssf","mf.is","gamma","vonmises",50,"ssfOUT_60_1_1_KINGCOBRA","KINGCOBRA",1,1,60,"no effect"
"ssfOUT_60_1_1_KINGCOBRA.4",0.521221815009271,0.0415197198478219,1.00092391017072,"ssf","mf.is","gamma","vonmises",158,"ssfOUT_60_1_1_KINGCOBRA","KINGCOBRA",1,1,60,"preference"
"ssfOUT_60_1_1_KINGCOBRA.5",0.537007488602975,0.0573454345393883,1.01666954266656,"ssf","mf.is","gamma","vonmises",500,"ssfOUT_60_1_1_KINGCOBRA","KINGCOBRA",1,1,60,"preference"
"ssfOUT_60_1_1_KINGCOBRA.6",0.68827409609009,0.207084653140611,1.16946353903957,"ssf","mf.is","gamma","unif",5,"ssfOUT_60_1_1_KINGCOBRA","KINGCOBRA",1,1,60,"preference"
"ssfOUT_60_1_1_KINGCOBRA.7",0.530451163686264,0.0327298244207028,1.02817250295182,"ssf","mf.is","gamma","unif",15,"ssfOUT_60_1_1_KINGCOBRA","KINGCOBRA",1,1,60,"preference"
"ssfOUT_60_1_1_KINGCOBRA.8",0.506241436531317,0.0183153980692834,0.994167474993352,"ssf","mf.is","gamma","unif",50,"ssfOUT_60_1_1_KINGCOBRA","KINGCOBRA",1,1,60,"preference"
"ssfOUT_60_1_1_KINGCOBRA.9",0.456872677204423,-0.0230205834030174,0.936765937811864,"ssf","mf.is","gamma","unif",158,"ssfOUT_60_1_1_KINGCOBRA","KINGCOBRA",1,1,60,"no effect"
"ssfOUT_60_1_1_KINGCOBRA.10",0.503137383489805,0.0231904842049627,0.983084282774648,"ssf","mf.is","gamma","unif",500,"ssfOUT_60_1_1_KINGCOBRA","KINGCOBRA",1,1,60,"preference"
"ssfOUT_60_1_1_KINGCOBRA.11",0.416756814847605,-0.166070386386306,0.999584016081516,"ssf","mf.is","exp","vonmises",5,"ssfOUT_60_1_1_KINGCOBRA","KINGCOBRA",1,1,60,"no effect"
"ssfOUT_60_1_1_KINGCOBRA.12",0.50296623168444,-0.0185191538630822,1.02445161723196,"ssf","mf.is","exp","vonmises",15,"ssfOUT_60_1_1_KINGCOBRA","KINGCOBRA",1,1,60,"no effect"
"ssfOUT_60_1_1_KINGCOBRA.13",0.299502782807265,-0.233696991497606,0.832702557112136,"ssf","mf.is","exp","vonmises",50,"ssfOUT_60_1_1_KINGCOBRA","KINGCOBRA",1,1,60,"no effect"
"ssfOUT_60_1_1_KINGCOBRA.14",0.701564066918168,0.17896634096171,1.22416179287463,"ssf","mf.is","exp","vonmises",158,"ssfOUT_60_1_1_KINGCOBRA","KINGCOBRA",1,1,60,"preference"
"ssfOUT_60_1_1_KINGCOBRA.15",0.433190666352866,-0.0494164392952361,0.915797772000967,"ssf","mf.is","exp","vonmises",500,"ssfOUT_60_1_1_KINGCOBRA","KINGCOBRA",1,1,60,"no effect"
"ssfOUT_60_1_1_KINGCOBRA.16",0.121477659187571,-0.430665074683093,0.673620393058234,"ssf","mf.is","exp","unif",5,"ssfOUT_60_1_1_KINGCOBRA","KINGCOBRA",1,1,60,"no effect"
"ssfOUT_60_1_1_KINGCOBRA.17",0.47417421143774,-0.0306469033716931,0.978995326247173,"ssf","mf.is","exp","unif",15,"ssfOUT_60_1_1_KINGCOBRA","KINGCOBRA",1,1,60,"no effect"
"ssfOUT_60_1_1_KINGCOBRA.18",0.25237620845844,-0.224223896478451,0.72897631339533,"ssf","mf.is","exp","unif",50,"ssfOUT_60_1_1_KINGCOBRA","KINGCOBRA",1,1,60,"no effect"
"ssfOUT_60_1_1_KINGCOBRA.19",0.30586318268957,-0.180064576327456,0.791790941706596,"ssf","mf.is","exp","unif",158,"ssfOUT_60_1_1_KINGCOBRA","KINGCOBRA",1,1,60,"no effect"
"ssfOUT_60_1_1_KINGCOBRA.20",0.465844199254805,-0.0302107134529339,0.961899111962545,"ssf","mf.is","exp","unif",500,"ssfOUT_60_1_1_KINGCOBRA","KINGCOBRA",1,1,60,"no effect"
"ssfOUT_60_1_1_KINGCOBRA.21",0.642322175248777,0.121116801991952,1.1635275485056,"ssf","mf.ss","gamma","vonmises",5,"ssfOUT_60_1_1_KINGCOBRA","KINGCOBRA",1,1,60,"preference"
"ssfOUT_60_1_1_KINGCOBRA.22",0.631808762307343,0.1314171221217,1.13220040249299,"ssf","mf.ss","gamma","vonmises",15,"ssfOUT_60_1_1_KINGCOBRA","KINGCOBRA",1,1,60,"preference"
"ssfOUT_60_1_1_KINGCOBRA.23",0.629733011736728,0.142171465454452,1.117294558019,"ssf","mf.ss","gamma","vonmises",50,"ssfOUT_60_1_1_KINGCOBRA","KINGCOBRA",1,1,60,"preference"
"ssfOUT_60_1_1_KINGCOBRA.24",0.702831585470205,0.212452725769683,1.19321044517073,"ssf","mf.ss","gamma","vonmises",158,"ssfOUT_60_1_1_KINGCOBRA","KINGCOBRA",1,1,60,"preference"
"ssfOUT_60_1_1_KINGCOBRA.25",0.712442258429206,0.220422026155013,1.2044624907034,"ssf","mf.ss","gamma","vonmises",500,"ssfOUT_60_1_1_KINGCOBRA","KINGCOBRA",1,1,60,"preference"
"ssfOUT_60_1_1_KINGCOBRA.26",0.798675818945277,0.309633542243834,1.28771809564672,"ssf","mf.ss","gamma","unif",5,"ssfOUT_60_1_1_KINGCOBRA","KINGCOBRA",1,1,60,"preference"
"ssfOUT_60_1_1_KINGCOBRA.27",0.69041499475234,0.181673753129605,1.19915623637508,"ssf","mf.ss","gamma","unif",15,"ssfOUT_60_1_1_KINGCOBRA","KINGCOBRA",1,1,60,"preference"
"ssfOUT_60_1_1_KINGCOBRA.28",0.669571899045441,0.174173773973271,1.16497002411761,"ssf","mf.ss","gamma","unif",50,"ssfOUT_60_1_1_KINGCOBRA","KINGCOBRA",1,1,60,"preference"
"ssfOUT_60_1_1_KINGCOBRA.29",0.620153945088626,0.128583442601972,1.11172444757528,"ssf","mf.ss","gamma","unif",158,"ssfOUT_60_1_1_KINGCOBRA","KINGCOBRA",1,1,60,"preference"
"ssfOUT_60_1_1_KINGCOBRA.30",0.670789068069441,0.178797524891819,1.16278061124706,"ssf","mf.ss","gamma","unif",500,"ssfOUT_60_1_1_KINGCOBRA","KINGCOBRA",1,1,60,"preference"
"ssfOUT_60_1_1_KINGCOBRA.31",0.658676537996639,0.12563545054742,1.19171762544586,"ssf","mf.ss","exp","vonmises",5,"ssfOUT_60_1_1_KINGCOBRA","KINGCOBRA",1,1,60,"preference"
"ssfOUT_60_1_1_KINGCOBRA.32",0.795399538706502,0.30653734114736,1.28426173626565,"ssf","mf.ss","exp","vonmises",15,"ssfOUT_60_1_1_KINGCOBRA","KINGCOBRA",1,1,60,"preference"
"ssfOUT_60_1_1_KINGCOBRA.33",0.655054261817442,0.166167186512464,1.14394133712242,"ssf","mf.ss","exp","vonmises",50,"ssfOUT_60_1_1_KINGCOBRA","KINGCOBRA",1,1,60,"preference"
"ssfOUT_60_1_1_KINGCOBRA.34",0.644026247696283,0.173431314920088,1.11462118047248,"ssf","mf.ss","exp","vonmises",158,"ssfOUT_60_1_1_KINGCOBRA","KINGCOBRA",1,1,60,"preference"
"ssfOUT_60_1_1_KINGCOBRA.35",0.691986514621968,0.227072290306444,1.15690073893749,"ssf","mf.ss","exp","vonmises",500,"ssfOUT_60_1_1_KINGCOBRA","KINGCOBRA",1,1,60,"preference"
"ssfOUT_60_1_1_KINGCOBRA.36",0.464536033972739,-0.0332994462510806,0.962371514196558,"ssf","mf.ss","exp","unif",5,"ssfOUT_60_1_1_KINGCOBRA","KINGCOBRA",1,1,60,"no effect"
"ssfOUT_60_1_1_KINGCOBRA.37",0.745162458727736,0.278509126193509,1.21181579126196,"ssf","mf.ss","exp","unif",15,"ssfOUT_60_1_1_KINGCOBRA","KINGCOBRA",1,1,60,"preference"
"ssfOUT_60_1_1_KINGCOBRA.38",0.672978524081038,0.21180498608306,1.13415206207902,"ssf","mf.ss","exp","unif",50,"ssfOUT_60_1_1_KINGCOBRA","KINGCOBRA",1,1,60,"preference"
"ssfOUT_60_1_1_KINGCOBRA.39",0.726050491691897,0.256177680641615,1.19592330274218,"ssf","mf.ss","exp","unif",158,"ssfOUT_60_1_1_KINGCOBRA","KINGCOBRA",1,1,60,"preference"
"ssfOUT_60_1_1_KINGCOBRA.40",0.722343811606142,0.254130380596369,1.19055724261591,"ssf","mf.ss","exp","unif",500,"ssfOUT_60_1_1_KINGCOBRA","KINGCOBRA",1,1,60,"preference"
"ssfOUT_60_1_2_BADGER.1",0.476161030492698,0.231900417050234,0.720421643935162,"ssf","mf.is","gamma","vonmises",5,"ssfOUT_60_1_2_BADGER","BADGER",2,1,60,"preference"
"ssfOUT_60_1_2_BADGER.2",0.429052772617352,0.197679720899486,0.660425824335219,"ssf","mf.is","gamma","vonmises",15,"ssfOUT_60_1_2_BADGER","BADGER",2,1,60,"preference"
"ssfOUT_60_1_2_BADGER.3",0.404570048246273,0.177641369998324,0.631498726494222,"ssf","mf.is","gamma","vonmises",50,"ssfOUT_60_1_2_BADGER","BADGER",2,1,60,"preference"
"ssfOUT_60_1_2_BADGER.4",0.427820664864223,0.202856043863056,0.65278528586539,"ssf","mf.is","gamma","vonmises",158,"ssfOUT_60_1_2_BADGER","BADGER",2,1,60,"preference"
"ssfOUT_60_1_2_BADGER.5",0.424416094849749,0.199934717202702,0.648897472496796,"ssf","mf.is","gamma","vonmises",500,"ssfOUT_60_1_2_BADGER","BADGER",2,1,60,"preference"
"ssfOUT_60_1_2_BADGER.6",0.440487710142377,0.200905067624824,0.680070352659931,"ssf","mf.is","gamma","unif",5,"ssfOUT_60_1_2_BADGER","BADGER",2,1,60,"preference"
"ssfOUT_60_1_2_BADGER.7",0.439008366173919,0.208041633065469,0.669975099282369,"ssf","mf.is","gamma","unif",15,"ssfOUT_60_1_2_BADGER","BADGER",2,1,60,"preference"
"ssfOUT_60_1_2_BADGER.8",0.408166386009573,0.182216641873716,0.634116130145431,"ssf","mf.is","gamma","unif",50,"ssfOUT_60_1_2_BADGER","BADGER",2,1,60,"preference"
"ssfOUT_60_1_2_BADGER.9",0.448415912007629,0.222815395836622,0.674016428178635,"ssf","mf.is","gamma","unif",158,"ssfOUT_60_1_2_BADGER","BADGER",2,1,60,"preference"
"ssfOUT_60_1_2_BADGER.10",0.427618057369972,0.201841596169317,0.653394518570626,"ssf","mf.is","gamma","unif",500,"ssfOUT_60_1_2_BADGER","BADGER",2,1,60,"preference"
"ssfOUT_60_1_2_BADGER.11",0.435360779269695,0.197434991716299,0.67328656682309,"ssf","mf.is","exp","vonmises",5,"ssfOUT_60_1_2_BADGER","BADGER",2,1,60,"preference"
"ssfOUT_60_1_2_BADGER.12",0.488142013598432,0.255912699691901,0.720371327504964,"ssf","mf.is","exp","vonmises",15,"ssfOUT_60_1_2_BADGER","BADGER",2,1,60,"preference"
"ssfOUT_60_1_2_BADGER.13",0.367531523627975,0.140288692082896,0.594774355173054,"ssf","mf.is","exp","vonmises",50,"ssfOUT_60_1_2_BADGER","BADGER",2,1,60,"preference"
"ssfOUT_60_1_2_BADGER.14",0.4043466305301,0.177487357021686,0.631205904038513,"ssf","mf.is","exp","vonmises",158,"ssfOUT_60_1_2_BADGER","BADGER",2,1,60,"preference"
"ssfOUT_60_1_2_BADGER.15",0.413476021645506,0.189124532693948,0.637827510597063,"ssf","mf.is","exp","vonmises",500,"ssfOUT_60_1_2_BADGER","BADGER",2,1,60,"preference"
"ssfOUT_60_1_2_BADGER.16",0.423131565557354,0.182414116746514,0.663849014368195,"ssf","mf.is","exp","unif",5,"ssfOUT_60_1_2_BADGER","BADGER",2,1,60,"preference"
"ssfOUT_60_1_2_BADGER.17",0.391640340979278,0.157743632696519,0.625537049262036,"ssf","mf.is","exp","unif",15,"ssfOUT_60_1_2_BADGER","BADGER",2,1,60,"preference"
"ssfOUT_60_1_2_BADGER.18",0.378610180294306,0.15286377839079,0.604356582197821,"ssf","mf.is","exp","unif",50,"ssfOUT_60_1_2_BADGER","BADGER",2,1,60,"preference"
"ssfOUT_60_1_2_BADGER.19",0.399734463904263,0.173566216161714,0.625902711646813,"ssf","mf.is","exp","unif",158,"ssfOUT_60_1_2_BADGER","BADGER",2,1,60,"preference"
"ssfOUT_60_1_2_BADGER.20",0.418515478116186,0.193487051902509,0.643543904329863,"ssf","mf.is","exp","unif",500,"ssfOUT_60_1_2_BADGER","BADGER",2,1,60,"preference"
"ssfOUT_60_1_2_BADGER.21",0.449811122492043,0.205003117591068,0.694619127393018,"ssf","mf.ss","gamma","vonmises",5,"ssfOUT_60_1_2_BADGER","BADGER",2,1,60,"preference"
"ssfOUT_60_1_2_BADGER.22",0.415938573055972,0.183073362329513,0.648803783782431,"ssf","mf.ss","gamma","vonmises",15,"ssfOUT_60_1_2_BADGER","BADGER",2,1,60,"preference"
"ssfOUT_60_1_2_BADGER.23",0.391737048969824,0.163428685431107,0.62004541250854,"ssf","mf.ss","gamma","vonmises",50,"ssfOUT_60_1_2_BADGER","BADGER",2,1,60,"preference"
"ssfOUT_60_1_2_BADGER.24",0.420268335925221,0.193943380052929,0.646593291797514,"ssf","mf.ss","gamma","vonmises",158,"ssfOUT_60_1_2_BADGER","BADGER",2,1,60,"preference"
"ssfOUT_60_1_2_BADGER.25",0.416205060109388,0.190352070268294,0.642058049950481,"ssf","mf.ss","gamma","vonmises",500,"ssfOUT_60_1_2_BADGER","BADGER",2,1,60,"preference"
"ssfOUT_60_1_2_BADGER.26",0.415526676168484,0.175516391148389,0.655536961188579,"ssf","mf.ss","gamma","unif",5,"ssfOUT_60_1_2_BADGER","BADGER",2,1,60,"preference"
"ssfOUT_60_1_2_BADGER.27",0.419606578663024,0.186983420185581,0.652229737140467,"ssf","mf.ss","gamma","unif",15,"ssfOUT_60_1_2_BADGER","BADGER",2,1,60,"preference"
"ssfOUT_60_1_2_BADGER.28",0.401107130486088,0.173981043424585,0.62823321754759,"ssf","mf.ss","gamma","unif",50,"ssfOUT_60_1_2_BADGER","BADGER",2,1,60,"preference"
"ssfOUT_60_1_2_BADGER.29",0.444106065926907,0.21717891082414,0.671033221029675,"ssf","mf.ss","gamma","unif",158,"ssfOUT_60_1_2_BADGER","BADGER",2,1,60,"preference"
"ssfOUT_60_1_2_BADGER.30",0.422007425920391,0.194833629711736,0.649181222129047,"ssf","mf.ss","gamma","unif",500,"ssfOUT_60_1_2_BADGER","BADGER",2,1,60,"preference"
"ssfOUT_60_1_2_BADGER.31",0.530405560847432,0.293818686603252,0.766992435091613,"ssf","mf.ss","exp","vonmises",5,"ssfOUT_60_1_2_BADGER","BADGER",2,1,60,"preference"
"ssfOUT_60_1_2_BADGER.32",0.466950070509814,0.237665599199928,0.696234541819699,"ssf","mf.ss","exp","vonmises",15,"ssfOUT_60_1_2_BADGER","BADGER",2,1,60,"preference"
"ssfOUT_60_1_2_BADGER.33",0.410367968485509,0.184162823501335,0.636573113469683,"ssf","mf.ss","exp","vonmises",50,"ssfOUT_60_1_2_BADGER","BADGER",2,1,60,"preference"
"ssfOUT_60_1_2_BADGER.34",0.41507586292393,0.190392329843857,0.639759396004002,"ssf","mf.ss","exp","vonmises",158,"ssfOUT_60_1_2_BADGER","BADGER",2,1,60,"preference"
"ssfOUT_60_1_2_BADGER.35",0.42458697761429,0.201509747540469,0.647664207688112,"ssf","mf.ss","exp","vonmises",500,"ssfOUT_60_1_2_BADGER","BADGER",2,1,60,"preference"
"ssfOUT_60_1_2_BADGER.36",0.496750474050822,0.257961563515794,0.735539384585849,"ssf","mf.ss","exp","unif",5,"ssfOUT_60_1_2_BADGER","BADGER",2,1,60,"preference"
"ssfOUT_60_1_2_BADGER.37",0.40609907815359,0.174944348853164,0.637253807454016,"ssf","mf.ss","exp","unif",15,"ssfOUT_60_1_2_BADGER","BADGER",2,1,60,"preference"
"ssfOUT_60_1_2_BADGER.38",0.372380484704244,0.147248787749086,0.597512181659402,"ssf","mf.ss","exp","unif",50,"ssfOUT_60_1_2_BADGER","BADGER",2,1,60,"preference"
"ssfOUT_60_1_2_BADGER.39",0.419015607427281,0.194440888004554,0.643590326850007,"ssf","mf.ss","exp","unif",158,"ssfOUT_60_1_2_BADGER","BADGER",2,1,60,"preference"
"ssfOUT_60_1_2_BADGER.40",0.429258359571891,0.205493878975274,0.653022840168509,"ssf","mf.ss","exp","unif",500,"ssfOUT_60_1_2_BADGER","BADGER",2,1,60,"preference"
"ssfOUT_60_1_2_VULTURE.1",0.532333405828884,0.25816051261732,0.806506299040448,"ssf","mf.is","gamma","vonmises",5,"ssfOUT_60_1_2_VULTURE","VULTURE",2,1,60,"preference"
"ssfOUT_60_1_2_VULTURE.2",0.526008351820093,0.262355252292167,0.789661451348019,"ssf","mf.is","gamma","vonmises",15,"ssfOUT_60_1_2_VULTURE","VULTURE",2,1,60,"preference"
"ssfOUT_60_1_2_VULTURE.3",0.571906447028895,0.312881270389747,0.830931623668043,"ssf","mf.is","gamma","vonmises",50,"ssfOUT_60_1_2_VULTURE","VULTURE",2,1,60,"preference"
"ssfOUT_60_1_2_VULTURE.4",0.571780237701248,0.313521917238101,0.830038558164395,"ssf","mf.is","gamma","vonmises",158,"ssfOUT_60_1_2_VULTURE","VULTURE",2,1,60,"preference"
"ssfOUT_60_1_2_VULTURE.5",0.560550294755749,0.302480132922603,0.818620456588895,"ssf","mf.is","gamma","vonmises",500,"ssfOUT_60_1_2_VULTURE","VULTURE",2,1,60,"preference"
"ssfOUT_60_1_2_VULTURE.6",0.640270488806728,0.367268941803315,0.91327203581014,"ssf","mf.is","gamma","unif",5,"ssfOUT_60_1_2_VULTURE","VULTURE",2,1,60,"preference"
"ssfOUT_60_1_2_VULTURE.7",0.617181395079158,0.353612460061459,0.880750330096857,"ssf","mf.is","gamma","unif",15,"ssfOUT_60_1_2_VULTURE","VULTURE",2,1,60,"preference"
"ssfOUT_60_1_2_VULTURE.8",0.559172774392631,0.299562191757065,0.818783357028197,"ssf","mf.is","gamma","unif",50,"ssfOUT_60_1_2_VULTURE","VULTURE",2,1,60,"preference"
"ssfOUT_60_1_2_VULTURE.9",0.564824013302458,0.306430816940377,0.823217209664538,"ssf","mf.is","gamma","unif",158,"ssfOUT_60_1_2_VULTURE","VULTURE",2,1,60,"preference"
"ssfOUT_60_1_2_VULTURE.10",0.553142158570124,0.295489555480855,0.810794761659394,"ssf","mf.is","gamma","unif",500,"ssfOUT_60_1_2_VULTURE","VULTURE",2,1,60,"preference"
"ssfOUT_60_1_2_VULTURE.11",0.411025245189018,0.131182829202869,0.690867661175167,"ssf","mf.is","exp","vonmises",5,"ssfOUT_60_1_2_VULTURE","VULTURE",2,1,60,"preference"
"ssfOUT_60_1_2_VULTURE.12",0.684409662653972,0.419960958642424,0.948858366665519,"ssf","mf.is","exp","vonmises",15,"ssfOUT_60_1_2_VULTURE","VULTURE",2,1,60,"preference"
"ssfOUT_60_1_2_VULTURE.13",0.620996559254359,0.360851143011703,0.881141975497015,"ssf","mf.is","exp","vonmises",50,"ssfOUT_60_1_2_VULTURE","VULTURE",2,1,60,"preference"
"ssfOUT_60_1_2_VULTURE.14",0.544314963518067,0.286261474123277,0.802368452912858,"ssf","mf.is","exp","vonmises",158,"ssfOUT_60_1_2_VULTURE","VULTURE",2,1,60,"preference"
"ssfOUT_60_1_2_VULTURE.15",0.574943281515914,0.317277217488934,0.832609345542894,"ssf","mf.is","exp","vonmises",500,"ssfOUT_60_1_2_VULTURE","VULTURE",2,1,60,"preference"
"ssfOUT_60_1_2_VULTURE.16",0.586953708869852,0.310264846920475,0.863642570819228,"ssf","mf.is","exp","unif",5,"ssfOUT_60_1_2_VULTURE","VULTURE",2,1,60,"preference"
"ssfOUT_60_1_2_VULTURE.17",0.56706657061919,0.303168942741196,0.830964198497184,"ssf","mf.is","exp","unif",15,"ssfOUT_60_1_2_VULTURE","VULTURE",2,1,60,"preference"
"ssfOUT_60_1_2_VULTURE.18",0.503356761777419,0.243003995417737,0.763709528137101,"ssf","mf.is","exp","unif",50,"ssfOUT_60_1_2_VULTURE","VULTURE",2,1,60,"preference"
"ssfOUT_60_1_2_VULTURE.19",0.572441105422414,0.314057958992438,0.830824251852389,"ssf","mf.is","exp","unif",158,"ssfOUT_60_1_2_VULTURE","VULTURE",2,1,60,"preference"
"ssfOUT_60_1_2_VULTURE.20",0.567255832793666,0.309349177554948,0.825162488032384,"ssf","mf.is","exp","unif",500,"ssfOUT_60_1_2_VULTURE","VULTURE",2,1,60,"preference"
"ssfOUT_60_1_2_VULTURE.21",0.528091514020063,0.254029184656051,0.802153843384076,"ssf","mf.ss","gamma","vonmises",5,"ssfOUT_60_1_2_VULTURE","VULTURE",2,1,60,"preference"
"ssfOUT_60_1_2_VULTURE.22",0.522738666473321,0.2591071425043,0.786370190442343,"ssf","mf.ss","gamma","vonmises",15,"ssfOUT_60_1_2_VULTURE","VULTURE",2,1,60,"preference"
"ssfOUT_60_1_2_VULTURE.23",0.569271269435796,0.310228837490533,0.828313701381058,"ssf","mf.ss","gamma","vonmises",50,"ssfOUT_60_1_2_VULTURE","VULTURE",2,1,60,"preference"
"ssfOUT_60_1_2_VULTURE.24",0.569283917948149,0.311017472693054,0.827550363203244,"ssf","mf.ss","gamma","vonmises",158,"ssfOUT_60_1_2_VULTURE","VULTURE",2,1,60,"preference"
"ssfOUT_60_1_2_VULTURE.25",0.558706149181409,0.300627519730272,0.816784778632546,"ssf","mf.ss","gamma","vonmises",500,"ssfOUT_60_1_2_VULTURE","VULTURE",2,1,60,"preference"
"ssfOUT_60_1_2_VULTURE.26",0.635385806317268,0.362461057662168,0.908310554972367,"ssf","mf.ss","gamma","unif",5,"ssfOUT_60_1_2_VULTURE","VULTURE",2,1,60,"preference"
"ssfOUT_60_1_2_VULTURE.27",0.615859138843728,0.352381307594125,0.879336970093331,"ssf","mf.ss","gamma","unif",15,"ssfOUT_60_1_2_VULTURE","VULTURE",2,1,60,"preference"
"ssfOUT_60_1_2_VULTURE.28",0.559274433950937,0.299644879774086,0.818903988127788,"ssf","mf.ss","gamma","unif",50,"ssfOUT_60_1_2_VULTURE","VULTURE",2,1,60,"preference"
"ssfOUT_60_1_2_VULTURE.29",0.564861069851212,0.306476543881154,0.82324559582127,"ssf","mf.ss","gamma","unif",158,"ssfOUT_60_1_2_VULTURE","VULTURE",2,1,60,"preference"
"ssfOUT_60_1_2_VULTURE.30",0.553374562050088,0.295747506814263,0.811001617285913,"ssf","mf.ss","gamma","unif",500,"ssfOUT_60_1_2_VULTURE","VULTURE",2,1,60,"preference"
"ssfOUT_60_1_2_VULTURE.31",0.437508060746045,0.161811878133567,0.713204243358524,"ssf","mf.ss","exp","vonmises",5,"ssfOUT_60_1_2_VULTURE","VULTURE",2,1,60,"preference"
"ssfOUT_60_1_2_VULTURE.32",0.597113746273095,0.333398917576912,0.860828574969279,"ssf","mf.ss","exp","vonmises",15,"ssfOUT_60_1_2_VULTURE","VULTURE",2,1,60,"preference"
"ssfOUT_60_1_2_VULTURE.33",0.557584200665131,0.296458675235851,0.81870972609441,"ssf","mf.ss","exp","vonmises",50,"ssfOUT_60_1_2_VULTURE","VULTURE",2,1,60,"preference"
"ssfOUT_60_1_2_VULTURE.34",0.505660510307437,0.245895193283361,0.765425827331512,"ssf","mf.ss","exp","vonmises",158,"ssfOUT_60_1_2_VULTURE","VULTURE",2,1,60,"preference"
"ssfOUT_60_1_2_VULTURE.35",0.524201503005602,0.264971945326501,0.783431060684704,"ssf","mf.ss","exp","vonmises",500,"ssfOUT_60_1_2_VULTURE","VULTURE",2,1,60,"preference"
"ssfOUT_60_1_2_VULTURE.36",0.530224634003873,0.255543992911545,0.804905275096202,"ssf","mf.ss","exp","unif",5,"ssfOUT_60_1_2_VULTURE","VULTURE",2,1,60,"preference"
"ssfOUT_60_1_2_VULTURE.37",0.486711375107875,0.222631023346421,0.75079172686933,"ssf","mf.ss","exp","unif",15,"ssfOUT_60_1_2_VULTURE","VULTURE",2,1,60,"preference"
"ssfOUT_60_1_2_VULTURE.38",0.460110934413595,0.198504304925724,0.721717563901467,"ssf","mf.ss","exp","unif",50,"ssfOUT_60_1_2_VULTURE","VULTURE",2,1,60,"preference"
"ssfOUT_60_1_2_VULTURE.39",0.520117555592026,0.26051972915493,0.779715382029122,"ssf","mf.ss","exp","unif",158,"ssfOUT_60_1_2_VULTURE","VULTURE",2,1,60,"preference"
"ssfOUT_60_1_2_VULTURE.40",0.51023886548889,0.251038843942353,0.769438887035427,"ssf","mf.ss","exp","unif",500,"ssfOUT_60_1_2_VULTURE","VULTURE",2,1,60,"preference"
"ssfOUT_60_1_2_KINGCOBRA.1",0.449612760830592,0.132223908324811,0.767001613336373,"ssf","mf.is","gamma","vonmises",5,"ssfOUT_60_1_2_KINGCOBRA","KINGCOBRA",2,1,60,"preference"
"ssfOUT_60_1_2_KINGCOBRA.2",0.433134196453003,0.131561239722621,0.734707153183386,"ssf","mf.is","gamma","vonmises",15,"ssfOUT_60_1_2_KINGCOBRA","KINGCOBRA",2,1,60,"preference"
"ssfOUT_60_1_2_KINGCOBRA.3",0.449782713365693,0.145904518405344,0.753660908326042,"ssf","mf.is","gamma","vonmises",50,"ssfOUT_60_1_2_KINGCOBRA","KINGCOBRA",2,1,60,"preference"
"ssfOUT_60_1_2_KINGCOBRA.4",0.414296562430587,0.112901620515842,0.715691504345333,"ssf","mf.is","gamma","vonmises",158,"ssfOUT_60_1_2_KINGCOBRA","KINGCOBRA",2,1,60,"preference"
"ssfOUT_60_1_2_KINGCOBRA.5",0.436062518263674,0.135953332192153,0.736171704335195,"ssf","mf.is","gamma","vonmises",500,"ssfOUT_60_1_2_KINGCOBRA","KINGCOBRA",2,1,60,"preference"
"ssfOUT_60_1_2_KINGCOBRA.6",0.267655093968431,-0.0503924975402012,0.585702685477063,"ssf","mf.is","gamma","unif",5,"ssfOUT_60_1_2_KINGCOBRA","KINGCOBRA",2,1,60,"no effect"
"ssfOUT_60_1_2_KINGCOBRA.7",0.493606780237021,0.188479830808958,0.798733729665083,"ssf","mf.is","gamma","unif",15,"ssfOUT_60_1_2_KINGCOBRA","KINGCOBRA",2,1,60,"preference"
"ssfOUT_60_1_2_KINGCOBRA.8",0.419307878435924,0.121966073790466,0.716649683081381,"ssf","mf.is","gamma","unif",50,"ssfOUT_60_1_2_KINGCOBRA","KINGCOBRA",2,1,60,"preference"
"ssfOUT_60_1_2_KINGCOBRA.9",0.439481615625539,0.138597855148558,0.740365376102521,"ssf","mf.is","gamma","unif",158,"ssfOUT_60_1_2_KINGCOBRA","KINGCOBRA",2,1,60,"preference"
"ssfOUT_60_1_2_KINGCOBRA.10",0.419964471367375,0.12053343232231,0.719395510412441,"ssf","mf.is","gamma","unif",500,"ssfOUT_60_1_2_KINGCOBRA","KINGCOBRA",2,1,60,"preference"
"ssfOUT_60_1_2_KINGCOBRA.11",0.255700827403648,-0.07020338210274,0.581605036910036,"ssf","mf.is","exp","vonmises",5,"ssfOUT_60_1_2_KINGCOBRA","KINGCOBRA",2,1,60,"no effect"
"ssfOUT_60_1_2_KINGCOBRA.12",0.150640161463849,-0.156344744094927,0.457625067022625,"ssf","mf.is","exp","vonmises",15,"ssfOUT_60_1_2_KINGCOBRA","KINGCOBRA",2,1,60,"no effect"
"ssfOUT_60_1_2_KINGCOBRA.13",0.337100813133357,0.0277667426817663,0.646434883584948,"ssf","mf.is","exp","vonmises",50,"ssfOUT_60_1_2_KINGCOBRA","KINGCOBRA",2,1,60,"preference"
"ssfOUT_60_1_2_KINGCOBRA.14",0.534840586440799,0.227466423136662,0.842214749744935,"ssf","mf.is","exp","vonmises",158,"ssfOUT_60_1_2_KINGCOBRA","KINGCOBRA",2,1,60,"preference"
"ssfOUT_60_1_2_KINGCOBRA.15",0.370856303922933,0.064054136017448,0.677658471828418,"ssf","mf.is","exp","vonmises",500,"ssfOUT_60_1_2_KINGCOBRA","KINGCOBRA",2,1,60,"preference"
"ssfOUT_60_1_2_KINGCOBRA.16",0.576210419802189,0.254461676885485,0.897959162718893,"ssf","mf.is","exp","unif",5,"ssfOUT_60_1_2_KINGCOBRA","KINGCOBRA",2,1,60,"preference"
"ssfOUT_60_1_2_KINGCOBRA.17",0.42162905400869,0.11773296459694,0.725525143420439,"ssf","mf.is","exp","unif",15,"ssfOUT_60_1_2_KINGCOBRA","KINGCOBRA",2,1,60,"preference"
"ssfOUT_60_1_2_KINGCOBRA.18",0.420629084566213,0.116573647005908,0.724684522126519,"ssf","mf.is","exp","unif",50,"ssfOUT_60_1_2_KINGCOBRA","KINGCOBRA",2,1,60,"preference"
"ssfOUT_60_1_2_KINGCOBRA.19",0.405116092067268,0.098083743269409,0.712148440865127,"ssf","mf.is","exp","unif",158,"ssfOUT_60_1_2_KINGCOBRA","KINGCOBRA",2,1,60,"preference"
"ssfOUT_60_1_2_KINGCOBRA.20",0.41821248378173,0.111075835281175,0.725349132282286,"ssf","mf.is","exp","unif",500,"ssfOUT_60_1_2_KINGCOBRA","KINGCOBRA",2,1,60,"preference"
"ssfOUT_60_1_2_KINGCOBRA.21",0.424742020080877,0.107503946381408,0.741980093780347,"ssf","mf.ss","gamma","vonmises",5,"ssfOUT_60_1_2_KINGCOBRA","KINGCOBRA",2,1,60,"preference"
"ssfOUT_60_1_2_KINGCOBRA.22",0.41942470263687,0.118918325152065,0.719931080121675,"ssf","mf.ss","gamma","vonmises",15,"ssfOUT_60_1_2_KINGCOBRA","KINGCOBRA",2,1,60,"preference"
"ssfOUT_60_1_2_KINGCOBRA.23",0.438754472043893,0.134109802587725,0.743399141500061,"ssf","mf.ss","gamma","vonmises",50,"ssfOUT_60_1_2_KINGCOBRA","KINGCOBRA",2,1,60,"preference"
"ssfOUT_60_1_2_KINGCOBRA.24",0.408603463611199,0.106639944453884,0.710566982768513,"ssf","mf.ss","gamma","vonmises",158,"ssfOUT_60_1_2_KINGCOBRA","KINGCOBRA",2,1,60,"preference"
"ssfOUT_60_1_2_KINGCOBRA.25",0.428352272284299,0.127512624000843,0.729191920567756,"ssf","mf.ss","gamma","vonmises",500,"ssfOUT_60_1_2_KINGCOBRA","KINGCOBRA",2,1,60,"preference"
"ssfOUT_60_1_2_KINGCOBRA.26",0.256652589921901,-0.0606859813639195,0.573991161207722,"ssf","mf.ss","gamma","unif",5,"ssfOUT_60_1_2_KINGCOBRA","KINGCOBRA",2,1,60,"no effect"
"ssfOUT_60_1_2_KINGCOBRA.27",0.497788218219936,0.192730118933387,0.802846317506485,"ssf","mf.ss","gamma","unif",15,"ssfOUT_60_1_2_KINGCOBRA","KINGCOBRA",2,1,60,"preference"
"ssfOUT_60_1_2_KINGCOBRA.28",0.413024129997123,0.115347053123706,0.710701206870541,"ssf","mf.ss","gamma","unif",50,"ssfOUT_60_1_2_KINGCOBRA","KINGCOBRA",2,1,60,"preference"
"ssfOUT_60_1_2_KINGCOBRA.29",0.435176101171222,0.133395410520289,0.736956791822154,"ssf","mf.ss","gamma","unif",158,"ssfOUT_60_1_2_KINGCOBRA","KINGCOBRA",2,1,60,"preference"
"ssfOUT_60_1_2_KINGCOBRA.30",0.413670497369746,0.113623519283622,0.71371747545587,"ssf","mf.ss","gamma","unif",500,"ssfOUT_60_1_2_KINGCOBRA","KINGCOBRA",2,1,60,"preference"
"ssfOUT_60_1_2_KINGCOBRA.31",0.366566696554032,0.0581199549414844,0.67501343816658,"ssf","mf.ss","exp","vonmises",5,"ssfOUT_60_1_2_KINGCOBRA","KINGCOBRA",2,1,60,"preference"
"ssfOUT_60_1_2_KINGCOBRA.32",0.405113821233956,0.116071571843495,0.694156070624418,"ssf","mf.ss","exp","vonmises",15,"ssfOUT_60_1_2_KINGCOBRA","KINGCOBRA",2,1,60,"preference"
"ssfOUT_60_1_2_KINGCOBRA.33",0.482439210714414,0.197467113437934,0.767411307990894,"ssf","mf.ss","exp","vonmises",50,"ssfOUT_60_1_2_KINGCOBRA","KINGCOBRA",2,1,60,"preference"
"ssfOUT_60_1_2_KINGCOBRA.34",0.550342454648302,0.266052177337374,0.83463273195923,"ssf","mf.ss","exp","vonmises",158,"ssfOUT_60_1_2_KINGCOBRA","KINGCOBRA",2,1,60,"preference"
"ssfOUT_60_1_2_KINGCOBRA.35",0.465308280635627,0.18064533839034,0.749971222880913,"ssf","mf.ss","exp","vonmises",500,"ssfOUT_60_1_2_KINGCOBRA","KINGCOBRA",2,1,60,"preference"
"ssfOUT_60_1_2_KINGCOBRA.36",0.5979250731935,0.300126202715917,0.895723943671082,"ssf","mf.ss","exp","unif",5,"ssfOUT_60_1_2_KINGCOBRA","KINGCOBRA",2,1,60,"preference"
"ssfOUT_60_1_2_KINGCOBRA.37",0.528350091760164,0.242814757160858,0.813885426359471,"ssf","mf.ss","exp","unif",15,"ssfOUT_60_1_2_KINGCOBRA","KINGCOBRA",2,1,60,"preference"
"ssfOUT_60_1_2_KINGCOBRA.38",0.499473793308529,0.210930508390195,0.788017078226863,"ssf","mf.ss","exp","unif",50,"ssfOUT_60_1_2_KINGCOBRA","KINGCOBRA",2,1,60,"preference"
"ssfOUT_60_1_2_KINGCOBRA.39",0.475902709871936,0.191780579361505,0.760024840382366,"ssf","mf.ss","exp","unif",158,"ssfOUT_60_1_2_KINGCOBRA","KINGCOBRA",2,1,60,"preference"
"ssfOUT_60_1_2_KINGCOBRA.40",0.487893158721903,0.204199928313972,0.771586389129834,"ssf","mf.ss","exp","unif",500,"ssfOUT_60_1_2_KINGCOBRA","KINGCOBRA",2,1,60,"preference"
"ssfOUT_60_1_3_BADGER.1",0.150109787209283,-0.0847699244163712,0.384989498834937,"ssf","mf.is","gamma","vonmises",5,"ssfOUT_60_1_3_BADGER","BADGER",3,1,60,"no effect"
"ssfOUT_60_1_3_BADGER.2",0.110296915891677,-0.108205363982753,0.328799195766108,"ssf","mf.is","gamma","vonmises",15,"ssfOUT_60_1_3_BADGER","BADGER",3,1,60,"no effect"
"ssfOUT_60_1_3_BADGER.3",-0.00612910563500114,-0.220262732240261,0.208004520970259,"ssf","mf.is","gamma","vonmises",50,"ssfOUT_60_1_3_BADGER","BADGER",3,1,60,"no effect"
"ssfOUT_60_1_3_BADGER.4",0.0411879403477114,-0.172648750923379,0.255024631618802,"ssf","mf.is","gamma","vonmises",158,"ssfOUT_60_1_3_BADGER","BADGER",3,1,60,"no effect"
"ssfOUT_60_1_3_BADGER.5",0.0366835138703592,-0.176880631290295,0.250247659031013,"ssf","mf.is","gamma","vonmises",500,"ssfOUT_60_1_3_BADGER","BADGER",3,1,60,"no effect"
"ssfOUT_60_1_3_BADGER.6",-0.0551996727574133,-0.290601960518138,0.180202615003311,"ssf","mf.is","gamma","unif",5,"ssfOUT_60_1_3_BADGER","BADGER",3,1,60,"no effect"
"ssfOUT_60_1_3_BADGER.7",-0.026595479176304,-0.246439841799052,0.193248883446444,"ssf","mf.is","gamma","unif",15,"ssfOUT_60_1_3_BADGER","BADGER",3,1,60,"no effect"
"ssfOUT_60_1_3_BADGER.8",0.0597296466684257,-0.154979843712919,0.274439137049771,"ssf","mf.is","gamma","unif",50,"ssfOUT_60_1_3_BADGER","BADGER",3,1,60,"no effect"
"ssfOUT_60_1_3_BADGER.9",0.0601058292376132,-0.153772580958465,0.273984239433692,"ssf","mf.is","gamma","unif",158,"ssfOUT_60_1_3_BADGER","BADGER",3,1,60,"no effect"
"ssfOUT_60_1_3_BADGER.10",0.0418716643358572,-0.171326041334845,0.255069370006559,"ssf","mf.is","gamma","unif",500,"ssfOUT_60_1_3_BADGER","BADGER",3,1,60,"no effect"
"ssfOUT_60_1_3_BADGER.11",-0.0227404924177581,-0.254346024165393,0.208865039329876,"ssf","mf.is","exp","vonmises",5,"ssfOUT_60_1_3_BADGER","BADGER",3,1,60,"no effect"
"ssfOUT_60_1_3_BADGER.12",-0.039205326577585,-0.259967650474881,0.181556997319711,"ssf","mf.is","exp","vonmises",15,"ssfOUT_60_1_3_BADGER","BADGER",3,1,60,"no effect"
"ssfOUT_60_1_3_BADGER.13",0.0109666475356305,-0.205245712888506,0.227179007959767,"ssf","mf.is","exp","vonmises",50,"ssfOUT_60_1_3_BADGER","BADGER",3,1,60,"no effect"
"ssfOUT_60_1_3_BADGER.14",0.0509386296870092,-0.16287785096643,0.264755110340448,"ssf","mf.is","exp","vonmises",158,"ssfOUT_60_1_3_BADGER","BADGER",3,1,60,"no effect"
"ssfOUT_60_1_3_BADGER.15",0.0497135886716636,-0.163412390073837,0.262839567417164,"ssf","mf.is","exp","vonmises",500,"ssfOUT_60_1_3_BADGER","BADGER",3,1,60,"no effect"
"ssfOUT_60_1_3_BADGER.16",0.22550764674686,-0.00475896650178564,0.455774259995506,"ssf","mf.is","exp","unif",5,"ssfOUT_60_1_3_BADGER","BADGER",3,1,60,"no effect"
"ssfOUT_60_1_3_BADGER.17",-0.11081942885641,-0.335083757117202,0.113444899404382,"ssf","mf.is","exp","unif",15,"ssfOUT_60_1_3_BADGER","BADGER",3,1,60,"no effect"
"ssfOUT_60_1_3_BADGER.18",0.0304037907455935,-0.184520673325565,0.245328254816752,"ssf","mf.is","exp","unif",50,"ssfOUT_60_1_3_BADGER","BADGER",3,1,60,"no effect"
"ssfOUT_60_1_3_BADGER.19",0.0163043632938603,-0.197408818987454,0.230017545575175,"ssf","mf.is","exp","unif",158,"ssfOUT_60_1_3_BADGER","BADGER",3,1,60,"no effect"
"ssfOUT_60_1_3_BADGER.20",0.0428453477728632,-0.170234595204396,0.255925290750122,"ssf","mf.is","exp","unif",500,"ssfOUT_60_1_3_BADGER","BADGER",3,1,60,"no effect"
"ssfOUT_60_1_3_BADGER.21",0.146008518698072,-0.0889780835292743,0.380995120925418,"ssf","mf.ss","gamma","vonmises",5,"ssfOUT_60_1_3_BADGER","BADGER",3,1,60,"no effect"
"ssfOUT_60_1_3_BADGER.22",0.107550906496333,-0.111066862276977,0.326168675269643,"ssf","mf.ss","gamma","vonmises",15,"ssfOUT_60_1_3_BADGER","BADGER",3,1,60,"no effect"
"ssfOUT_60_1_3_BADGER.23",-0.00931941706170001,-0.223512780107802,0.204873945984402,"ssf","mf.ss","gamma","vonmises",50,"ssfOUT_60_1_3_BADGER","BADGER",3,1,60,"no effect"
"ssfOUT_60_1_3_BADGER.24",0.0386056410445778,-0.175291444046247,0.252502726135403,"ssf","mf.ss","gamma","vonmises",158,"ssfOUT_60_1_3_BADGER","BADGER",3,1,60,"no effect"
"ssfOUT_60_1_3_BADGER.25",0.0345306018071109,-0.179083381622678,0.2481445852369,"ssf","mf.ss","gamma","vonmises",500,"ssfOUT_60_1_3_BADGER","BADGER",3,1,60,"no effect"
"ssfOUT_60_1_3_BADGER.26",-0.042695695459699,-0.276686504741034,0.191295113821636,"ssf","mf.ss","gamma","unif",5,"ssfOUT_60_1_3_BADGER","BADGER",3,1,60,"no effect"
"ssfOUT_60_1_3_BADGER.27",-0.0468176709525124,-0.265796242769328,0.172160900864303,"ssf","mf.ss","gamma","unif",15,"ssfOUT_60_1_3_BADGER","BADGER",3,1,60,"no effect"
"ssfOUT_60_1_3_BADGER.28",0.0480260042115238,-0.166344556571333,0.26239656499438,"ssf","mf.ss","gamma","unif",50,"ssfOUT_60_1_3_BADGER","BADGER",3,1,60,"no effect"
"ssfOUT_60_1_3_BADGER.29",0.0555710626297635,-0.158063866747111,0.269205992006638,"ssf","mf.ss","gamma","unif",158,"ssfOUT_60_1_3_BADGER","BADGER",3,1,60,"no effect"
"ssfOUT_60_1_3_BADGER.30",0.0395003633617205,-0.173423429611723,0.252424156335164,"ssf","mf.ss","gamma","unif",500,"ssfOUT_60_1_3_BADGER","BADGER",3,1,60,"no effect"
"ssfOUT_60_1_3_BADGER.31",-0.0252201326704381,-0.256740757445509,0.206300492104633,"ssf","mf.ss","exp","vonmises",5,"ssfOUT_60_1_3_BADGER","BADGER",3,1,60,"no effect"
"ssfOUT_60_1_3_BADGER.32",-0.0445708786198535,-0.265062006849723,0.175920249610016,"ssf","mf.ss","exp","vonmises",15,"ssfOUT_60_1_3_BADGER","BADGER",3,1,60,"no effect"
"ssfOUT_60_1_3_BADGER.33",0.0047498317836176,-0.211059853710856,0.220559517278091,"ssf","mf.ss","exp","vonmises",50,"ssfOUT_60_1_3_BADGER","BADGER",3,1,60,"no effect"
"ssfOUT_60_1_3_BADGER.34",0.0434870959505649,-0.170024345274993,0.256998537176123,"ssf","mf.ss","exp","vonmises",158,"ssfOUT_60_1_3_BADGER","BADGER",3,1,60,"no effect"
"ssfOUT_60_1_3_BADGER.35",0.039875201799151,-0.172930156435226,0.252680560033527,"ssf","mf.ss","exp","vonmises",500,"ssfOUT_60_1_3_BADGER","BADGER",3,1,60,"no effect"
"ssfOUT_60_1_3_BADGER.36",0.204768279760577,-0.0244040251845926,0.433940584705747,"ssf","mf.ss","exp","unif",5,"ssfOUT_60_1_3_BADGER","BADGER",3,1,60,"no effect"
"ssfOUT_60_1_3_BADGER.37",-0.0927475038324169,-0.315360859097481,0.129865851432647,"ssf","mf.ss","exp","unif",15,"ssfOUT_60_1_3_BADGER","BADGER",3,1,60,"no effect"
"ssfOUT_60_1_3_BADGER.38",0.0267833375464062,-0.187406925303933,0.240973600396746,"ssf","mf.ss","exp","unif",50,"ssfOUT_60_1_3_BADGER","BADGER",3,1,60,"no effect"
"ssfOUT_60_1_3_BADGER.39",0.00912084597326486,-0.204003582077841,0.222245274024371,"ssf","mf.ss","exp","unif",158,"ssfOUT_60_1_3_BADGER","BADGER",3,1,60,"no effect"
"ssfOUT_60_1_3_BADGER.40",0.0340924948479414,-0.178296936390763,0.246481926086646,"ssf","mf.ss","exp","unif",500,"ssfOUT_60_1_3_BADGER","BADGER",3,1,60,"no effect"
"ssfOUT_60_1_3_VULTURE.1",0.127212715335049,-0.207423454845816,0.461848885515914,"ssf","mf.is","gamma","vonmises",5,"ssfOUT_60_1_3_VULTURE","VULTURE",3,1,60,"no effect"
"ssfOUT_60_1_3_VULTURE.2",0.562577528102242,0.25064021822932,0.874514837975164,"ssf","mf.is","gamma","vonmises",15,"ssfOUT_60_1_3_VULTURE","VULTURE",3,1,60,"preference"
"ssfOUT_60_1_3_VULTURE.3",0.525554093067435,0.221548748957909,0.82955943717696,"ssf","mf.is","gamma","vonmises",50,"ssfOUT_60_1_3_VULTURE","VULTURE",3,1,60,"preference"
"ssfOUT_60_1_3_VULTURE.4",0.498696779041287,0.196883218000552,0.800510340082021,"ssf","mf.is","gamma","vonmises",158,"ssfOUT_60_1_3_VULTURE","VULTURE",3,1,60,"preference"
"ssfOUT_60_1_3_VULTURE.5",0.52125439601346,0.218921402550421,0.823587389476499,"ssf","mf.is","gamma","vonmises",500,"ssfOUT_60_1_3_VULTURE","VULTURE",3,1,60,"preference"
"ssfOUT_60_1_3_VULTURE.6",0.795533857335828,0.469872719848402,1.12119499482325,"ssf","mf.is","gamma","unif",5,"ssfOUT_60_1_3_VULTURE","VULTURE",3,1,60,"preference"
"ssfOUT_60_1_3_VULTURE.7",0.537178244921636,0.227399700322049,0.846956789521223,"ssf","mf.is","gamma","unif",15,"ssfOUT_60_1_3_VULTURE","VULTURE",3,1,60,"preference"
"ssfOUT_60_1_3_VULTURE.8",0.519686402274804,0.215896769994391,0.823476034555217,"ssf","mf.is","gamma","unif",50,"ssfOUT_60_1_3_VULTURE","VULTURE",3,1,60,"preference"
"ssfOUT_60_1_3_VULTURE.9",0.472066217259045,0.169121876924978,0.775010557593113,"ssf","mf.is","gamma","unif",158,"ssfOUT_60_1_3_VULTURE","VULTURE",3,1,60,"preference"
"ssfOUT_60_1_3_VULTURE.10",0.510392797573191,0.208302959956085,0.812482635190296,"ssf","mf.is","gamma","unif",500,"ssfOUT_60_1_3_VULTURE","VULTURE",3,1,60,"preference"
"ssfOUT_60_1_3_VULTURE.11",0.388472176657149,0.0594780570336544,0.717466296280643,"ssf","mf.is","exp","vonmises",5,"ssfOUT_60_1_3_VULTURE","VULTURE",3,1,60,"preference"
"ssfOUT_60_1_3_VULTURE.12",0.513849988284259,0.201928470466493,0.825771506102024,"ssf","mf.is","exp","vonmises",15,"ssfOUT_60_1_3_VULTURE","VULTURE",3,1,60,"preference"
"ssfOUT_60_1_3_VULTURE.13",0.501381988711661,0.195086838242694,0.807677139180629,"ssf","mf.is","exp","vonmises",50,"ssfOUT_60_1_3_VULTURE","VULTURE",3,1,60,"preference"
"ssfOUT_60_1_3_VULTURE.14",0.504141957100945,0.201342209882597,0.806941704319293,"ssf","mf.is","exp","vonmises",158,"ssfOUT_60_1_3_VULTURE","VULTURE",3,1,60,"preference"
"ssfOUT_60_1_3_VULTURE.15",0.495969374180654,0.194014072141512,0.797924676219796,"ssf","mf.is","exp","vonmises",500,"ssfOUT_60_1_3_VULTURE","VULTURE",3,1,60,"preference"
"ssfOUT_60_1_3_VULTURE.16",0.143253028829899,-0.208271244861209,0.494777302521007,"ssf","mf.is","exp","unif",5,"ssfOUT_60_1_3_VULTURE","VULTURE",3,1,60,"no effect"
"ssfOUT_60_1_3_VULTURE.17",0.678688109477974,0.365489553940771,0.991886665015178,"ssf","mf.is","exp","unif",15,"ssfOUT_60_1_3_VULTURE","VULTURE",3,1,60,"preference"
"ssfOUT_60_1_3_VULTURE.18",0.469905631465133,0.165884897045247,0.773926365885019,"ssf","mf.is","exp","unif",50,"ssfOUT_60_1_3_VULTURE","VULTURE",3,1,60,"preference"
"ssfOUT_60_1_3_VULTURE.19",0.523465418791491,0.220586297871572,0.82634453971141,"ssf","mf.is","exp","unif",158,"ssfOUT_60_1_3_VULTURE","VULTURE",3,1,60,"preference"
"ssfOUT_60_1_3_VULTURE.20",0.472361350104797,0.170154896677557,0.774567803532037,"ssf","mf.is","exp","unif",500,"ssfOUT_60_1_3_VULTURE","VULTURE",3,1,60,"preference"
"ssfOUT_60_1_3_VULTURE.21",0.118871288955173,-0.216221976826918,0.453964554737264,"ssf","mf.ss","gamma","vonmises",5,"ssfOUT_60_1_3_VULTURE","VULTURE",3,1,60,"no effect"
"ssfOUT_60_1_3_VULTURE.22",0.563654615871196,0.251276161167373,0.87603307057502,"ssf","mf.ss","gamma","vonmises",15,"ssfOUT_60_1_3_VULTURE","VULTURE",3,1,60,"preference"
"ssfOUT_60_1_3_VULTURE.23",0.514997024309823,0.210962139169666,0.81903190944998,"ssf","mf.ss","gamma","vonmises",50,"ssfOUT_60_1_3_VULTURE","VULTURE",3,1,60,"preference"
"ssfOUT_60_1_3_VULTURE.24",0.490557864780177,0.188562953783407,0.792552775776946,"ssf","mf.ss","gamma","vonmises",158,"ssfOUT_60_1_3_VULTURE","VULTURE",3,1,60,"preference"
"ssfOUT_60_1_3_VULTURE.25",0.514892586825667,0.21237042631115,0.817414747340184,"ssf","mf.ss","gamma","vonmises",500,"ssfOUT_60_1_3_VULTURE","VULTURE",3,1,60,"preference"
"ssfOUT_60_1_3_VULTURE.26",0.787641675933601,0.461927588585222,1.11335576328198,"ssf","mf.ss","gamma","unif",5,"ssfOUT_60_1_3_VULTURE","VULTURE",3,1,60,"preference"
"ssfOUT_60_1_3_VULTURE.27",0.537058068663663,0.227151928272707,0.846964209054618,"ssf","mf.ss","gamma","unif",15,"ssfOUT_60_1_3_VULTURE","VULTURE",3,1,60,"preference"
"ssfOUT_60_1_3_VULTURE.28",0.51445287716553,0.210539594382272,0.818366159948789,"ssf","mf.ss","gamma","unif",50,"ssfOUT_60_1_3_VULTURE","VULTURE",3,1,60,"preference"
"ssfOUT_60_1_3_VULTURE.29",0.47001846410191,0.166928762033694,0.773108166170126,"ssf","mf.ss","gamma","unif",158,"ssfOUT_60_1_3_VULTURE","VULTURE",3,1,60,"preference"
"ssfOUT_60_1_3_VULTURE.30",0.508189590023462,0.205967796573803,0.81041138347312,"ssf","mf.ss","gamma","unif",500,"ssfOUT_60_1_3_VULTURE","VULTURE",3,1,60,"preference"
"ssfOUT_60_1_3_VULTURE.31",0.348512191975139,0.027515285700233,0.669509098250045,"ssf","mf.ss","exp","vonmises",5,"ssfOUT_60_1_3_VULTURE","VULTURE",3,1,60,"preference"
"ssfOUT_60_1_3_VULTURE.32",0.514975070783441,0.204636555415035,0.825313586151846,"ssf","mf.ss","exp","vonmises",15,"ssfOUT_60_1_3_VULTURE","VULTURE",3,1,60,"preference"
"ssfOUT_60_1_3_VULTURE.33",0.509188912354766,0.203415511277492,0.814962313432041,"ssf","mf.ss","exp","vonmises",50,"ssfOUT_60_1_3_VULTURE","VULTURE",3,1,60,"preference"
"ssfOUT_60_1_3_VULTURE.34",0.486417813124026,0.183614555362329,0.789221070885724,"ssf","mf.ss","exp","vonmises",158,"ssfOUT_60_1_3_VULTURE","VULTURE",3,1,60,"preference"
"ssfOUT_60_1_3_VULTURE.35",0.495291082980616,0.192693844668553,0.797888321292679,"ssf","mf.ss","exp","vonmises",500,"ssfOUT_60_1_3_VULTURE","VULTURE",3,1,60,"preference"
"ssfOUT_60_1_3_VULTURE.36",0.149728896239174,-0.18742833054742,0.486886123025767,"ssf","mf.ss","exp","unif",5,"ssfOUT_60_1_3_VULTURE","VULTURE",3,1,60,"no effect"
"ssfOUT_60_1_3_VULTURE.37",0.577284516810603,0.266017338494203,0.888551695127004,"ssf","mf.ss","exp","unif",15,"ssfOUT_60_1_3_VULTURE","VULTURE",3,1,60,"preference"
"ssfOUT_60_1_3_VULTURE.38",0.465819658357018,0.162675417019936,0.768963899694101,"ssf","mf.ss","exp","unif",50,"ssfOUT_60_1_3_VULTURE","VULTURE",3,1,60,"preference"
"ssfOUT_60_1_3_VULTURE.39",0.520756998902265,0.217279619517903,0.824234378286626,"ssf","mf.ss","exp","unif",158,"ssfOUT_60_1_3_VULTURE","VULTURE",3,1,60,"preference"
"ssfOUT_60_1_3_VULTURE.40",0.480840478988932,0.178236412766882,0.783444545210983,"ssf","mf.ss","exp","unif",500,"ssfOUT_60_1_3_VULTURE","VULTURE",3,1,60,"preference"
"ssfOUT_60_1_3_KINGCOBRA.1",1.30798182329585,0.189202058899237,2.42676158769245,"ssf","mf.is","gamma","vonmises",5,"ssfOUT_60_1_3_KINGCOBRA","KINGCOBRA",3,1,60,"preference"
"ssfOUT_60_1_3_KINGCOBRA.2",1.59031340555595,0.541367826571065,2.63925898454083,"ssf","mf.is","gamma","vonmises",15,"ssfOUT_60_1_3_KINGCOBRA","KINGCOBRA",3,1,60,"preference"
"ssfOUT_60_1_3_KINGCOBRA.3",1.23954845021368,0.186898773970446,2.29219812645691,"ssf","mf.is","gamma","vonmises",50,"ssfOUT_60_1_3_KINGCOBRA","KINGCOBRA",3,1,60,"preference"
"ssfOUT_60_1_3_KINGCOBRA.4",1.38300449842358,0.337379866290495,2.42862913055667,"ssf","mf.is","gamma","vonmises",158,"ssfOUT_60_1_3_KINGCOBRA","KINGCOBRA",3,1,60,"preference"
"ssfOUT_60_1_3_KINGCOBRA.5",1.41300957638234,0.351963400698814,2.47405575206586,"ssf","mf.is","gamma","vonmises",500,"ssfOUT_60_1_3_KINGCOBRA","KINGCOBRA",3,1,60,"preference"
"ssfOUT_60_1_3_KINGCOBRA.6",1.30761409568738,0.168428816208586,2.44679937516618,"ssf","mf.is","gamma","unif",5,"ssfOUT_60_1_3_KINGCOBRA","KINGCOBRA",3,1,60,"preference"
"ssfOUT_60_1_3_KINGCOBRA.7",1.11698758984473,0.0371509235582854,2.19682425613117,"ssf","mf.is","gamma","unif",15,"ssfOUT_60_1_3_KINGCOBRA","KINGCOBRA",3,1,60,"preference"
"ssfOUT_60_1_3_KINGCOBRA.8",1.39536215154321,0.342554491044135,2.44816981204229,"ssf","mf.is","gamma","unif",50,"ssfOUT_60_1_3_KINGCOBRA","KINGCOBRA",3,1,60,"preference"
"ssfOUT_60_1_3_KINGCOBRA.9",1.29297083741869,0.224726410295984,2.36121526454139,"ssf","mf.is","gamma","unif",158,"ssfOUT_60_1_3_KINGCOBRA","KINGCOBRA",3,1,60,"preference"
"ssfOUT_60_1_3_KINGCOBRA.10",1.43704479424483,0.380995939851267,2.49309364863839,"ssf","mf.is","gamma","unif",500,"ssfOUT_60_1_3_KINGCOBRA","KINGCOBRA",3,1,60,"preference"
"ssfOUT_60_1_3_KINGCOBRA.11",2.0116865150377,0.760705138528353,3.26266789154704,"ssf","mf.is","exp","vonmises",5,"ssfOUT_60_1_3_KINGCOBRA","KINGCOBRA",3,1,60,"preference"
"ssfOUT_60_1_3_KINGCOBRA.12",2.27501691425861,1.09999592609905,3.45003790241816,"ssf","mf.is","exp","vonmises",15,"ssfOUT_60_1_3_KINGCOBRA","KINGCOBRA",3,1,60,"preference"
"ssfOUT_60_1_3_KINGCOBRA.13",1.2439870126874,0.133815783383235,2.35415824199156,"ssf","mf.is","exp","vonmises",50,"ssfOUT_60_1_3_KINGCOBRA","KINGCOBRA",3,1,60,"preference"
"ssfOUT_60_1_3_KINGCOBRA.14",1.57140510772249,0.470801179116685,2.67200903632829,"ssf","mf.is","exp","vonmises",158,"ssfOUT_60_1_3_KINGCOBRA","KINGCOBRA",3,1,60,"preference"
"ssfOUT_60_1_3_KINGCOBRA.15",1.32145595371425,0.239078721174823,2.40383318625368,"ssf","mf.is","exp","vonmises",500,"ssfOUT_60_1_3_KINGCOBRA","KINGCOBRA",3,1,60,"preference"
"ssfOUT_60_1_3_KINGCOBRA.16",1.17801461772014,-0.0499662901506022,2.40599552559088,"ssf","mf.is","exp","unif",5,"ssfOUT_60_1_3_KINGCOBRA","KINGCOBRA",3,1,60,"no effect"
"ssfOUT_60_1_3_KINGCOBRA.17",0.809866813294812,-0.287302577037128,1.90703620362675,"ssf","mf.is","exp","unif",15,"ssfOUT_60_1_3_KINGCOBRA","KINGCOBRA",3,1,60,"no effect"
"ssfOUT_60_1_3_KINGCOBRA.18",1.22251371911915,0.14380191159803,2.30122552664026,"ssf","mf.is","exp","unif",50,"ssfOUT_60_1_3_KINGCOBRA","KINGCOBRA",3,1,60,"preference"
"ssfOUT_60_1_3_KINGCOBRA.19",1.44678418686851,0.353415876297426,2.5401524974396,"ssf","mf.is","exp","unif",158,"ssfOUT_60_1_3_KINGCOBRA","KINGCOBRA",3,1,60,"preference"
"ssfOUT_60_1_3_KINGCOBRA.20",1.30184521811143,0.244699569456569,2.35899086676629,"ssf","mf.is","exp","unif",500,"ssfOUT_60_1_3_KINGCOBRA","KINGCOBRA",3,1,60,"preference"
"ssfOUT_60_1_3_KINGCOBRA.21",1.19626839908326,0.0744286218623695,2.31810817630416,"ssf","mf.ss","gamma","vonmises",5,"ssfOUT_60_1_3_KINGCOBRA","KINGCOBRA",3,1,60,"preference"
"ssfOUT_60_1_3_KINGCOBRA.22",1.48740580256857,0.437564095080021,2.53724751005712,"ssf","mf.ss","gamma","vonmises",15,"ssfOUT_60_1_3_KINGCOBRA","KINGCOBRA",3,1,60,"preference"
"ssfOUT_60_1_3_KINGCOBRA.23",1.15425904098336,0.096493683373907,2.21202439859281,"ssf","mf.ss","gamma","vonmises",50,"ssfOUT_60_1_3_KINGCOBRA","KINGCOBRA",3,1,60,"preference"
"ssfOUT_60_1_3_KINGCOBRA.24",1.31329879283015,0.266453979894204,2.36014360576609,"ssf","mf.ss","gamma","vonmises",158,"ssfOUT_60_1_3_KINGCOBRA","KINGCOBRA",3,1,60,"preference"
"ssfOUT_60_1_3_KINGCOBRA.25",1.34955268895632,0.286280439332716,2.41282493857992,"ssf","mf.ss","gamma","vonmises",500,"ssfOUT_60_1_3_KINGCOBRA","KINGCOBRA",3,1,60,"preference"
"ssfOUT_60_1_3_KINGCOBRA.26",1.25447154228522,0.10844950821633,2.40049357635411,"ssf","mf.ss","gamma","unif",5,"ssfOUT_60_1_3_KINGCOBRA","KINGCOBRA",3,1,60,"preference"
"ssfOUT_60_1_3_KINGCOBRA.27",1.09325544765541,0.0112979574890657,2.17521293782174,"ssf","mf.ss","gamma","unif",15,"ssfOUT_60_1_3_KINGCOBRA","KINGCOBRA",3,1,60,"preference"
"ssfOUT_60_1_3_KINGCOBRA.28",1.34898490054424,0.29509274471616,2.40287705637233,"ssf","mf.ss","gamma","unif",50,"ssfOUT_60_1_3_KINGCOBRA","KINGCOBRA",3,1,60,"preference"
"ssfOUT_60_1_3_KINGCOBRA.29",1.25654889013951,0.185148537245856,2.32794924303316,"ssf","mf.ss","gamma","unif",158,"ssfOUT_60_1_3_KINGCOBRA","KINGCOBRA",3,1,60,"preference"
"ssfOUT_60_1_3_KINGCOBRA.30",1.39568202840487,0.337247974461535,2.45411608234821,"ssf","mf.ss","gamma","unif",500,"ssfOUT_60_1_3_KINGCOBRA","KINGCOBRA",3,1,60,"preference"
"ssfOUT_60_1_3_KINGCOBRA.31",1.46665927241777,0.321326105383792,2.61199243945175,"ssf","mf.ss","exp","vonmises",5,"ssfOUT_60_1_3_KINGCOBRA","KINGCOBRA",3,1,60,"preference"
"ssfOUT_60_1_3_KINGCOBRA.32",1.56404235087321,0.478169164290389,2.64991553745603,"ssf","mf.ss","exp","vonmises",15,"ssfOUT_60_1_3_KINGCOBRA","KINGCOBRA",3,1,60,"preference"
"ssfOUT_60_1_3_KINGCOBRA.33",1.36425786098759,0.284327332961399,2.44418838901378,"ssf","mf.ss","exp","vonmises",50,"ssfOUT_60_1_3_KINGCOBRA","KINGCOBRA",3,1,60,"preference"
"ssfOUT_60_1_3_KINGCOBRA.34",1.39914737458228,0.331010145060511,2.46728460410406,"ssf","mf.ss","exp","vonmises",158,"ssfOUT_60_1_3_KINGCOBRA","KINGCOBRA",3,1,60,"preference"
"ssfOUT_60_1_3_KINGCOBRA.35",1.32002603990473,0.257735106024395,2.38231697378507,"ssf","mf.ss","exp","vonmises",500,"ssfOUT_60_1_3_KINGCOBRA","KINGCOBRA",3,1,60,"preference"
"ssfOUT_60_1_3_KINGCOBRA.36",1.61606406334846,0.489343865182587,2.74278426151434,"ssf","mf.ss","exp","unif",5,"ssfOUT_60_1_3_KINGCOBRA","KINGCOBRA",3,1,60,"preference"
"ssfOUT_60_1_3_KINGCOBRA.37",1.47481825749276,0.344334288170242,2.60530222681528,"ssf","mf.ss","exp","unif",15,"ssfOUT_60_1_3_KINGCOBRA","KINGCOBRA",3,1,60,"preference"
"ssfOUT_60_1_3_KINGCOBRA.38",1.36603999327607,0.314776130074622,2.41730385647751,"ssf","mf.ss","exp","unif",50,"ssfOUT_60_1_3_KINGCOBRA","KINGCOBRA",3,1,60,"preference"
"ssfOUT_60_1_3_KINGCOBRA.39",1.36745874361415,0.306305675621112,2.42861181160719,"ssf","mf.ss","exp","unif",158,"ssfOUT_60_1_3_KINGCOBRA","KINGCOBRA",3,1,60,"preference"
"ssfOUT_60_1_3_KINGCOBRA.40",1.40563668339241,0.341114787950946,2.47015857883387,"ssf","mf.ss","exp","unif",500,"ssfOUT_60_1_3_KINGCOBRA","KINGCOBRA",3,1,60,"preference"
"ssfOUT_60_1_4_BADGER.1",0.705772995801255,0.399780122850872,1.01176586875164,"ssf","mf.is","gamma","vonmises",5,"ssfOUT_60_1_4_BADGER","BADGER",4,1,60,"preference"
"ssfOUT_60_1_4_BADGER.2",0.905673825792144,0.617197372196102,1.19415027938819,"ssf","mf.is","gamma","vonmises",15,"ssfOUT_60_1_4_BADGER","BADGER",4,1,60,"preference"
"ssfOUT_60_1_4_BADGER.3",0.921461365216312,0.63540976200085,1.20751296843177,"ssf","mf.is","gamma","vonmises",50,"ssfOUT_60_1_4_BADGER","BADGER",4,1,60,"preference"
"ssfOUT_60_1_4_BADGER.4",0.863035356534038,0.580413349731861,1.14565736333622,"ssf","mf.is","gamma","vonmises",158,"ssfOUT_60_1_4_BADGER","BADGER",4,1,60,"preference"
"ssfOUT_60_1_4_BADGER.5",0.865857660255891,0.582952236031581,1.1487630844802,"ssf","mf.is","gamma","vonmises",500,"ssfOUT_60_1_4_BADGER","BADGER",4,1,60,"preference"
"ssfOUT_60_1_4_BADGER.6",1.06058847636825,0.752093061018931,1.36908389171756,"ssf","mf.is","gamma","unif",5,"ssfOUT_60_1_4_BADGER","BADGER",4,1,60,"preference"
"ssfOUT_60_1_4_BADGER.7",0.796858533849945,0.508178829913078,1.08553823778681,"ssf","mf.is","gamma","unif",15,"ssfOUT_60_1_4_BADGER","BADGER",4,1,60,"preference"
"ssfOUT_60_1_4_BADGER.8",0.872092069103749,0.588647502012569,1.15553663619493,"ssf","mf.is","gamma","unif",50,"ssfOUT_60_1_4_BADGER","BADGER",4,1,60,"preference"
"ssfOUT_60_1_4_BADGER.9",0.852342007037066,0.569554181423139,1.13512983265099,"ssf","mf.is","gamma","unif",158,"ssfOUT_60_1_4_BADGER","BADGER",4,1,60,"preference"
"ssfOUT_60_1_4_BADGER.10",0.883668492331871,0.600374841261468,1.16696214340227,"ssf","mf.is","gamma","unif",500,"ssfOUT_60_1_4_BADGER","BADGER",4,1,60,"preference"
"ssfOUT_60_1_4_BADGER.11",0.800794673293211,0.501814432129213,1.09977491445721,"ssf","mf.is","exp","vonmises",5,"ssfOUT_60_1_4_BADGER","BADGER",4,1,60,"preference"
"ssfOUT_60_1_4_BADGER.12",0.853064499836924,0.566687426471339,1.13944157320251,"ssf","mf.is","exp","vonmises",15,"ssfOUT_60_1_4_BADGER","BADGER",4,1,60,"preference"
"ssfOUT_60_1_4_BADGER.13",0.925095793289368,0.639809320631228,1.21038226594751,"ssf","mf.is","exp","vonmises",50,"ssfOUT_60_1_4_BADGER","BADGER",4,1,60,"preference"
"ssfOUT_60_1_4_BADGER.14",0.889646639174628,0.607226290354792,1.17206698799446,"ssf","mf.is","exp","vonmises",158,"ssfOUT_60_1_4_BADGER","BADGER",4,1,60,"preference"
"ssfOUT_60_1_4_BADGER.15",0.859923246339184,0.577273807271183,1.14257268540719,"ssf","mf.is","exp","vonmises",500,"ssfOUT_60_1_4_BADGER","BADGER",4,1,60,"preference"
"ssfOUT_60_1_4_BADGER.16",0.600213687272525,0.299642388515354,0.900784986029696,"ssf","mf.is","exp","unif",5,"ssfOUT_60_1_4_BADGER","BADGER",4,1,60,"preference"
"ssfOUT_60_1_4_BADGER.17",0.84954993120984,0.559912040496774,1.1391878219229,"ssf","mf.is","exp","unif",15,"ssfOUT_60_1_4_BADGER","BADGER",4,1,60,"preference"
"ssfOUT_60_1_4_BADGER.18",0.857581758636881,0.574078446752221,1.14108507052154,"ssf","mf.is","exp","unif",50,"ssfOUT_60_1_4_BADGER","BADGER",4,1,60,"preference"
"ssfOUT_60_1_4_BADGER.19",0.896543064071501,0.613305065105196,1.17978106303781,"ssf","mf.is","exp","unif",158,"ssfOUT_60_1_4_BADGER","BADGER",4,1,60,"preference"
"ssfOUT_60_1_4_BADGER.20",0.880303865318746,0.597597357486005,1.16301037315149,"ssf","mf.is","exp","unif",500,"ssfOUT_60_1_4_BADGER","BADGER",4,1,60,"preference"
"ssfOUT_60_1_4_BADGER.21",0.68934502306869,0.382862690238791,0.99582735589859,"ssf","mf.ss","gamma","vonmises",5,"ssfOUT_60_1_4_BADGER","BADGER",4,1,60,"preference"
"ssfOUT_60_1_4_BADGER.22",0.88726464315075,0.598276642990392,1.17625264331111,"ssf","mf.ss","gamma","vonmises",15,"ssfOUT_60_1_4_BADGER","BADGER",4,1,60,"preference"
"ssfOUT_60_1_4_BADGER.23",0.912129369684801,0.625453186776165,1.19880555259344,"ssf","mf.ss","gamma","vonmises",50,"ssfOUT_60_1_4_BADGER","BADGER",4,1,60,"preference"
"ssfOUT_60_1_4_BADGER.24",0.851877995812201,0.568717602817591,1.13503838880681,"ssf","mf.ss","gamma","vonmises",158,"ssfOUT_60_1_4_BADGER","BADGER",4,1,60,"preference"
"ssfOUT_60_1_4_BADGER.25",0.855885013715207,0.572470292301051,1.13929973512936,"ssf","mf.ss","gamma","vonmises",500,"ssfOUT_60_1_4_BADGER","BADGER",4,1,60,"preference"
"ssfOUT_60_1_4_BADGER.26",1.05089015365752,0.742674506974741,1.35910580034029,"ssf","mf.ss","gamma","unif",5,"ssfOUT_60_1_4_BADGER","BADGER",4,1,60,"preference"
"ssfOUT_60_1_4_BADGER.27",0.796012360735539,0.50711844944091,1.08490627203017,"ssf","mf.ss","gamma","unif",15,"ssfOUT_60_1_4_BADGER","BADGER",4,1,60,"preference"
"ssfOUT_60_1_4_BADGER.28",0.868036130961933,0.584316441664091,1.15175582025977,"ssf","mf.ss","gamma","unif",50,"ssfOUT_60_1_4_BADGER","BADGER",4,1,60,"preference"
"ssfOUT_60_1_4_BADGER.29",0.849157362419215,0.565916899466337,1.13239782537209,"ssf","mf.ss","gamma","unif",158,"ssfOUT_60_1_4_BADGER","BADGER",4,1,60,"preference"
"ssfOUT_60_1_4_BADGER.30",0.881550686399213,0.59775873389973,1.1653426388987,"ssf","mf.ss","gamma","unif",500,"ssfOUT_60_1_4_BADGER","BADGER",4,1,60,"preference"
"ssfOUT_60_1_4_BADGER.31",0.826831630874073,0.527794109354038,1.12586915239411,"ssf","mf.ss","exp","vonmises",5,"ssfOUT_60_1_4_BADGER","BADGER",4,1,60,"preference"
"ssfOUT_60_1_4_BADGER.32",0.826054371574347,0.539807438821235,1.11230130432746,"ssf","mf.ss","exp","vonmises",15,"ssfOUT_60_1_4_BADGER","BADGER",4,1,60,"preference"
"ssfOUT_60_1_4_BADGER.33",0.919284189012849,0.634638987934879,1.20392939009082,"ssf","mf.ss","exp","vonmises",50,"ssfOUT_60_1_4_BADGER","BADGER",4,1,60,"preference"
"ssfOUT_60_1_4_BADGER.34",0.892821628735649,0.611030690851789,1.17461256661951,"ssf","mf.ss","exp","vonmises",158,"ssfOUT_60_1_4_BADGER","BADGER",4,1,60,"preference"
"ssfOUT_60_1_4_BADGER.35",0.857683817480321,0.57586750873326,1.13950012622738,"ssf","mf.ss","exp","vonmises",500,"ssfOUT_60_1_4_BADGER","BADGER",4,1,60,"preference"
"ssfOUT_60_1_4_BADGER.36",0.674273349237133,0.374016949402723,0.974529749071543,"ssf","mf.ss","exp","unif",5,"ssfOUT_60_1_4_BADGER","BADGER",4,1,60,"preference"
"ssfOUT_60_1_4_BADGER.37",0.871412073495392,0.582696454915544,1.16012769207524,"ssf","mf.ss","exp","unif",15,"ssfOUT_60_1_4_BADGER","BADGER",4,1,60,"preference"
"ssfOUT_60_1_4_BADGER.38",0.886224210895669,0.603179802082443,1.16926861970889,"ssf","mf.ss","exp","unif",50,"ssfOUT_60_1_4_BADGER","BADGER",4,1,60,"preference"
"ssfOUT_60_1_4_BADGER.39",0.900988041730031,0.618303549793142,1.18367253366692,"ssf","mf.ss","exp","unif",158,"ssfOUT_60_1_4_BADGER","BADGER",4,1,60,"preference"
"ssfOUT_60_1_4_BADGER.40",0.887749193052397,0.605682491989576,1.16981589411522,"ssf","mf.ss","exp","unif",500,"ssfOUT_60_1_4_BADGER","BADGER",4,1,60,"preference"
"ssfOUT_60_1_4_VULTURE.1",0.0454522872679659,-0.158665889395223,0.249570463931154,"ssf","mf.is","gamma","vonmises",5,"ssfOUT_60_1_4_VULTURE","VULTURE",4,1,60,"no effect"
"ssfOUT_60_1_4_VULTURE.2",-0.088658764857017,-0.281490183679724,0.10417265396569,"ssf","mf.is","gamma","vonmises",15,"ssfOUT_60_1_4_VULTURE","VULTURE",4,1,60,"no effect"
"ssfOUT_60_1_4_VULTURE.3",-0.0263633979379918,-0.213965893382657,0.161239097506674,"ssf","mf.is","gamma","vonmises",50,"ssfOUT_60_1_4_VULTURE","VULTURE",4,1,60,"no effect"
"ssfOUT_60_1_4_VULTURE.4",-0.0300475250451876,-0.216082065224214,0.155987015133838,"ssf","mf.is","gamma","vonmises",158,"ssfOUT_60_1_4_VULTURE","VULTURE",4,1,60,"no effect"
"ssfOUT_60_1_4_VULTURE.5",-0.00890687805611465,-0.194726521357805,0.176912765245575,"ssf","mf.is","gamma","vonmises",500,"ssfOUT_60_1_4_VULTURE","VULTURE",4,1,60,"no effect"
"ssfOUT_60_1_4_VULTURE.6",-0.0470640016805845,-0.255210040896063,0.161082037534894,"ssf","mf.is","gamma","unif",5,"ssfOUT_60_1_4_VULTURE","VULTURE",4,1,60,"no effect"
"ssfOUT_60_1_4_VULTURE.7",0.0839587536961089,-0.108427894218017,0.276345401610235,"ssf","mf.is","gamma","unif",15,"ssfOUT_60_1_4_VULTURE","VULTURE",4,1,60,"no effect"
"ssfOUT_60_1_4_VULTURE.8",0.0103037036084771,-0.177250649510404,0.197858056727359,"ssf","mf.is","gamma","unif",50,"ssfOUT_60_1_4_VULTURE","VULTURE",4,1,60,"no effect"
"ssfOUT_60_1_4_VULTURE.9",-0.0231361174869289,-0.209368998208168,0.16309676323431,"ssf","mf.is","gamma","unif",158,"ssfOUT_60_1_4_VULTURE","VULTURE",4,1,60,"no effect"
"ssfOUT_60_1_4_VULTURE.10",-0.00651050703993806,-0.192114354580168,0.179093340500292,"ssf","mf.is","gamma","unif",500,"ssfOUT_60_1_4_VULTURE","VULTURE",4,1,60,"no effect"
"ssfOUT_60_1_4_VULTURE.11",-0.103557010638026,-0.315199705687184,0.108085684411133,"ssf","mf.is","exp","vonmises",5,"ssfOUT_60_1_4_VULTURE","VULTURE",4,1,60,"no effect"
"ssfOUT_60_1_4_VULTURE.12",-0.0801126669374248,-0.274499551613658,0.114274217738809,"ssf","mf.is","exp","vonmises",15,"ssfOUT_60_1_4_VULTURE","VULTURE",4,1,60,"no effect"
"ssfOUT_60_1_4_VULTURE.13",-0.0210365666310758,-0.209948483758445,0.167875350496294,"ssf","mf.is","exp","vonmises",50,"ssfOUT_60_1_4_VULTURE","VULTURE",4,1,60,"no effect"
"ssfOUT_60_1_4_VULTURE.14",0.00552977354761051,-0.180420914751599,0.19148046184682,"ssf","mf.is","exp","vonmises",158,"ssfOUT_60_1_4_VULTURE","VULTURE",4,1,60,"no effect"
"ssfOUT_60_1_4_VULTURE.15",-0.000835424187017904,-0.186682361476428,0.185011513102392,"ssf","mf.is","exp","vonmises",500,"ssfOUT_60_1_4_VULTURE","VULTURE",4,1,60,"no effect"
"ssfOUT_60_1_4_VULTURE.16",-0.0550723869154894,-0.275302126511748,0.165157352680769,"ssf","mf.is","exp","unif",5,"ssfOUT_60_1_4_VULTURE","VULTURE",4,1,60,"no effect"
"ssfOUT_60_1_4_VULTURE.17",0.0122756880404511,-0.183041610293619,0.207592986374521,"ssf","mf.is","exp","unif",15,"ssfOUT_60_1_4_VULTURE","VULTURE",4,1,60,"no effect"
"ssfOUT_60_1_4_VULTURE.18",-0.0210084993187951,-0.209159000579453,0.167142001941862,"ssf","mf.is","exp","unif",50,"ssfOUT_60_1_4_VULTURE","VULTURE",4,1,60,"no effect"
"ssfOUT_60_1_4_VULTURE.19",0.00408430623843914,-0.181945698528038,0.190114311004916,"ssf","mf.is","exp","unif",158,"ssfOUT_60_1_4_VULTURE","VULTURE",4,1,60,"no effect"
"ssfOUT_60_1_4_VULTURE.20",0.00606884062837084,-0.179559009956927,0.191696691213669,"ssf","mf.is","exp","unif",500,"ssfOUT_60_1_4_VULTURE","VULTURE",4,1,60,"no effect"
"ssfOUT_60_1_4_VULTURE.21",0.045870095942032,-0.158284638973595,0.250024830857659,"ssf","mf.ss","gamma","vonmises",5,"ssfOUT_60_1_4_VULTURE","VULTURE",4,1,60,"no effect"
"ssfOUT_60_1_4_VULTURE.22",-0.090456982282475,-0.28336014235279,0.10244617778784,"ssf","mf.ss","gamma","vonmises",15,"ssfOUT_60_1_4_VULTURE","VULTURE",4,1,60,"no effect"
"ssfOUT_60_1_4_VULTURE.23",-0.0272775027630482,-0.214877023613887,0.16032201808779,"ssf","mf.ss","gamma","vonmises",50,"ssfOUT_60_1_4_VULTURE","VULTURE",4,1,60,"no effect"
"ssfOUT_60_1_4_VULTURE.24",-0.0309985081092786,-0.217083763947623,0.155086747729066,"ssf","mf.ss","gamma","vonmises",158,"ssfOUT_60_1_4_VULTURE","VULTURE",4,1,60,"no effect"
"ssfOUT_60_1_4_VULTURE.25",-0.00962825925609435,-0.195468463969926,0.176211945457737,"ssf","mf.ss","gamma","vonmises",500,"ssfOUT_60_1_4_VULTURE","VULTURE",4,1,60,"no effect"
"ssfOUT_60_1_4_VULTURE.26",-0.0497089713772226,-0.256377552698479,0.156959609944034,"ssf","mf.ss","gamma","unif",5,"ssfOUT_60_1_4_VULTURE","VULTURE",4,1,60,"no effect"
"ssfOUT_60_1_4_VULTURE.27",0.0686923271867173,-0.122838170456206,0.26022282482964,"ssf","mf.ss","gamma","unif",15,"ssfOUT_60_1_4_VULTURE","VULTURE",4,1,60,"no effect"
"ssfOUT_60_1_4_VULTURE.28",0.0144510827693999,-0.172845361318577,0.201747526857377,"ssf","mf.ss","gamma","unif",50,"ssfOUT_60_1_4_VULTURE","VULTURE",4,1,60,"no effect"
"ssfOUT_60_1_4_VULTURE.29",-0.0210323948913715,-0.207115659892336,0.165050870109593,"ssf","mf.ss","gamma","unif",158,"ssfOUT_60_1_4_VULTURE","VULTURE",4,1,60,"no effect"
"ssfOUT_60_1_4_VULTURE.30",-0.00167140647179452,-0.187080069693154,0.183737256749565,"ssf","mf.ss","gamma","unif",500,"ssfOUT_60_1_4_VULTURE","VULTURE",4,1,60,"no effect"
"ssfOUT_60_1_4_VULTURE.31",0.0266485663330674,-0.179748181873317,0.233045314539452,"ssf","mf.ss","exp","vonmises",5,"ssfOUT_60_1_4_VULTURE","VULTURE",4,1,60,"no effect"
"ssfOUT_60_1_4_VULTURE.32",0.017141425442802,-0.176444219453025,0.210727070338629,"ssf","mf.ss","exp","vonmises",15,"ssfOUT_60_1_4_VULTURE","VULTURE",4,1,60,"no effect"
"ssfOUT_60_1_4_VULTURE.33",0.0628415255738037,-0.126949226737088,0.252632277884695,"ssf","mf.ss","exp","vonmises",50,"ssfOUT_60_1_4_VULTURE","VULTURE",4,1,60,"no effect"
"ssfOUT_60_1_4_VULTURE.34",0.070508843126516,-0.117570757657815,0.258588443910847,"ssf","mf.ss","exp","vonmises",158,"ssfOUT_60_1_4_VULTURE","VULTURE",4,1,60,"no effect"
"ssfOUT_60_1_4_VULTURE.35",0.0607607235565205,-0.127062335069822,0.248583782182863,"ssf","mf.ss","exp","vonmises",500,"ssfOUT_60_1_4_VULTURE","VULTURE",4,1,60,"no effect"
"ssfOUT_60_1_4_VULTURE.36",0.0243452423866655,-0.183364053614928,0.232054538388259,"ssf","mf.ss","exp","unif",5,"ssfOUT_60_1_4_VULTURE","VULTURE",4,1,60,"no effect"
"ssfOUT_60_1_4_VULTURE.37",0.0536526141716778,-0.139224743766043,0.246529972109398,"ssf","mf.ss","exp","unif",15,"ssfOUT_60_1_4_VULTURE","VULTURE",4,1,60,"no effect"
"ssfOUT_60_1_4_VULTURE.38",0.0527845024040389,-0.13672604270383,0.242295047511908,"ssf","mf.ss","exp","unif",50,"ssfOUT_60_1_4_VULTURE","VULTURE",4,1,60,"no effect"
"ssfOUT_60_1_4_VULTURE.39",0.0555209413690896,-0.132518596587903,0.243560479326082,"ssf","mf.ss","exp","unif",158,"ssfOUT_60_1_4_VULTURE","VULTURE",4,1,60,"no effect"
"ssfOUT_60_1_4_VULTURE.40",0.0659071826357152,-0.121844829532846,0.253659194804276,"ssf","mf.ss","exp","unif",500,"ssfOUT_60_1_4_VULTURE","VULTURE",4,1,60,"no effect"
"ssfOUT_60_1_4_KINGCOBRA.1",0.670868758068446,0.227806144077454,1.11393137205944,"ssf","mf.is","gamma","vonmises",5,"ssfOUT_60_1_4_KINGCOBRA","KINGCOBRA",4,1,60,"preference"
"ssfOUT_60_1_4_KINGCOBRA.2",0.705711348422205,0.270376001979029,1.14104669486538,"ssf","mf.is","gamma","vonmises",15,"ssfOUT_60_1_4_KINGCOBRA","KINGCOBRA",4,1,60,"preference"
"ssfOUT_60_1_4_KINGCOBRA.3",0.654512191748431,0.223913948356336,1.08511043514053,"ssf","mf.is","gamma","vonmises",50,"ssfOUT_60_1_4_KINGCOBRA","KINGCOBRA",4,1,60,"preference"
"ssfOUT_60_1_4_KINGCOBRA.4",0.642468855901226,0.212909568864171,1.07202814293828,"ssf","mf.is","gamma","vonmises",158,"ssfOUT_60_1_4_KINGCOBRA","KINGCOBRA",4,1,60,"preference"
"ssfOUT_60_1_4_KINGCOBRA.5",0.666512806247918,0.239311586880089,1.09371402561575,"ssf","mf.is","gamma","vonmises",500,"ssfOUT_60_1_4_KINGCOBRA","KINGCOBRA",4,1,60,"preference"
"ssfOUT_60_1_4_KINGCOBRA.6",0.610881544710591,0.154041574716373,1.06772151470481,"ssf","mf.is","gamma","unif",5,"ssfOUT_60_1_4_KINGCOBRA","KINGCOBRA",4,1,60,"preference"
"ssfOUT_60_1_4_KINGCOBRA.7",0.678327961170574,0.244890637591326,1.11176528474982,"ssf","mf.is","gamma","unif",15,"ssfOUT_60_1_4_KINGCOBRA","KINGCOBRA",4,1,60,"preference"
"ssfOUT_60_1_4_KINGCOBRA.8",0.662501442680835,0.23281376023955,1.09218912512212,"ssf","mf.is","gamma","unif",50,"ssfOUT_60_1_4_KINGCOBRA","KINGCOBRA",4,1,60,"preference"
"ssfOUT_60_1_4_KINGCOBRA.9",0.695588390130775,0.26766636005475,1.1235104202068,"ssf","mf.is","gamma","unif",158,"ssfOUT_60_1_4_KINGCOBRA","KINGCOBRA",4,1,60,"preference"
"ssfOUT_60_1_4_KINGCOBRA.10",0.661354483912832,0.233607352221455,1.08910161560421,"ssf","mf.is","gamma","unif",500,"ssfOUT_60_1_4_KINGCOBRA","KINGCOBRA",4,1,60,"preference"
"ssfOUT_60_1_4_KINGCOBRA.11",0.425835213237396,-0.0259923090165186,0.87766273549131,"ssf","mf.is","exp","vonmises",5,"ssfOUT_60_1_4_KINGCOBRA","KINGCOBRA",4,1,60,"no effect"
"ssfOUT_60_1_4_KINGCOBRA.12",0.842079377537993,0.402166370319338,1.28199238475665,"ssf","mf.is","exp","vonmises",15,"ssfOUT_60_1_4_KINGCOBRA","KINGCOBRA",4,1,60,"preference"
"ssfOUT_60_1_4_KINGCOBRA.13",0.651968996354396,0.221882690980168,1.08205530172862,"ssf","mf.is","exp","vonmises",50,"ssfOUT_60_1_4_KINGCOBRA","KINGCOBRA",4,1,60,"preference"
"ssfOUT_60_1_4_KINGCOBRA.14",0.669219776757876,0.237037926962506,1.10140162655325,"ssf","mf.is","exp","vonmises",158,"ssfOUT_60_1_4_KINGCOBRA","KINGCOBRA",4,1,60,"preference"
"ssfOUT_60_1_4_KINGCOBRA.15",0.814945726609926,0.381017584632075,1.24887386858778,"ssf","mf.is","exp","vonmises",500,"ssfOUT_60_1_4_KINGCOBRA","KINGCOBRA",4,1,60,"preference"
"ssfOUT_60_1_4_KINGCOBRA.16",0.469853650829493,-0.000703573116137612,0.940410874775124,"ssf","mf.is","exp","unif",5,"ssfOUT_60_1_4_KINGCOBRA","KINGCOBRA",4,1,60,"no effect"
"ssfOUT_60_1_4_KINGCOBRA.17",0.56136259099783,0.114521053809747,1.00820412818591,"ssf","mf.is","exp","unif",15,"ssfOUT_60_1_4_KINGCOBRA","KINGCOBRA",4,1,60,"preference"
"ssfOUT_60_1_4_KINGCOBRA.18",0.616235251419641,0.182055734331004,1.05041476850828,"ssf","mf.is","exp","unif",50,"ssfOUT_60_1_4_KINGCOBRA","KINGCOBRA",4,1,60,"preference"
"ssfOUT_60_1_4_KINGCOBRA.19",0.770111226167028,0.327464675775741,1.21275777655831,"ssf","mf.is","exp","unif",158,"ssfOUT_60_1_4_KINGCOBRA","KINGCOBRA",4,1,60,"preference"
"ssfOUT_60_1_4_KINGCOBRA.20",0.611002672211542,0.18326405221054,1.03874129221254,"ssf","mf.is","exp","unif",500,"ssfOUT_60_1_4_KINGCOBRA","KINGCOBRA",4,1,60,"preference"
"ssfOUT_60_1_4_KINGCOBRA.21",0.656616597899069,0.216855358366287,1.09637783743185,"ssf","mf.ss","gamma","vonmises",5,"ssfOUT_60_1_4_KINGCOBRA","KINGCOBRA",4,1,60,"preference"
"ssfOUT_60_1_4_KINGCOBRA.22",0.682914525403662,0.249290744645958,1.11653830616137,"ssf","mf.ss","gamma","vonmises",15,"ssfOUT_60_1_4_KINGCOBRA","KINGCOBRA",4,1,60,"preference"
"ssfOUT_60_1_4_KINGCOBRA.23",0.664502544635539,0.233803231118637,1.09520185815244,"ssf","mf.ss","gamma","vonmises",50,"ssfOUT_60_1_4_KINGCOBRA","KINGCOBRA",4,1,60,"preference"
"ssfOUT_60_1_4_KINGCOBRA.24",0.634384868096238,0.20503681626043,1.06373291993205,"ssf","mf.ss","gamma","vonmises",158,"ssfOUT_60_1_4_KINGCOBRA","KINGCOBRA",4,1,60,"preference"
"ssfOUT_60_1_4_KINGCOBRA.25",0.662320738492269,0.235204882454908,1.08943659452963,"ssf","mf.ss","gamma","vonmises",500,"ssfOUT_60_1_4_KINGCOBRA","KINGCOBRA",4,1,60,"preference"
"ssfOUT_60_1_4_KINGCOBRA.26",0.576344633046562,0.121508830585747,1.03118043550738,"ssf","mf.ss","gamma","unif",5,"ssfOUT_60_1_4_KINGCOBRA","KINGCOBRA",4,1,60,"preference"
"ssfOUT_60_1_4_KINGCOBRA.27",0.680348659933493,0.247165018481197,1.11353230138579,"ssf","mf.ss","gamma","unif",15,"ssfOUT_60_1_4_KINGCOBRA","KINGCOBRA",4,1,60,"preference"
"ssfOUT_60_1_4_KINGCOBRA.28",0.658420058636112,0.228981522379295,1.08785859489293,"ssf","mf.ss","gamma","unif",50,"ssfOUT_60_1_4_KINGCOBRA","KINGCOBRA",4,1,60,"preference"
"ssfOUT_60_1_4_KINGCOBRA.29",0.689898905439803,0.262336735854663,1.11746107502494,"ssf","mf.ss","gamma","unif",158,"ssfOUT_60_1_4_KINGCOBRA","KINGCOBRA",4,1,60,"preference"
"ssfOUT_60_1_4_KINGCOBRA.30",0.657832418765502,0.230586102725869,1.08507873480514,"ssf","mf.ss","gamma","unif",500,"ssfOUT_60_1_4_KINGCOBRA","KINGCOBRA",4,1,60,"preference"
"ssfOUT_60_1_4_KINGCOBRA.31",0.493958984514525,0.0546224547774012,0.933295514251648,"ssf","mf.ss","exp","vonmises",5,"ssfOUT_60_1_4_KINGCOBRA","KINGCOBRA",4,1,60,"preference"
"ssfOUT_60_1_4_KINGCOBRA.32",0.51005760087308,0.0865089781359235,0.933606223610237,"ssf","mf.ss","exp","vonmises",15,"ssfOUT_60_1_4_KINGCOBRA","KINGCOBRA",4,1,60,"preference"
"ssfOUT_60_1_4_KINGCOBRA.33",0.458707468072922,0.0357908819051203,0.881624054240723,"ssf","mf.ss","exp","vonmises",50,"ssfOUT_60_1_4_KINGCOBRA","KINGCOBRA",4,1,60,"preference"
"ssfOUT_60_1_4_KINGCOBRA.34",0.4531252641214,0.0317092632319548,0.874541265010846,"ssf","mf.ss","exp","vonmises",158,"ssfOUT_60_1_4_KINGCOBRA","KINGCOBRA",4,1,60,"preference"
"ssfOUT_60_1_4_KINGCOBRA.35",0.473851914736529,0.0528918350378002,0.894811994435258,"ssf","mf.ss","exp","vonmises",500,"ssfOUT_60_1_4_KINGCOBRA","KINGCOBRA",4,1,60,"preference"
"ssfOUT_60_1_4_KINGCOBRA.36",0.169957194178758,-0.286374787550233,0.62628917590775,"ssf","mf.ss","exp","unif",5,"ssfOUT_60_1_4_KINGCOBRA","KINGCOBRA",4,1,60,"no effect"
"ssfOUT_60_1_4_KINGCOBRA.37",0.249445862786692,-0.174081061094316,0.672972786667699,"ssf","mf.ss","exp","unif",15,"ssfOUT_60_1_4_KINGCOBRA","KINGCOBRA",4,1,60,"no effect"
"ssfOUT_60_1_4_KINGCOBRA.38",0.472199098837579,0.0500531176933045,0.894345079981854,"ssf","mf.ss","exp","unif",50,"ssfOUT_60_1_4_KINGCOBRA","KINGCOBRA",4,1,60,"preference"
"ssfOUT_60_1_4_KINGCOBRA.39",0.502851310980207,0.0817326489386734,0.923969973021741,"ssf","mf.ss","exp","unif",158,"ssfOUT_60_1_4_KINGCOBRA","KINGCOBRA",4,1,60,"preference"
"ssfOUT_60_1_4_KINGCOBRA.40",0.469234866608964,0.049573667019109,0.888896066198818,"ssf","mf.ss","exp","unif",500,"ssfOUT_60_1_4_KINGCOBRA","KINGCOBRA",4,1,60,"preference"
"ssfOUT_60_2_1_BADGER.1",0.907960525913044,0.292694393259451,1.52322665856664,"ssf","mf.is","gamma","vonmises",5,"ssfOUT_60_2_1_BADGER","BADGER",1,0.5,60,"preference"
"ssfOUT_60_2_1_BADGER.2",0.881668444778455,0.283115208696283,1.48022168086063,"ssf","mf.is","gamma","vonmises",15,"ssfOUT_60_2_1_BADGER","BADGER",1,0.5,60,"preference"
"ssfOUT_60_2_1_BADGER.3",0.761171641919668,0.167491663003697,1.35485162083564,"ssf","mf.is","gamma","vonmises",50,"ssfOUT_60_2_1_BADGER","BADGER",1,0.5,60,"preference"
"ssfOUT_60_2_1_BADGER.4",0.937209416191001,0.346141693937386,1.52827713844462,"ssf","mf.is","gamma","vonmises",158,"ssfOUT_60_2_1_BADGER","BADGER",1,0.5,60,"preference"
"ssfOUT_60_2_1_BADGER.5",0.845095834943034,0.253372136601547,1.43681953328452,"ssf","mf.is","gamma","vonmises",500,"ssfOUT_60_2_1_BADGER","BADGER",1,0.5,60,"preference"
"ssfOUT_60_2_1_BADGER.6",0.840456862079896,0.228703631586371,1.45221009257342,"ssf","mf.is","gamma","unif",5,"ssfOUT_60_2_1_BADGER","BADGER",1,0.5,60,"preference"
"ssfOUT_60_2_1_BADGER.7",0.832148991768677,0.227719391387586,1.43657859214977,"ssf","mf.is","gamma","unif",15,"ssfOUT_60_2_1_BADGER","BADGER",1,0.5,60,"preference"
"ssfOUT_60_2_1_BADGER.8",0.816682534814315,0.22022801789726,1.41313705173137,"ssf","mf.is","gamma","unif",50,"ssfOUT_60_2_1_BADGER","BADGER",1,0.5,60,"preference"
"ssfOUT_60_2_1_BADGER.9",0.832880107387816,0.239123246298986,1.42663696847665,"ssf","mf.is","gamma","unif",158,"ssfOUT_60_2_1_BADGER","BADGER",1,0.5,60,"preference"
"ssfOUT_60_2_1_BADGER.10",0.839686833511277,0.24812577515101,1.43124789187154,"ssf","mf.is","gamma","unif",500,"ssfOUT_60_2_1_BADGER","BADGER",1,0.5,60,"preference"
"ssfOUT_60_2_1_BADGER.11",0.818727423933394,0.19263049942415,1.44482434844264,"ssf","mf.is","exp","vonmises",5,"ssfOUT_60_2_1_BADGER","BADGER",1,0.5,60,"preference"
"ssfOUT_60_2_1_BADGER.12",0.936764914157502,0.334571230747946,1.53895859756706,"ssf","mf.is","exp","vonmises",15,"ssfOUT_60_2_1_BADGER","BADGER",1,0.5,60,"preference"
"ssfOUT_60_2_1_BADGER.13",0.960077750521173,0.361813442189218,1.55834205885313,"ssf","mf.is","exp","vonmises",50,"ssfOUT_60_2_1_BADGER","BADGER",1,0.5,60,"preference"
"ssfOUT_60_2_1_BADGER.14",0.810952032695355,0.217348018701037,1.40455604668967,"ssf","mf.is","exp","vonmises",158,"ssfOUT_60_2_1_BADGER","BADGER",1,0.5,60,"preference"
"ssfOUT_60_2_1_BADGER.15",0.869490664351689,0.277769918690278,1.4612114100131,"ssf","mf.is","exp","vonmises",500,"ssfOUT_60_2_1_BADGER","BADGER",1,0.5,60,"preference"
"ssfOUT_60_2_1_BADGER.16",0.557162528025126,-0.072781054113064,1.18710611016332,"ssf","mf.is","exp","unif",5,"ssfOUT_60_2_1_BADGER","BADGER",1,0.5,60,"no effect"
"ssfOUT_60_2_1_BADGER.17",0.939407052972511,0.340350592174862,1.53846351377016,"ssf","mf.is","exp","unif",15,"ssfOUT_60_2_1_BADGER","BADGER",1,0.5,60,"preference"
"ssfOUT_60_2_1_BADGER.18",0.747722422332872,0.152112024747823,1.34333281991792,"ssf","mf.is","exp","unif",50,"ssfOUT_60_2_1_BADGER","BADGER",1,0.5,60,"preference"
"ssfOUT_60_2_1_BADGER.19",0.893890846439598,0.303008247465197,1.484773445414,"ssf","mf.is","exp","unif",158,"ssfOUT_60_2_1_BADGER","BADGER",1,0.5,60,"preference"
"ssfOUT_60_2_1_BADGER.20",0.889616905434304,0.29720863773649,1.48202517313212,"ssf","mf.is","exp","unif",500,"ssfOUT_60_2_1_BADGER","BADGER",1,0.5,60,"preference"
"ssfOUT_60_2_1_BADGER.21",0.838745011480836,0.228380050923281,1.44910997203839,"ssf","mf.ss","gamma","vonmises",5,"ssfOUT_60_2_1_BADGER","BADGER",1,0.5,60,"preference"
"ssfOUT_60_2_1_BADGER.22",0.891565728687724,0.294456149908459,1.48867530746699,"ssf","mf.ss","gamma","vonmises",15,"ssfOUT_60_2_1_BADGER","BADGER",1,0.5,60,"preference"
"ssfOUT_60_2_1_BADGER.23",0.732112505556124,0.138390251252066,1.32583475986018,"ssf","mf.ss","gamma","vonmises",50,"ssfOUT_60_2_1_BADGER","BADGER",1,0.5,60,"preference"
"ssfOUT_60_2_1_BADGER.24",0.904604598996376,0.313553337466786,1.49565586052597,"ssf","mf.ss","gamma","vonmises",158,"ssfOUT_60_2_1_BADGER","BADGER",1,0.5,60,"preference"
"ssfOUT_60_2_1_BADGER.25",0.80156361421282,0.209798380390012,1.39332884803563,"ssf","mf.ss","gamma","vonmises",500,"ssfOUT_60_2_1_BADGER","BADGER",1,0.5,60,"preference"
"ssfOUT_60_2_1_BADGER.26",0.80863006987075,0.197408662172849,1.41985147756865,"ssf","mf.ss","gamma","unif",5,"ssfOUT_60_2_1_BADGER","BADGER",1,0.5,60,"preference"
"ssfOUT_60_2_1_BADGER.27",0.787581190148637,0.183328096833746,1.39183428346353,"ssf","mf.ss","gamma","unif",15,"ssfOUT_60_2_1_BADGER","BADGER",1,0.5,60,"preference"
"ssfOUT_60_2_1_BADGER.28",0.810163099073218,0.213690029833079,1.40663616831336,"ssf","mf.ss","gamma","unif",50,"ssfOUT_60_2_1_BADGER","BADGER",1,0.5,60,"preference"
"ssfOUT_60_2_1_BADGER.29",0.805493006649266,0.212080809458301,1.39890520384023,"ssf","mf.ss","gamma","unif",158,"ssfOUT_60_2_1_BADGER","BADGER",1,0.5,60,"preference"
"ssfOUT_60_2_1_BADGER.30",0.819164750971173,0.227748338232096,1.41058116371025,"ssf","mf.ss","gamma","unif",500,"ssfOUT_60_2_1_BADGER","BADGER",1,0.5,60,"preference"
"ssfOUT_60_2_1_BADGER.31",0.687990699688961,0.0697656602217285,1.30621573915619,"ssf","mf.ss","exp","vonmises",5,"ssfOUT_60_2_1_BADGER","BADGER",1,0.5,60,"preference"
"ssfOUT_60_2_1_BADGER.32",0.83150707621229,0.232111526036173,1.43090262638841,"ssf","mf.ss","exp","vonmises",15,"ssfOUT_60_2_1_BADGER","BADGER",1,0.5,60,"preference"
"ssfOUT_60_2_1_BADGER.33",0.850350490472081,0.254265405935625,1.44643557500854,"ssf","mf.ss","exp","vonmises",50,"ssfOUT_60_2_1_BADGER","BADGER",1,0.5,60,"preference"
"ssfOUT_60_2_1_BADGER.34",0.740044457172987,0.146817965901956,1.33327094844402,"ssf","mf.ss","exp","vonmises",158,"ssfOUT_60_2_1_BADGER","BADGER",1,0.5,60,"preference"
"ssfOUT_60_2_1_BADGER.35",0.78434965964099,0.192869287598055,1.37583003168392,"ssf","mf.ss","exp","vonmises",500,"ssfOUT_60_2_1_BADGER","BADGER",1,0.5,60,"preference"
"ssfOUT_60_2_1_BADGER.36",0.481018764561848,-0.14710016760172,1.10913769672542,"ssf","mf.ss","exp","unif",5,"ssfOUT_60_2_1_BADGER","BADGER",1,0.5,60,"no effect"
"ssfOUT_60_2_1_BADGER.37",0.908657901101171,0.311208953891165,1.50610684831118,"ssf","mf.ss","exp","unif",15,"ssfOUT_60_2_1_BADGER","BADGER",1,0.5,60,"preference"
"ssfOUT_60_2_1_BADGER.38",0.704460411790189,0.109772887510088,1.29914793607029,"ssf","mf.ss","exp","unif",50,"ssfOUT_60_2_1_BADGER","BADGER",1,0.5,60,"preference"
"ssfOUT_60_2_1_BADGER.39",0.84107753585078,0.251372298397368,1.43078277330419,"ssf","mf.ss","exp","unif",158,"ssfOUT_60_2_1_BADGER","BADGER",1,0.5,60,"preference"
"ssfOUT_60_2_1_BADGER.40",0.830881682916229,0.23883192029104,1.42293144554142,"ssf","mf.ss","exp","unif",500,"ssfOUT_60_2_1_BADGER","BADGER",1,0.5,60,"preference"
"ssfOUT_60_2_1_VULTURE.1",0.218823320029544,-0.214140730907421,0.651787370966509,"ssf","mf.is","gamma","vonmises",5,"ssfOUT_60_2_1_VULTURE","VULTURE",1,0.5,60,"no effect"
"ssfOUT_60_2_1_VULTURE.2",0.315370897059837,-0.0912254819993645,0.721967276119038,"ssf","mf.is","gamma","vonmises",15,"ssfOUT_60_2_1_VULTURE","VULTURE",1,0.5,60,"no effect"
"ssfOUT_60_2_1_VULTURE.3",0.321932659709291,-0.0733304558023061,0.717195775220888,"ssf","mf.is","gamma","vonmises",50,"ssfOUT_60_2_1_VULTURE","VULTURE",1,0.5,60,"no effect"
"ssfOUT_60_2_1_VULTURE.4",0.311157911340568,-0.0813804800790847,0.703696302760221,"ssf","mf.is","gamma","vonmises",158,"ssfOUT_60_2_1_VULTURE","VULTURE",1,0.5,60,"no effect"
"ssfOUT_60_2_1_VULTURE.5",0.322158716211043,-0.069886317840274,0.714203750262359,"ssf","mf.is","gamma","vonmises",500,"ssfOUT_60_2_1_VULTURE","VULTURE",1,0.5,60,"no effect"
"ssfOUT_60_2_1_VULTURE.6",0.414690582055923,-0.00497918225580835,0.834360346367654,"ssf","mf.is","gamma","unif",5,"ssfOUT_60_2_1_VULTURE","VULTURE",1,0.5,60,"no effect"
"ssfOUT_60_2_1_VULTURE.7",0.203206507925515,-0.202369780569603,0.608782796420632,"ssf","mf.is","gamma","unif",15,"ssfOUT_60_2_1_VULTURE","VULTURE",1,0.5,60,"no effect"
"ssfOUT_60_2_1_VULTURE.8",0.372226502850902,-0.023096443455,0.767549449156804,"ssf","mf.is","gamma","unif",50,"ssfOUT_60_2_1_VULTURE","VULTURE",1,0.5,60,"no effect"
"ssfOUT_60_2_1_VULTURE.9",0.295731253073055,-0.0977734982358828,0.689236004381994,"ssf","mf.is","gamma","unif",158,"ssfOUT_60_2_1_VULTURE","VULTURE",1,0.5,60,"no effect"
"ssfOUT_60_2_1_VULTURE.10",0.31532808926986,-0.0769951439526413,0.707651322492362,"ssf","mf.is","gamma","unif",500,"ssfOUT_60_2_1_VULTURE","VULTURE",1,0.5,60,"no effect"
"ssfOUT_60_2_1_VULTURE.11",0.162301811475216,-0.276010927828556,0.600614550778988,"ssf","mf.is","exp","vonmises",5,"ssfOUT_60_2_1_VULTURE","VULTURE",1,0.5,60,"no effect"
"ssfOUT_60_2_1_VULTURE.12",0.439355598576815,0.0364292400658256,0.842281957087804,"ssf","mf.is","exp","vonmises",15,"ssfOUT_60_2_1_VULTURE","VULTURE",1,0.5,60,"preference"
"ssfOUT_60_2_1_VULTURE.13",0.426763669755566,0.0281834128046041,0.825343926706527,"ssf","mf.is","exp","vonmises",50,"ssfOUT_60_2_1_VULTURE","VULTURE",1,0.5,60,"preference"
"ssfOUT_60_2_1_VULTURE.14",0.224989727973727,-0.168252780344447,0.618232236291902,"ssf","mf.is","exp","vonmises",158,"ssfOUT_60_2_1_VULTURE","VULTURE",1,0.5,60,"no effect"
"ssfOUT_60_2_1_VULTURE.15",0.349646899145112,-0.0428701430847722,0.742163941374997,"ssf","mf.is","exp","vonmises",500,"ssfOUT_60_2_1_VULTURE","VULTURE",1,0.5,60,"no effect"
"ssfOUT_60_2_1_VULTURE.16",0.46134148118432,0.0205054375152671,0.902177524853372,"ssf","mf.is","exp","unif",5,"ssfOUT_60_2_1_VULTURE","VULTURE",1,0.5,60,"preference"
"ssfOUT_60_2_1_VULTURE.17",0.43381300875445,0.0307924307143302,0.83683358679457,"ssf","mf.is","exp","unif",15,"ssfOUT_60_2_1_VULTURE","VULTURE",1,0.5,60,"preference"
"ssfOUT_60_2_1_VULTURE.18",0.368893476812368,-0.0263896773600367,0.764176630984773,"ssf","mf.is","exp","unif",50,"ssfOUT_60_2_1_VULTURE","VULTURE",1,0.5,60,"no effect"
"ssfOUT_60_2_1_VULTURE.19",0.347309425060569,-0.0459574741331185,0.740576324254256,"ssf","mf.is","exp","unif",158,"ssfOUT_60_2_1_VULTURE","VULTURE",1,0.5,60,"no effect"
"ssfOUT_60_2_1_VULTURE.20",0.344507412952423,-0.0481737937664743,0.73718861967132,"ssf","mf.is","exp","unif",500,"ssfOUT_60_2_1_VULTURE","VULTURE",1,0.5,60,"no effect"
"ssfOUT_60_2_1_VULTURE.21",0.204780390867728,-0.228415712111774,0.637976493847229,"ssf","mf.ss","gamma","vonmises",5,"ssfOUT_60_2_1_VULTURE","VULTURE",1,0.5,60,"no effect"
"ssfOUT_60_2_1_VULTURE.22",0.311202384271467,-0.0956149983633425,0.718019766906277,"ssf","mf.ss","gamma","vonmises",15,"ssfOUT_60_2_1_VULTURE","VULTURE",1,0.5,60,"no effect"
"ssfOUT_60_2_1_VULTURE.23",0.310279001522198,-0.0850462515631779,0.705604254607574,"ssf","mf.ss","gamma","vonmises",50,"ssfOUT_60_2_1_VULTURE","VULTURE",1,0.5,60,"no effect"
"ssfOUT_60_2_1_VULTURE.24",0.303464957853896,-0.0892204873411598,0.696150403048952,"ssf","mf.ss","gamma","vonmises",158,"ssfOUT_60_2_1_VULTURE","VULTURE",1,0.5,60,"no effect"
"ssfOUT_60_2_1_VULTURE.25",0.314101451343715,-0.0780751674800609,0.706278070167491,"ssf","mf.ss","gamma","vonmises",500,"ssfOUT_60_2_1_VULTURE","VULTURE",1,0.5,60,"no effect"
"ssfOUT_60_2_1_VULTURE.26",0.41202152818691,-0.00752829144475542,0.831571347818575,"ssf","mf.ss","gamma","unif",5,"ssfOUT_60_2_1_VULTURE","VULTURE",1,0.5,60,"no effect"
"ssfOUT_60_2_1_VULTURE.27",0.220956265610663,-0.184118957106867,0.626031488328193,"ssf","mf.ss","gamma","unif",15,"ssfOUT_60_2_1_VULTURE","VULTURE",1,0.5,60,"no effect"
"ssfOUT_60_2_1_VULTURE.28",0.36969790001921,-0.025568295079053,0.764964095117474,"ssf","mf.ss","gamma","unif",50,"ssfOUT_60_2_1_VULTURE","VULTURE",1,0.5,60,"no effect"
"ssfOUT_60_2_1_VULTURE.29",0.295128953821379,-0.0984356477558177,0.688693555398576,"ssf","mf.ss","gamma","unif",158,"ssfOUT_60_2_1_VULTURE","VULTURE",1,0.5,60,"no effect"
"ssfOUT_60_2_1_VULTURE.30",0.314800010464354,-0.0775231770364489,0.707123197965156,"ssf","mf.ss","gamma","unif",500,"ssfOUT_60_2_1_VULTURE","VULTURE",1,0.5,60,"no effect"
"ssfOUT_60_2_1_VULTURE.31",0.326086642459723,-0.105473850613858,0.757647135533305,"ssf","mf.ss","exp","vonmises",5,"ssfOUT_60_2_1_VULTURE","VULTURE",1,0.5,60,"no effect"
"ssfOUT_60_2_1_VULTURE.32",0.502273152179106,0.0978977577244813,0.906648546633731,"ssf","mf.ss","exp","vonmises",15,"ssfOUT_60_2_1_VULTURE","VULTURE",1,0.5,60,"preference"
"ssfOUT_60_2_1_VULTURE.33",0.480295125610111,0.0798765489386941,0.880713702281529,"ssf","mf.ss","exp","vonmises",50,"ssfOUT_60_2_1_VULTURE","VULTURE",1,0.5,60,"preference"
"ssfOUT_60_2_1_VULTURE.34",0.300168257357766,-0.0959733682253845,0.696309882940916,"ssf","mf.ss","exp","vonmises",158,"ssfOUT_60_2_1_VULTURE","VULTURE",1,0.5,60,"no effect"
"ssfOUT_60_2_1_VULTURE.35",0.406213053523728,0.0115017545673343,0.800924352480122,"ssf","mf.ss","exp","vonmises",500,"ssfOUT_60_2_1_VULTURE","VULTURE",1,0.5,60,"preference"
"ssfOUT_60_2_1_VULTURE.36",0.413189501338013,-0.0116516918667308,0.838030694542756,"ssf","mf.ss","exp","unif",5,"ssfOUT_60_2_1_VULTURE","VULTURE",1,0.5,60,"no effect"
"ssfOUT_60_2_1_VULTURE.37",0.494741545930763,0.0901498727175459,0.89933321914398,"ssf","mf.ss","exp","unif",15,"ssfOUT_60_2_1_VULTURE","VULTURE",1,0.5,60,"preference"
"ssfOUT_60_2_1_VULTURE.38",0.376381372405716,-0.0197310400194033,0.772493784830835,"ssf","mf.ss","exp","unif",50,"ssfOUT_60_2_1_VULTURE","VULTURE",1,0.5,60,"no effect"
"ssfOUT_60_2_1_VULTURE.39",0.387064829148686,-0.00757191527953466,0.781701573576906,"ssf","mf.ss","exp","unif",158,"ssfOUT_60_2_1_VULTURE","VULTURE",1,0.5,60,"no effect"
"ssfOUT_60_2_1_VULTURE.40",0.413518416261796,0.0183722010190972,0.808664631504494,"ssf","mf.ss","exp","unif",500,"ssfOUT_60_2_1_VULTURE","VULTURE",1,0.5,60,"preference"
"ssfOUT_60_2_1_KINGCOBRA.1",0.298407374944522,-0.370095061801302,0.966909811690346,"ssf","mf.is","gamma","vonmises",5,"ssfOUT_60_2_1_KINGCOBRA","KINGCOBRA",1,0.5,60,"no effect"
"ssfOUT_60_2_1_KINGCOBRA.2",0.362263569119309,-0.256216249964827,0.980743388203445,"ssf","mf.is","gamma","vonmises",15,"ssfOUT_60_2_1_KINGCOBRA","KINGCOBRA",1,0.5,60,"no effect"
"ssfOUT_60_2_1_KINGCOBRA.3",0.372980433455119,-0.184593056863998,0.930553923774236,"ssf","mf.is","gamma","vonmises",50,"ssfOUT_60_2_1_KINGCOBRA","KINGCOBRA",1,0.5,60,"no effect"
"ssfOUT_60_2_1_KINGCOBRA.4",0.331906271471653,-0.234382253158582,0.898194796101888,"ssf","mf.is","gamma","vonmises",158,"ssfOUT_60_2_1_KINGCOBRA","KINGCOBRA",1,0.5,60,"no effect"
"ssfOUT_60_2_1_KINGCOBRA.5",0.445476028824099,-0.115533816901658,1.00648587454986,"ssf","mf.is","gamma","vonmises",500,"ssfOUT_60_2_1_KINGCOBRA","KINGCOBRA",1,0.5,60,"no effect"
"ssfOUT_60_2_1_KINGCOBRA.6",0.287195369535802,-0.317914516098491,0.892305255170095,"ssf","mf.is","gamma","unif",5,"ssfOUT_60_2_1_KINGCOBRA","KINGCOBRA",1,0.5,60,"no effect"
"ssfOUT_60_2_1_KINGCOBRA.7",0.487679509042267,-0.0658923855746169,1.04125140365915,"ssf","mf.is","gamma","unif",15,"ssfOUT_60_2_1_KINGCOBRA","KINGCOBRA",1,0.5,60,"no effect"
"ssfOUT_60_2_1_KINGCOBRA.8",0.382467848096135,-0.201349808894778,0.966285505087047,"ssf","mf.is","gamma","unif",50,"ssfOUT_60_2_1_KINGCOBRA","KINGCOBRA",1,0.5,60,"no effect"
"ssfOUT_60_2_1_KINGCOBRA.9",0.303871770419457,-0.256492905523903,0.864236446362817,"ssf","mf.is","gamma","unif",158,"ssfOUT_60_2_1_KINGCOBRA","KINGCOBRA",1,0.5,60,"no effect"
"ssfOUT_60_2_1_KINGCOBRA.10",0.363902839167218,-0.194779582932722,0.922585261267158,"ssf","mf.is","gamma","unif",500,"ssfOUT_60_2_1_KINGCOBRA","KINGCOBRA",1,0.5,60,"no effect"
"ssfOUT_60_2_1_KINGCOBRA.11",-0.497387852330862,-1.13653727867729,0.141761574015562,"ssf","mf.is","exp","vonmises",5,"ssfOUT_60_2_1_KINGCOBRA","KINGCOBRA",1,0.5,60,"no effect"
"ssfOUT_60_2_1_KINGCOBRA.12",0.340385384477297,-0.254738117395195,0.935508886349789,"ssf","mf.is","exp","vonmises",15,"ssfOUT_60_2_1_KINGCOBRA","KINGCOBRA",1,0.5,60,"no effect"
"ssfOUT_60_2_1_KINGCOBRA.13",0.594000841616148,-0.024865473769489,1.21286715700179,"ssf","mf.is","exp","vonmises",50,"ssfOUT_60_2_1_KINGCOBRA","KINGCOBRA",1,0.5,60,"no effect"
"ssfOUT_60_2_1_KINGCOBRA.14",0.286503130467841,-0.26466243539105,0.837668696326732,"ssf","mf.is","exp","vonmises",158,"ssfOUT_60_2_1_KINGCOBRA","KINGCOBRA",1,0.5,60,"no effect"
"ssfOUT_60_2_1_KINGCOBRA.15",0.476545458405085,-0.116168074569746,1.06925899137992,"ssf","mf.is","exp","vonmises",500,"ssfOUT_60_2_1_KINGCOBRA","KINGCOBRA",1,0.5,60,"no effect"
"ssfOUT_60_2_1_KINGCOBRA.16",-0.737750552092359,-1.39568500001138,-0.0798161041733383,"ssf","mf.is","exp","unif",5,"ssfOUT_60_2_1_KINGCOBRA","KINGCOBRA",1,0.5,60,"avoidance"
"ssfOUT_60_2_1_KINGCOBRA.17",-0.187266023219258,-0.776024322427283,0.401492275988767,"ssf","mf.is","exp","unif",15,"ssfOUT_60_2_1_KINGCOBRA","KINGCOBRA",1,0.5,60,"no effect"
"ssfOUT_60_2_1_KINGCOBRA.18",0.408968763212083,-0.170324619301154,0.98826214572532,"ssf","mf.is","exp","unif",50,"ssfOUT_60_2_1_KINGCOBRA","KINGCOBRA",1,0.5,60,"no effect"
"ssfOUT_60_2_1_KINGCOBRA.19",0.29665354962239,-0.26930185194772,0.8626089511925,"ssf","mf.is","exp","unif",158,"ssfOUT_60_2_1_KINGCOBRA","KINGCOBRA",1,0.5,60,"no effect"
"ssfOUT_60_2_1_KINGCOBRA.20",0.769126980834652,0.164071388568401,1.3741825731009,"ssf","mf.is","exp","unif",500,"ssfOUT_60_2_1_KINGCOBRA","KINGCOBRA",1,0.5,60,"preference"
"ssfOUT_60_2_1_KINGCOBRA.21",0.531233483174896,-0.120707619044208,1.183174585394,"ssf","mf.ss","gamma","vonmises",5,"ssfOUT_60_2_1_KINGCOBRA","KINGCOBRA",1,0.5,60,"no effect"
"ssfOUT_60_2_1_KINGCOBRA.22",0.577812612970005,-0.0156109361353176,1.17123616207533,"ssf","mf.ss","gamma","vonmises",15,"ssfOUT_60_2_1_KINGCOBRA","KINGCOBRA",1,0.5,60,"no effect"
"ssfOUT_60_2_1_KINGCOBRA.23",0.549024643638922,-0.023564457080184,1.12161374435803,"ssf","mf.ss","gamma","vonmises",50,"ssfOUT_60_2_1_KINGCOBRA","KINGCOBRA",1,0.5,60,"no effect"
"ssfOUT_60_2_1_KINGCOBRA.24",0.550019451601209,-0.0304202719052219,1.13045917510764,"ssf","mf.ss","gamma","vonmises",158,"ssfOUT_60_2_1_KINGCOBRA","KINGCOBRA",1,0.5,60,"no effect"
"ssfOUT_60_2_1_KINGCOBRA.25",0.650923677586309,0.0682665887659369,1.23358076640668,"ssf","mf.ss","gamma","vonmises",500,"ssfOUT_60_2_1_KINGCOBRA","KINGCOBRA",1,0.5,60,"preference"
"ssfOUT_60_2_1_KINGCOBRA.26",0.473191636815021,-0.125717136054456,1.0721004096845,"ssf","mf.ss","gamma","unif",5,"ssfOUT_60_2_1_KINGCOBRA","KINGCOBRA",1,0.5,60,"no effect"
"ssfOUT_60_2_1_KINGCOBRA.27",0.581218051830196,0.0249515400716486,1.13748456358874,"ssf","mf.ss","gamma","unif",15,"ssfOUT_60_2_1_KINGCOBRA","KINGCOBRA",1,0.5,60,"preference"
"ssfOUT_60_2_1_KINGCOBRA.28",0.615656225444278,0.0209633115466437,1.21034913934191,"ssf","mf.ss","gamma","unif",50,"ssfOUT_60_2_1_KINGCOBRA","KINGCOBRA",1,0.5,60,"preference"
"ssfOUT_60_2_1_KINGCOBRA.29",0.529263477903585,-0.0527762841196736,1.11130323992684,"ssf","mf.ss","gamma","unif",158,"ssfOUT_60_2_1_KINGCOBRA","KINGCOBRA",1,0.5,60,"no effect"
"ssfOUT_60_2_1_KINGCOBRA.30",0.563092677130562,-0.0123283263092152,1.13851368057034,"ssf","mf.ss","gamma","unif",500,"ssfOUT_60_2_1_KINGCOBRA","KINGCOBRA",1,0.5,60,"no effect"
"ssfOUT_60_2_1_KINGCOBRA.31",0.584177443182394,0.0119419352950235,1.15641295106976,"ssf","mf.ss","exp","vonmises",5,"ssfOUT_60_2_1_KINGCOBRA","KINGCOBRA",1,0.5,60,"preference"
"ssfOUT_60_2_1_KINGCOBRA.32",0.517254527680285,-0.0805364692936132,1.11504552465418,"ssf","mf.ss","exp","vonmises",15,"ssfOUT_60_2_1_KINGCOBRA","KINGCOBRA",1,0.5,60,"no effect"
"ssfOUT_60_2_1_KINGCOBRA.33",0.259217038800078,-0.30854811030824,0.826982187908396,"ssf","mf.ss","exp","vonmises",50,"ssfOUT_60_2_1_KINGCOBRA","KINGCOBRA",1,0.5,60,"no effect"
"ssfOUT_60_2_1_KINGCOBRA.34",0.364049803592395,-0.191359063873701,0.91945867105849,"ssf","mf.ss","exp","vonmises",158,"ssfOUT_60_2_1_KINGCOBRA","KINGCOBRA",1,0.5,60,"no effect"
"ssfOUT_60_2_1_KINGCOBRA.35",0.369243603698856,-0.190605014934825,0.929092222332537,"ssf","mf.ss","exp","vonmises",500,"ssfOUT_60_2_1_KINGCOBRA","KINGCOBRA",1,0.5,60,"no effect"
"ssfOUT_60_2_1_KINGCOBRA.36",0.221583283643745,-0.358644508940598,0.801811076228088,"ssf","mf.ss","exp","unif",5,"ssfOUT_60_2_1_KINGCOBRA","KINGCOBRA",1,0.5,60,"no effect"
"ssfOUT_60_2_1_KINGCOBRA.37",0.322946419282977,-0.243482968801742,0.889375807367696,"ssf","mf.ss","exp","unif",15,"ssfOUT_60_2_1_KINGCOBRA","KINGCOBRA",1,0.5,60,"no effect"
"ssfOUT_60_2_1_KINGCOBRA.38",0.419131848747022,-0.136010991578098,0.974274689072142,"ssf","mf.ss","exp","unif",50,"ssfOUT_60_2_1_KINGCOBRA","KINGCOBRA",1,0.5,60,"no effect"
"ssfOUT_60_2_1_KINGCOBRA.39",0.43139087033545,-0.131452327178509,0.994234067849408,"ssf","mf.ss","exp","unif",158,"ssfOUT_60_2_1_KINGCOBRA","KINGCOBRA",1,0.5,60,"no effect"
"ssfOUT_60_2_1_KINGCOBRA.40",0.44777575638977,-0.107426133329346,1.00297764610889,"ssf","mf.ss","exp","unif",500,"ssfOUT_60_2_1_KINGCOBRA","KINGCOBRA",1,0.5,60,"no effect"
"ssfOUT_60_2_2_BADGER.1",0.713920972880489,0.357014335408417,1.07082761035256,"ssf","mf.is","gamma","vonmises",5,"ssfOUT_60_2_2_BADGER","BADGER",2,0.5,60,"preference"
"ssfOUT_60_2_2_BADGER.2",0.720244943361567,0.39331620278721,1.04717368393592,"ssf","mf.is","gamma","vonmises",15,"ssfOUT_60_2_2_BADGER","BADGER",2,0.5,60,"preference"
"ssfOUT_60_2_2_BADGER.3",0.74359618050257,0.417344431770433,1.06984792923471,"ssf","mf.is","gamma","vonmises",50,"ssfOUT_60_2_2_BADGER","BADGER",2,0.5,60,"preference"
"ssfOUT_60_2_2_BADGER.4",0.736066828916829,0.409634426745263,1.06249923108839,"ssf","mf.is","gamma","vonmises",158,"ssfOUT_60_2_2_BADGER","BADGER",2,0.5,60,"preference"
"ssfOUT_60_2_2_BADGER.5",0.748379930257539,0.422989227856243,1.07377063265883,"ssf","mf.is","gamma","vonmises",500,"ssfOUT_60_2_2_BADGER","BADGER",2,0.5,60,"preference"
"ssfOUT_60_2_2_BADGER.6",0.597249938175088,0.249553742213831,0.944946134136345,"ssf","mf.is","gamma","unif",5,"ssfOUT_60_2_2_BADGER","BADGER",2,0.5,60,"preference"
"ssfOUT_60_2_2_BADGER.7",0.679990655153759,0.343473810122688,1.01650750018483,"ssf","mf.is","gamma","unif",15,"ssfOUT_60_2_2_BADGER","BADGER",2,0.5,60,"preference"
"ssfOUT_60_2_2_BADGER.8",0.64177845287197,0.310154468758293,0.973402436985647,"ssf","mf.is","gamma","unif",50,"ssfOUT_60_2_2_BADGER","BADGER",2,0.5,60,"preference"
"ssfOUT_60_2_2_BADGER.9",0.731789837171412,0.408249978273766,1.05532969606906,"ssf","mf.is","gamma","unif",158,"ssfOUT_60_2_2_BADGER","BADGER",2,0.5,60,"preference"
"ssfOUT_60_2_2_BADGER.10",0.733279561067285,0.407714554899124,1.05884456723545,"ssf","mf.is","gamma","unif",500,"ssfOUT_60_2_2_BADGER","BADGER",2,0.5,60,"preference"
"ssfOUT_60_2_2_BADGER.11",0.696532143171026,0.35273620552159,1.04032808082046,"ssf","mf.is","exp","vonmises",5,"ssfOUT_60_2_2_BADGER","BADGER",2,0.5,60,"preference"
"ssfOUT_60_2_2_BADGER.12",0.853883998114347,0.525089536959447,1.18267845926925,"ssf","mf.is","exp","vonmises",15,"ssfOUT_60_2_2_BADGER","BADGER",2,0.5,60,"preference"
"ssfOUT_60_2_2_BADGER.13",0.73862066222899,0.410446279592323,1.06679504486566,"ssf","mf.is","exp","vonmises",50,"ssfOUT_60_2_2_BADGER","BADGER",2,0.5,60,"preference"
"ssfOUT_60_2_2_BADGER.14",0.694961314231353,0.36849284884918,1.02142977961353,"ssf","mf.is","exp","vonmises",158,"ssfOUT_60_2_2_BADGER","BADGER",2,0.5,60,"preference"
"ssfOUT_60_2_2_BADGER.15",0.725765434210357,0.400413999508626,1.05111686891209,"ssf","mf.is","exp","vonmises",500,"ssfOUT_60_2_2_BADGER","BADGER",2,0.5,60,"preference"
"ssfOUT_60_2_2_BADGER.16",0.617895738206717,0.270367564426267,0.965423911987168,"ssf","mf.is","exp","unif",5,"ssfOUT_60_2_2_BADGER","BADGER",2,0.5,60,"preference"
"ssfOUT_60_2_2_BADGER.17",0.606316822264496,0.276420639076431,0.936213005452561,"ssf","mf.is","exp","unif",15,"ssfOUT_60_2_2_BADGER","BADGER",2,0.5,60,"preference"
"ssfOUT_60_2_2_BADGER.18",0.738850792020613,0.411079882549717,1.06662170149151,"ssf","mf.is","exp","unif",50,"ssfOUT_60_2_2_BADGER","BADGER",2,0.5,60,"preference"
"ssfOUT_60_2_2_BADGER.19",0.707346536697965,0.381048687381531,1.0336443860144,"ssf","mf.is","exp","unif",158,"ssfOUT_60_2_2_BADGER","BADGER",2,0.5,60,"preference"
"ssfOUT_60_2_2_BADGER.20",0.729410518495551,0.40212356027632,1.05669747671478,"ssf","mf.is","exp","unif",500,"ssfOUT_60_2_2_BADGER","BADGER",2,0.5,60,"preference"
"ssfOUT_60_2_2_BADGER.21",0.670268997399782,0.31060466831466,1.0299333264849,"ssf","mf.ss","gamma","vonmises",5,"ssfOUT_60_2_2_BADGER","BADGER",2,0.5,60,"preference"
"ssfOUT_60_2_2_BADGER.22",0.673613176747037,0.346583886172931,1.00064246732114,"ssf","mf.ss","gamma","vonmises",15,"ssfOUT_60_2_2_BADGER","BADGER",2,0.5,60,"preference"
"ssfOUT_60_2_2_BADGER.23",0.731049142224365,0.403913559064679,1.05818472538405,"ssf","mf.ss","gamma","vonmises",50,"ssfOUT_60_2_2_BADGER","BADGER",2,0.5,60,"preference"
"ssfOUT_60_2_2_BADGER.24",0.713496780989936,0.385902038603228,1.04109152337664,"ssf","mf.ss","gamma","vonmises",158,"ssfOUT_60_2_2_BADGER","BADGER",2,0.5,60,"preference"
"ssfOUT_60_2_2_BADGER.25",0.729073179185769,0.402357761741393,1.05578859663014,"ssf","mf.ss","gamma","vonmises",500,"ssfOUT_60_2_2_BADGER","BADGER",2,0.5,60,"preference"
"ssfOUT_60_2_2_BADGER.26",0.560806535793448,0.21198592483997,0.909627146746926,"ssf","mf.ss","gamma","unif",5,"ssfOUT_60_2_2_BADGER","BADGER",2,0.5,60,"preference"
"ssfOUT_60_2_2_BADGER.27",0.663830380962815,0.325559287728587,1.00210147419704,"ssf","mf.ss","gamma","unif",15,"ssfOUT_60_2_2_BADGER","BADGER",2,0.5,60,"preference"
"ssfOUT_60_2_2_BADGER.28",0.63189680071214,0.299002082040965,0.964791519383316,"ssf","mf.ss","gamma","unif",50,"ssfOUT_60_2_2_BADGER","BADGER",2,0.5,60,"preference"
"ssfOUT_60_2_2_BADGER.29",0.713182340396818,0.388537531188899,1.03782714960474,"ssf","mf.ss","gamma","unif",158,"ssfOUT_60_2_2_BADGER","BADGER",2,0.5,60,"preference"
"ssfOUT_60_2_2_BADGER.30",0.719529294141057,0.392568160970602,1.04649042731151,"ssf","mf.ss","gamma","unif",500,"ssfOUT_60_2_2_BADGER","BADGER",2,0.5,60,"preference"
"ssfOUT_60_2_2_BADGER.31",0.705225678172747,0.364713540573922,1.04573781577157,"ssf","mf.ss","exp","vonmises",5,"ssfOUT_60_2_2_BADGER","BADGER",2,0.5,60,"preference"
"ssfOUT_60_2_2_BADGER.32",0.848732753295694,0.521641453675909,1.17582405291548,"ssf","mf.ss","exp","vonmises",15,"ssfOUT_60_2_2_BADGER","BADGER",2,0.5,60,"preference"
"ssfOUT_60_2_2_BADGER.33",0.759035782096223,0.433662582519309,1.08440898167314,"ssf","mf.ss","exp","vonmises",50,"ssfOUT_60_2_2_BADGER","BADGER",2,0.5,60,"preference"
"ssfOUT_60_2_2_BADGER.34",0.718046278196142,0.393255189498739,1.04283736689355,"ssf","mf.ss","exp","vonmises",158,"ssfOUT_60_2_2_BADGER","BADGER",2,0.5,60,"preference"
"ssfOUT_60_2_2_BADGER.35",0.73230198401434,0.408979283068347,1.05562468496033,"ssf","mf.ss","exp","vonmises",500,"ssfOUT_60_2_2_BADGER","BADGER",2,0.5,60,"preference"
"ssfOUT_60_2_2_BADGER.36",0.702965548221219,0.357465974652601,1.04846512178984,"ssf","mf.ss","exp","unif",5,"ssfOUT_60_2_2_BADGER","BADGER",2,0.5,60,"preference"
"ssfOUT_60_2_2_BADGER.37",0.649128895901001,0.322342003358686,0.975915788443316,"ssf","mf.ss","exp","unif",15,"ssfOUT_60_2_2_BADGER","BADGER",2,0.5,60,"preference"
"ssfOUT_60_2_2_BADGER.38",0.758232331666897,0.432461108128694,1.0840035552051,"ssf","mf.ss","exp","unif",50,"ssfOUT_60_2_2_BADGER","BADGER",2,0.5,60,"preference"
"ssfOUT_60_2_2_BADGER.39",0.733726213597368,0.409421211339977,1.05803121585476,"ssf","mf.ss","exp","unif",158,"ssfOUT_60_2_2_BADGER","BADGER",2,0.5,60,"preference"
"ssfOUT_60_2_2_BADGER.40",0.743066543923628,0.418173568846853,1.0679595190004,"ssf","mf.ss","exp","unif",500,"ssfOUT_60_2_2_BADGER","BADGER",2,0.5,60,"preference"
"ssfOUT_60_2_2_VULTURE.1",0.591506999988421,0.2068936852712,0.976120314705642,"ssf","mf.is","gamma","vonmises",5,"ssfOUT_60_2_2_VULTURE","VULTURE",2,0.5,60,"preference"
"ssfOUT_60_2_2_VULTURE.2",0.688392737379108,0.318608874394508,1.05817660036371,"ssf","mf.is","gamma","vonmises",15,"ssfOUT_60_2_2_VULTURE","VULTURE",2,0.5,60,"preference"
"ssfOUT_60_2_2_VULTURE.3",0.629227060479066,0.265913462145946,0.992540658812185,"ssf","mf.is","gamma","vonmises",50,"ssfOUT_60_2_2_VULTURE","VULTURE",2,0.5,60,"preference"
"ssfOUT_60_2_2_VULTURE.4",0.646637259732021,0.284988066344469,1.00828645311957,"ssf","mf.is","gamma","vonmises",158,"ssfOUT_60_2_2_VULTURE","VULTURE",2,0.5,60,"preference"
"ssfOUT_60_2_2_VULTURE.5",0.629351504073555,0.268072310711864,0.990630697435245,"ssf","mf.is","gamma","vonmises",500,"ssfOUT_60_2_2_VULTURE","VULTURE",2,0.5,60,"preference"
"ssfOUT_60_2_2_VULTURE.6",0.843825297681913,0.464734349864561,1.22291624549927,"ssf","mf.is","gamma","unif",5,"ssfOUT_60_2_2_VULTURE","VULTURE",2,0.5,60,"preference"
"ssfOUT_60_2_2_VULTURE.7",0.466125834306074,0.0952088275229843,0.837042841089163,"ssf","mf.is","gamma","unif",15,"ssfOUT_60_2_2_VULTURE","VULTURE",2,0.5,60,"preference"
"ssfOUT_60_2_2_VULTURE.8",0.613739464724034,0.250133279125664,0.977345650322403,"ssf","mf.is","gamma","unif",50,"ssfOUT_60_2_2_VULTURE","VULTURE",2,0.5,60,"preference"
"ssfOUT_60_2_2_VULTURE.9",0.619483195490981,0.257304964122069,0.981661426859893,"ssf","mf.is","gamma","unif",158,"ssfOUT_60_2_2_VULTURE","VULTURE",2,0.5,60,"preference"
"ssfOUT_60_2_2_VULTURE.10",0.629943129746962,0.268832213498091,0.991054045995833,"ssf","mf.is","gamma","unif",500,"ssfOUT_60_2_2_VULTURE","VULTURE",2,0.5,60,"preference"
"ssfOUT_60_2_2_VULTURE.11",0.632618182723022,0.237547734020373,1.02768863142567,"ssf","mf.is","exp","vonmises",5,"ssfOUT_60_2_2_VULTURE","VULTURE",2,0.5,60,"preference"
"ssfOUT_60_2_2_VULTURE.12",0.530402774966793,0.159914207623625,0.900891342309961,"ssf","mf.is","exp","vonmises",15,"ssfOUT_60_2_2_VULTURE","VULTURE",2,0.5,60,"preference"
"ssfOUT_60_2_2_VULTURE.13",0.661696389839901,0.296681589691152,1.02671118998865,"ssf","mf.is","exp","vonmises",50,"ssfOUT_60_2_2_VULTURE","VULTURE",2,0.5,60,"preference"
"ssfOUT_60_2_2_VULTURE.14",0.672585994541295,0.311087096361438,1.03408489272115,"ssf","mf.is","exp","vonmises",158,"ssfOUT_60_2_2_VULTURE","VULTURE",2,0.5,60,"preference"
"ssfOUT_60_2_2_VULTURE.15",0.646479283007153,0.284960930616934,1.00799763539737,"ssf","mf.is","exp","vonmises",500,"ssfOUT_60_2_2_VULTURE","VULTURE",2,0.5,60,"preference"
"ssfOUT_60_2_2_VULTURE.16",0.575153082473455,0.186671811313552,0.963634353633357,"ssf","mf.is","exp","unif",5,"ssfOUT_60_2_2_VULTURE","VULTURE",2,0.5,60,"preference"
"ssfOUT_60_2_2_VULTURE.17",0.600182879546175,0.231823774043167,0.968541985049183,"ssf","mf.is","exp","unif",15,"ssfOUT_60_2_2_VULTURE","VULTURE",2,0.5,60,"preference"
"ssfOUT_60_2_2_VULTURE.18",0.724782189654816,0.361142674365606,1.08842170494403,"ssf","mf.is","exp","unif",50,"ssfOUT_60_2_2_VULTURE","VULTURE",2,0.5,60,"preference"
"ssfOUT_60_2_2_VULTURE.19",0.650763495012567,0.288708105500798,1.01281888452434,"ssf","mf.is","exp","unif",158,"ssfOUT_60_2_2_VULTURE","VULTURE",2,0.5,60,"preference"
"ssfOUT_60_2_2_VULTURE.20",0.651811551275483,0.290494720840655,1.01312838171031,"ssf","mf.is","exp","unif",500,"ssfOUT_60_2_2_VULTURE","VULTURE",2,0.5,60,"preference"
"ssfOUT_60_2_2_VULTURE.21",0.575677146758619,0.191220248454822,0.960134045062416,"ssf","mf.ss","gamma","vonmises",5,"ssfOUT_60_2_2_VULTURE","VULTURE",2,0.5,60,"preference"
"ssfOUT_60_2_2_VULTURE.22",0.681732080178779,0.312041637620415,1.05142252273714,"ssf","mf.ss","gamma","vonmises",15,"ssfOUT_60_2_2_VULTURE","VULTURE",2,0.5,60,"preference"
"ssfOUT_60_2_2_VULTURE.23",0.625576186763652,0.262232416013902,0.988919957513401,"ssf","mf.ss","gamma","vonmises",50,"ssfOUT_60_2_2_VULTURE","VULTURE",2,0.5,60,"preference"
"ssfOUT_60_2_2_VULTURE.24",0.643179250610523,0.281527280192427,1.00483122102862,"ssf","mf.ss","gamma","vonmises",158,"ssfOUT_60_2_2_VULTURE","VULTURE",2,0.5,60,"preference"
"ssfOUT_60_2_2_VULTURE.25",0.625360411411299,0.26412619672897,0.986594626093628,"ssf","mf.ss","gamma","vonmises",500,"ssfOUT_60_2_2_VULTURE","VULTURE",2,0.5,60,"preference"
"ssfOUT_60_2_2_VULTURE.26",0.842936541382578,0.463869987729802,1.22200309503535,"ssf","mf.ss","gamma","unif",5,"ssfOUT_60_2_2_VULTURE","VULTURE",2,0.5,60,"preference"
"ssfOUT_60_2_2_VULTURE.27",0.462660090608286,0.0916642236454355,0.833655957571136,"ssf","mf.ss","gamma","unif",15,"ssfOUT_60_2_2_VULTURE","VULTURE",2,0.5,60,"preference"
"ssfOUT_60_2_2_VULTURE.28",0.610928388168135,0.247368186975703,0.974488589360567,"ssf","mf.ss","gamma","unif",50,"ssfOUT_60_2_2_VULTURE","VULTURE",2,0.5,60,"preference"
"ssfOUT_60_2_2_VULTURE.29",0.61612943980349,0.253952361732718,0.978306517874261,"ssf","mf.ss","gamma","unif",158,"ssfOUT_60_2_2_VULTURE","VULTURE",2,0.5,60,"preference"
"ssfOUT_60_2_2_VULTURE.30",0.62640096925266,0.265301564150693,0.987500374354627,"ssf","mf.ss","gamma","unif",500,"ssfOUT_60_2_2_VULTURE","VULTURE",2,0.5,60,"preference"
"ssfOUT_60_2_2_VULTURE.31",0.62759890158312,0.241406024795477,1.01379177837076,"ssf","mf.ss","exp","vonmises",5,"ssfOUT_60_2_2_VULTURE","VULTURE",2,0.5,60,"preference"
"ssfOUT_60_2_2_VULTURE.32",0.555817140826904,0.184892972858982,0.926741308794827,"ssf","mf.ss","exp","vonmises",15,"ssfOUT_60_2_2_VULTURE","VULTURE",2,0.5,60,"preference"
"ssfOUT_60_2_2_VULTURE.33",0.646685252802048,0.279416915210591,1.0139535903935,"ssf","mf.ss","exp","vonmises",50,"ssfOUT_60_2_2_VULTURE","VULTURE",2,0.5,60,"preference"
"ssfOUT_60_2_2_VULTURE.34",0.661039804894744,0.297654909325245,1.02442470046424,"ssf","mf.ss","exp","vonmises",158,"ssfOUT_60_2_2_VULTURE","VULTURE",2,0.5,60,"preference"
"ssfOUT_60_2_2_VULTURE.35",0.642791215093013,0.279368251780017,1.00621417840601,"ssf","mf.ss","exp","vonmises",500,"ssfOUT_60_2_2_VULTURE","VULTURE",2,0.5,60,"preference"
"ssfOUT_60_2_2_VULTURE.36",0.550042499158398,0.166090910078509,0.933994088238287,"ssf","mf.ss","exp","unif",5,"ssfOUT_60_2_2_VULTURE","VULTURE",2,0.5,60,"preference"
"ssfOUT_60_2_2_VULTURE.37",0.56730455792052,0.198749231762309,0.935859884078731,"ssf","mf.ss","exp","unif",15,"ssfOUT_60_2_2_VULTURE","VULTURE",2,0.5,60,"preference"
"ssfOUT_60_2_2_VULTURE.38",0.708406198567151,0.342991216098056,1.07382118103625,"ssf","mf.ss","exp","unif",50,"ssfOUT_60_2_2_VULTURE","VULTURE",2,0.5,60,"preference"
"ssfOUT_60_2_2_VULTURE.39",0.629126450913335,0.265360914703684,0.992891987122987,"ssf","mf.ss","exp","unif",158,"ssfOUT_60_2_2_VULTURE","VULTURE",2,0.5,60,"preference"
"ssfOUT_60_2_2_VULTURE.40",0.642257219742547,0.278766031061816,1.00574840842328,"ssf","mf.ss","exp","unif",500,"ssfOUT_60_2_2_VULTURE","VULTURE",2,0.5,60,"preference"
"ssfOUT_60_2_2_KINGCOBRA.1",0.280980248183717,-0.156853413916563,0.718813910283997,"ssf","mf.is","gamma","vonmises",5,"ssfOUT_60_2_2_KINGCOBRA","KINGCOBRA",2,0.5,60,"no effect"
"ssfOUT_60_2_2_KINGCOBRA.2",0.52419556076363,0.109704947161928,0.938686174365332,"ssf","mf.is","gamma","vonmises",15,"ssfOUT_60_2_2_KINGCOBRA","KINGCOBRA",2,0.5,60,"preference"
"ssfOUT_60_2_2_KINGCOBRA.3",0.54451726790639,0.125074057417028,0.963960478395752,"ssf","mf.is","gamma","vonmises",50,"ssfOUT_60_2_2_KINGCOBRA","KINGCOBRA",2,0.5,60,"preference"
"ssfOUT_60_2_2_KINGCOBRA.4",0.509894645715732,0.0897797150224262,0.930009576409037,"ssf","mf.is","gamma","vonmises",158,"ssfOUT_60_2_2_KINGCOBRA","KINGCOBRA",2,0.5,60,"preference"
"ssfOUT_60_2_2_KINGCOBRA.5",0.485209990389603,0.0634448897528438,0.906975091026362,"ssf","mf.is","gamma","vonmises",500,"ssfOUT_60_2_2_KINGCOBRA","KINGCOBRA",2,0.5,60,"preference"
"ssfOUT_60_2_2_KINGCOBRA.6",0.471191340366681,0.0430565507928297,0.899326129940533,"ssf","mf.is","gamma","unif",5,"ssfOUT_60_2_2_KINGCOBRA","KINGCOBRA",2,0.5,60,"preference"
"ssfOUT_60_2_2_KINGCOBRA.7",0.468557417652968,0.0453267701285148,0.891788065177421,"ssf","mf.is","gamma","unif",15,"ssfOUT_60_2_2_KINGCOBRA","KINGCOBRA",2,0.5,60,"preference"
"ssfOUT_60_2_2_KINGCOBRA.8",0.474317605791102,0.0483388858109908,0.900296325771214,"ssf","mf.is","gamma","unif",50,"ssfOUT_60_2_2_KINGCOBRA","KINGCOBRA",2,0.5,60,"preference"
"ssfOUT_60_2_2_KINGCOBRA.9",0.541788603958504,0.121926550175805,0.961650657741205,"ssf","mf.is","gamma","unif",158,"ssfOUT_60_2_2_KINGCOBRA","KINGCOBRA",2,0.5,60,"preference"
"ssfOUT_60_2_2_KINGCOBRA.10",0.546575156048791,0.125026800217837,0.968123511879745,"ssf","mf.is","gamma","unif",500,"ssfOUT_60_2_2_KINGCOBRA","KINGCOBRA",2,0.5,60,"preference"
"ssfOUT_60_2_2_KINGCOBRA.11",0.318757728086017,-0.140272333796892,0.777787789968927,"ssf","mf.is","exp","vonmises",5,"ssfOUT_60_2_2_KINGCOBRA","KINGCOBRA",2,0.5,60,"no effect"
"ssfOUT_60_2_2_KINGCOBRA.12",0.284902764489449,-0.139673925777457,0.709479454756356,"ssf","mf.is","exp","vonmises",15,"ssfOUT_60_2_2_KINGCOBRA","KINGCOBRA",2,0.5,60,"no effect"
"ssfOUT_60_2_2_KINGCOBRA.13",0.665705856294671,0.225987260629046,1.1054244519603,"ssf","mf.is","exp","vonmises",50,"ssfOUT_60_2_2_KINGCOBRA","KINGCOBRA",2,0.5,60,"preference"
"ssfOUT_60_2_2_KINGCOBRA.14",0.475407472036721,0.0514303009895527,0.89938464308389,"ssf","mf.is","exp","vonmises",158,"ssfOUT_60_2_2_KINGCOBRA","KINGCOBRA",2,0.5,60,"preference"
"ssfOUT_60_2_2_KINGCOBRA.15",0.475490114743129,0.0426026876166506,0.908377541869607,"ssf","mf.is","exp","vonmises",500,"ssfOUT_60_2_2_KINGCOBRA","KINGCOBRA",2,0.5,60,"preference"
"ssfOUT_60_2_2_KINGCOBRA.16",0.621231976083839,0.140863348265892,1.10160060390179,"ssf","mf.is","exp","unif",5,"ssfOUT_60_2_2_KINGCOBRA","KINGCOBRA",2,0.5,60,"preference"
"ssfOUT_60_2_2_KINGCOBRA.17",0.31293464859019,-0.155772576563057,0.781641873743437,"ssf","mf.is","exp","unif",15,"ssfOUT_60_2_2_KINGCOBRA","KINGCOBRA",2,0.5,60,"no effect"
"ssfOUT_60_2_2_KINGCOBRA.18",0.453318419733865,0.0179075717968827,0.888729267670848,"ssf","mf.is","exp","unif",50,"ssfOUT_60_2_2_KINGCOBRA","KINGCOBRA",2,0.5,60,"preference"
"ssfOUT_60_2_2_KINGCOBRA.19",0.368600700914703,-0.0520797919717748,0.789281193801181,"ssf","mf.is","exp","unif",158,"ssfOUT_60_2_2_KINGCOBRA","KINGCOBRA",2,0.5,60,"no effect"
"ssfOUT_60_2_2_KINGCOBRA.20",0.468638878500936,0.0332534768847258,0.904024280117145,"ssf","mf.is","exp","unif",500,"ssfOUT_60_2_2_KINGCOBRA","KINGCOBRA",2,0.5,60,"preference"
"ssfOUT_60_2_2_KINGCOBRA.21",0.305194814394744,-0.134451959417477,0.744841588206964,"ssf","mf.ss","gamma","vonmises",5,"ssfOUT_60_2_2_KINGCOBRA","KINGCOBRA",2,0.5,60,"no effect"
"ssfOUT_60_2_2_KINGCOBRA.22",0.597732126094477,0.18317864875814,1.01228560343081,"ssf","mf.ss","gamma","vonmises",15,"ssfOUT_60_2_2_KINGCOBRA","KINGCOBRA",2,0.5,60,"preference"
"ssfOUT_60_2_2_KINGCOBRA.23",0.574746281824698,0.154217793200034,0.995274770449361,"ssf","mf.ss","gamma","vonmises",50,"ssfOUT_60_2_2_KINGCOBRA","KINGCOBRA",2,0.5,60,"preference"
"ssfOUT_60_2_2_KINGCOBRA.24",0.534528975092838,0.114276498229401,0.954781451956275,"ssf","mf.ss","gamma","vonmises",158,"ssfOUT_60_2_2_KINGCOBRA","KINGCOBRA",2,0.5,60,"preference"
"ssfOUT_60_2_2_KINGCOBRA.25",0.514838941966917,0.0928504218480982,0.936827462085735,"ssf","mf.ss","gamma","vonmises",500,"ssfOUT_60_2_2_KINGCOBRA","KINGCOBRA",2,0.5,60,"preference"
"ssfOUT_60_2_2_KINGCOBRA.26",0.418507997024789,-0.0102315714459745,0.847247565495553,"ssf","mf.ss","gamma","unif",5,"ssfOUT_60_2_2_KINGCOBRA","KINGCOBRA",2,0.5,60,"no effect"
"ssfOUT_60_2_2_KINGCOBRA.27",0.472866358119686,0.0478978972283776,0.897834819010995,"ssf","mf.ss","gamma","unif",15,"ssfOUT_60_2_2_KINGCOBRA","KINGCOBRA",2,0.5,60,"preference"
"ssfOUT_60_2_2_KINGCOBRA.28",0.49399833326794,0.0663971455118648,0.921599521024016,"ssf","mf.ss","gamma","unif",50,"ssfOUT_60_2_2_KINGCOBRA","KINGCOBRA",2,0.5,60,"preference"
"ssfOUT_60_2_2_KINGCOBRA.29",0.543898043847422,0.1235341788039,0.964261908890945,"ssf","mf.ss","gamma","unif",158,"ssfOUT_60_2_2_KINGCOBRA","KINGCOBRA",2,0.5,60,"preference"
"ssfOUT_60_2_2_KINGCOBRA.30",0.554351188099742,0.132138966070623,0.976563410128861,"ssf","mf.ss","gamma","unif",500,"ssfOUT_60_2_2_KINGCOBRA","KINGCOBRA",2,0.5,60,"preference"
"ssfOUT_60_2_2_KINGCOBRA.31",0.674800734275817,0.247594873365873,1.10200659518576,"ssf","mf.ss","exp","vonmises",5,"ssfOUT_60_2_2_KINGCOBRA","KINGCOBRA",2,0.5,60,"preference"
"ssfOUT_60_2_2_KINGCOBRA.32",0.660101967706298,0.25549673212188,1.06470720329072,"ssf","mf.ss","exp","vonmises",15,"ssfOUT_60_2_2_KINGCOBRA","KINGCOBRA",2,0.5,60,"preference"
"ssfOUT_60_2_2_KINGCOBRA.33",0.632414964848975,0.231986913138883,1.03284301655907,"ssf","mf.ss","exp","vonmises",50,"ssfOUT_60_2_2_KINGCOBRA","KINGCOBRA",2,0.5,60,"preference"
"ssfOUT_60_2_2_KINGCOBRA.34",0.607015736711498,0.209559516770538,1.00447195665246,"ssf","mf.ss","exp","vonmises",158,"ssfOUT_60_2_2_KINGCOBRA","KINGCOBRA",2,0.5,60,"preference"
"ssfOUT_60_2_2_KINGCOBRA.35",0.623268360063146,0.225626149207704,1.02091057091859,"ssf","mf.ss","exp","vonmises",500,"ssfOUT_60_2_2_KINGCOBRA","KINGCOBRA",2,0.5,60,"preference"
"ssfOUT_60_2_2_KINGCOBRA.36",0.703548721126983,0.27358039261688,1.13351704963709,"ssf","mf.ss","exp","unif",5,"ssfOUT_60_2_2_KINGCOBRA","KINGCOBRA",2,0.5,60,"preference"
"ssfOUT_60_2_2_KINGCOBRA.37",0.49956295491338,0.083323755989289,0.91580215383747,"ssf","mf.ss","exp","unif",15,"ssfOUT_60_2_2_KINGCOBRA","KINGCOBRA",2,0.5,60,"preference"
"ssfOUT_60_2_2_KINGCOBRA.38",0.617338684062688,0.219118179875409,1.01555918824997,"ssf","mf.ss","exp","unif",50,"ssfOUT_60_2_2_KINGCOBRA","KINGCOBRA",2,0.5,60,"preference"
"ssfOUT_60_2_2_KINGCOBRA.39",0.571248497527108,0.175104851915556,0.96739214313866,"ssf","mf.ss","exp","unif",158,"ssfOUT_60_2_2_KINGCOBRA","KINGCOBRA",2,0.5,60,"preference"
"ssfOUT_60_2_2_KINGCOBRA.40",0.56538088474553,0.16816577724291,0.96259599224815,"ssf","mf.ss","exp","unif",500,"ssfOUT_60_2_2_KINGCOBRA","KINGCOBRA",2,0.5,60,"preference"
"ssfOUT_60_2_3_BADGER.1",-0.045978848196763,-0.364186065919732,0.272228369526206,"ssf","mf.is","gamma","vonmises",5,"ssfOUT_60_2_3_BADGER","BADGER",3,0.5,60,"no effect"
"ssfOUT_60_2_3_BADGER.2",0.205378172262366,-0.0942257107623941,0.504982055287125,"ssf","mf.is","gamma","vonmises",15,"ssfOUT_60_2_3_BADGER","BADGER",3,0.5,60,"no effect"
"ssfOUT_60_2_3_BADGER.3",0.220456604945452,-0.0752816439175849,0.516194853808489,"ssf","mf.is","gamma","vonmises",50,"ssfOUT_60_2_3_BADGER","BADGER",3,0.5,60,"no effect"
"ssfOUT_60_2_3_BADGER.4",0.146429992926703,-0.149352715594966,0.442212701448371,"ssf","mf.is","gamma","vonmises",158,"ssfOUT_60_2_3_BADGER","BADGER",3,0.5,60,"no effect"
"ssfOUT_60_2_3_BADGER.5",0.160782981983949,-0.133620311419306,0.455186275387205,"ssf","mf.is","gamma","vonmises",500,"ssfOUT_60_2_3_BADGER","BADGER",3,0.5,60,"no effect"
"ssfOUT_60_2_3_BADGER.6",0.402359655280257,0.083491948610895,0.721227361949619,"ssf","mf.is","gamma","unif",5,"ssfOUT_60_2_3_BADGER","BADGER",3,0.5,60,"preference"
"ssfOUT_60_2_3_BADGER.7",0.0369105002946111,-0.264807980495189,0.338628981084411,"ssf","mf.is","gamma","unif",15,"ssfOUT_60_2_3_BADGER","BADGER",3,0.5,60,"no effect"
"ssfOUT_60_2_3_BADGER.8",0.189884064552147,-0.107110856968014,0.486878986072308,"ssf","mf.is","gamma","unif",50,"ssfOUT_60_2_3_BADGER","BADGER",3,0.5,60,"no effect"
"ssfOUT_60_2_3_BADGER.9",0.202802219741773,-0.0915056345353444,0.49711007401889,"ssf","mf.is","gamma","unif",158,"ssfOUT_60_2_3_BADGER","BADGER",3,0.5,60,"no effect"
"ssfOUT_60_2_3_BADGER.10",0.160311722536695,-0.133137753910998,0.453761198984388,"ssf","mf.is","gamma","unif",500,"ssfOUT_60_2_3_BADGER","BADGER",3,0.5,60,"no effect"
"ssfOUT_60_2_3_BADGER.11",0.25765821020688,-0.0617074994022289,0.577023919815989,"ssf","mf.is","exp","vonmises",5,"ssfOUT_60_2_3_BADGER","BADGER",3,0.5,60,"no effect"
"ssfOUT_60_2_3_BADGER.12",0.195497702874293,-0.108193698303856,0.499189104052442,"ssf","mf.is","exp","vonmises",15,"ssfOUT_60_2_3_BADGER","BADGER",3,0.5,60,"no effect"
"ssfOUT_60_2_3_BADGER.13",0.223806515724042,-0.0722709309304258,0.51988396237851,"ssf","mf.is","exp","vonmises",50,"ssfOUT_60_2_3_BADGER","BADGER",3,0.5,60,"no effect"
"ssfOUT_60_2_3_BADGER.14",0.200861972097851,-0.0934319879360443,0.495155932131747,"ssf","mf.is","exp","vonmises",158,"ssfOUT_60_2_3_BADGER","BADGER",3,0.5,60,"no effect"
"ssfOUT_60_2_3_BADGER.15",0.174991362092669,-0.118577462692946,0.468560186878285,"ssf","mf.is","exp","vonmises",500,"ssfOUT_60_2_3_BADGER","BADGER",3,0.5,60,"no effect"
"ssfOUT_60_2_3_BADGER.16",0.235180279429612,-0.0894487656966405,0.559809324555865,"ssf","mf.is","exp","unif",5,"ssfOUT_60_2_3_BADGER","BADGER",3,0.5,60,"no effect"
"ssfOUT_60_2_3_BADGER.17",0.145413474920533,-0.156200670774083,0.447027620615148,"ssf","mf.is","exp","unif",15,"ssfOUT_60_2_3_BADGER","BADGER",3,0.5,60,"no effect"
"ssfOUT_60_2_3_BADGER.18",0.229727552897868,-0.0655154088563779,0.524970514652115,"ssf","mf.is","exp","unif",50,"ssfOUT_60_2_3_BADGER","BADGER",3,0.5,60,"no effect"
"ssfOUT_60_2_3_BADGER.19",0.154233583442204,-0.139234030210114,0.447701197094521,"ssf","mf.is","exp","unif",158,"ssfOUT_60_2_3_BADGER","BADGER",3,0.5,60,"no effect"
"ssfOUT_60_2_3_BADGER.20",0.181757718840415,-0.11264353614396,0.47615897382479,"ssf","mf.is","exp","unif",500,"ssfOUT_60_2_3_BADGER","BADGER",3,0.5,60,"no effect"
"ssfOUT_60_2_3_BADGER.21",-0.0352624492306913,-0.352801221670688,0.282276323209306,"ssf","mf.ss","gamma","vonmises",5,"ssfOUT_60_2_3_BADGER","BADGER",3,0.5,60,"no effect"
"ssfOUT_60_2_3_BADGER.22",0.210945090297951,-0.0885124881909422,0.510402668786845,"ssf","mf.ss","gamma","vonmises",15,"ssfOUT_60_2_3_BADGER","BADGER",3,0.5,60,"no effect"
"ssfOUT_60_2_3_BADGER.23",0.220351873454832,-0.0752647823121568,0.51596852922182,"ssf","mf.ss","gamma","vonmises",50,"ssfOUT_60_2_3_BADGER","BADGER",3,0.5,60,"no effect"
"ssfOUT_60_2_3_BADGER.24",0.147152506740245,-0.148435452809698,0.442740466290188,"ssf","mf.ss","gamma","vonmises",158,"ssfOUT_60_2_3_BADGER","BADGER",3,0.5,60,"no effect"
"ssfOUT_60_2_3_BADGER.25",0.162381890362307,-0.131906641808293,0.456670422532906,"ssf","mf.ss","gamma","vonmises",500,"ssfOUT_60_2_3_BADGER","BADGER",3,0.5,60,"no effect"
"ssfOUT_60_2_3_BADGER.26",0.414142531279392,0.0959659687793049,0.732319093779479,"ssf","mf.ss","gamma","unif",5,"ssfOUT_60_2_3_BADGER","BADGER",3,0.5,60,"preference"
"ssfOUT_60_2_3_BADGER.27",0.0538736003000822,-0.247243987007183,0.354991187607348,"ssf","mf.ss","gamma","unif",15,"ssfOUT_60_2_3_BADGER","BADGER",3,0.5,60,"no effect"
"ssfOUT_60_2_3_BADGER.28",0.191439837075995,-0.105658221515416,0.488537895667407,"ssf","mf.ss","gamma","unif",50,"ssfOUT_60_2_3_BADGER","BADGER",3,0.5,60,"no effect"
"ssfOUT_60_2_3_BADGER.29",0.201692275131941,-0.0925715472419374,0.495956097505819,"ssf","mf.ss","gamma","unif",158,"ssfOUT_60_2_3_BADGER","BADGER",3,0.5,60,"no effect"
"ssfOUT_60_2_3_BADGER.30",0.16191789556361,-0.131414243560772,0.455250034687991,"ssf","mf.ss","gamma","unif",500,"ssfOUT_60_2_3_BADGER","BADGER",3,0.5,60,"no effect"
"ssfOUT_60_2_3_BADGER.31",0.249708352517407,-0.0696342890942043,0.569050994129017,"ssf","mf.ss","exp","vonmises",5,"ssfOUT_60_2_3_BADGER","BADGER",3,0.5,60,"no effect"
"ssfOUT_60_2_3_BADGER.32",0.201645385510448,-0.102185420075951,0.505476191096847,"ssf","mf.ss","exp","vonmises",15,"ssfOUT_60_2_3_BADGER","BADGER",3,0.5,60,"no effect"
"ssfOUT_60_2_3_BADGER.33",0.226684673232257,-0.069760445757509,0.523129792222023,"ssf","mf.ss","exp","vonmises",50,"ssfOUT_60_2_3_BADGER","BADGER",3,0.5,60,"no effect"
"ssfOUT_60_2_3_BADGER.34",0.1991282430044,-0.0954546162413729,0.493711102250173,"ssf","mf.ss","exp","vonmises",158,"ssfOUT_60_2_3_BADGER","BADGER",3,0.5,60,"no effect"
"ssfOUT_60_2_3_BADGER.35",0.177210841254791,-0.116672104555419,0.471093787065002,"ssf","mf.ss","exp","vonmises",500,"ssfOUT_60_2_3_BADGER","BADGER",3,0.5,60,"no effect"
"ssfOUT_60_2_3_BADGER.36",0.225194390167597,-0.0988505338479227,0.549239314183116,"ssf","mf.ss","exp","unif",5,"ssfOUT_60_2_3_BADGER","BADGER",3,0.5,60,"no effect"
"ssfOUT_60_2_3_BADGER.37",0.14244301683474,-0.159012086924715,0.443898120594195,"ssf","mf.ss","exp","unif",15,"ssfOUT_60_2_3_BADGER","BADGER",3,0.5,60,"no effect"
"ssfOUT_60_2_3_BADGER.38",0.229695702958128,-0.0658521304882655,0.525243536404522,"ssf","mf.ss","exp","unif",50,"ssfOUT_60_2_3_BADGER","BADGER",3,0.5,60,"no effect"
"ssfOUT_60_2_3_BADGER.39",0.155564168578248,-0.138145808349618,0.449274145506114,"ssf","mf.ss","exp","unif",158,"ssfOUT_60_2_3_BADGER","BADGER",3,0.5,60,"no effect"
"ssfOUT_60_2_3_BADGER.40",0.183201561407808,-0.111521357457386,0.477924480273001,"ssf","mf.ss","exp","unif",500,"ssfOUT_60_2_3_BADGER","BADGER",3,0.5,60,"no effect"
"ssfOUT_60_2_3_VULTURE.1",0.0622015256505584,-0.316947867042714,0.441350918343831,"ssf","mf.is","gamma","vonmises",5,"ssfOUT_60_2_3_VULTURE","VULTURE",3,0.5,60,"no effect"
"ssfOUT_60_2_3_VULTURE.2",0.263517573360055,-0.0954297160372722,0.622464862757383,"ssf","mf.is","gamma","vonmises",15,"ssfOUT_60_2_3_VULTURE","VULTURE",3,0.5,60,"no effect"
"ssfOUT_60_2_3_VULTURE.3",0.118344056006681,-0.236194952425203,0.472883064438566,"ssf","mf.is","gamma","vonmises",50,"ssfOUT_60_2_3_VULTURE","VULTURE",3,0.5,60,"no effect"
"ssfOUT_60_2_3_VULTURE.4",0.240744523001554,-0.106325247970668,0.587814293973777,"ssf","mf.is","gamma","vonmises",158,"ssfOUT_60_2_3_VULTURE","VULTURE",3,0.5,60,"no effect"
"ssfOUT_60_2_3_VULTURE.5",0.2018671105137,-0.145002855177789,0.548737076205188,"ssf","mf.is","gamma","vonmises",500,"ssfOUT_60_2_3_VULTURE","VULTURE",3,0.5,60,"no effect"
"ssfOUT_60_2_3_VULTURE.6",0.303430141214095,-0.071792973210891,0.678653255639081,"ssf","mf.is","gamma","unif",5,"ssfOUT_60_2_3_VULTURE","VULTURE",3,0.5,60,"no effect"
"ssfOUT_60_2_3_VULTURE.7",0.315790546596926,-0.0418737563641213,0.673454849557974,"ssf","mf.is","gamma","unif",15,"ssfOUT_60_2_3_VULTURE","VULTURE",3,0.5,60,"no effect"
"ssfOUT_60_2_3_VULTURE.8",0.269805817964324,-0.0789072076600795,0.618518843588728,"ssf","mf.is","gamma","unif",50,"ssfOUT_60_2_3_VULTURE","VULTURE",3,0.5,60,"no effect"
"ssfOUT_60_2_3_VULTURE.9",0.250878345247959,-0.096608038234285,0.598364728730203,"ssf","mf.is","gamma","unif",158,"ssfOUT_60_2_3_VULTURE","VULTURE",3,0.5,60,"no effect"
"ssfOUT_60_2_3_VULTURE.10",0.217465498111582,-0.128787649061675,0.563718645284839,"ssf","mf.is","gamma","unif",500,"ssfOUT_60_2_3_VULTURE","VULTURE",3,0.5,60,"no effect"
"ssfOUT_60_2_3_VULTURE.11",0.389682567245316,0.0144151154116179,0.764950019079014,"ssf","mf.is","exp","vonmises",5,"ssfOUT_60_2_3_VULTURE","VULTURE",3,0.5,60,"preference"
"ssfOUT_60_2_3_VULTURE.12",0.253477925108343,-0.104240484570015,0.6111963347867,"ssf","mf.is","exp","vonmises",15,"ssfOUT_60_2_3_VULTURE","VULTURE",3,0.5,60,"no effect"
"ssfOUT_60_2_3_VULTURE.13",0.3220366436457,-0.0285894226664017,0.672662709957802,"ssf","mf.is","exp","vonmises",50,"ssfOUT_60_2_3_VULTURE","VULTURE",3,0.5,60,"no effect"
"ssfOUT_60_2_3_VULTURE.14",0.283882350576212,-0.064284204077305,0.632048905229729,"ssf","mf.is","exp","vonmises",158,"ssfOUT_60_2_3_VULTURE","VULTURE",3,0.5,60,"no effect"
"ssfOUT_60_2_3_VULTURE.15",0.21154625250705,-0.1343609062463,0.557453411260399,"ssf","mf.is","exp","vonmises",500,"ssfOUT_60_2_3_VULTURE","VULTURE",3,0.5,60,"no effect"
"ssfOUT_60_2_3_VULTURE.16",0.564482329273486,0.192821051154665,0.936143607392307,"ssf","mf.is","exp","unif",5,"ssfOUT_60_2_3_VULTURE","VULTURE",3,0.5,60,"preference"
"ssfOUT_60_2_3_VULTURE.17",0.161571369090562,-0.203492488419158,0.526635226600281,"ssf","mf.is","exp","unif",15,"ssfOUT_60_2_3_VULTURE","VULTURE",3,0.5,60,"no effect"
"ssfOUT_60_2_3_VULTURE.18",0.259218932694031,-0.0888259293887538,0.607263794776816,"ssf","mf.is","exp","unif",50,"ssfOUT_60_2_3_VULTURE","VULTURE",3,0.5,60,"no effect"
"ssfOUT_60_2_3_VULTURE.19",0.185584162310274,-0.162133513069001,0.533301837689549,"ssf","mf.is","exp","unif",158,"ssfOUT_60_2_3_VULTURE","VULTURE",3,0.5,60,"no effect"
"ssfOUT_60_2_3_VULTURE.20",0.180138490641273,-0.166178730233722,0.526455711516267,"ssf","mf.is","exp","unif",500,"ssfOUT_60_2_3_VULTURE","VULTURE",3,0.5,60,"no effect"
"ssfOUT_60_2_3_VULTURE.21",0.0362855229697047,-0.341954491311166,0.414525537250575,"ssf","mf.ss","gamma","vonmises",5,"ssfOUT_60_2_3_VULTURE","VULTURE",3,0.5,60,"no effect"
"ssfOUT_60_2_3_VULTURE.22",0.248787082246687,-0.110908609056186,0.608482773549559,"ssf","mf.ss","gamma","vonmises",15,"ssfOUT_60_2_3_VULTURE","VULTURE",3,0.5,60,"no effect"
"ssfOUT_60_2_3_VULTURE.23",0.112919647050855,-0.24177685303838,0.467616147140089,"ssf","mf.ss","gamma","vonmises",50,"ssfOUT_60_2_3_VULTURE","VULTURE",3,0.5,60,"no effect"
"ssfOUT_60_2_3_VULTURE.24",0.233205452640616,-0.113898592651363,0.580309497932596,"ssf","mf.ss","gamma","vonmises",158,"ssfOUT_60_2_3_VULTURE","VULTURE",3,0.5,60,"no effect"
"ssfOUT_60_2_3_VULTURE.25",0.190061226793045,-0.156897007210522,0.537019460796611,"ssf","mf.ss","gamma","vonmises",500,"ssfOUT_60_2_3_VULTURE","VULTURE",3,0.5,60,"no effect"
"ssfOUT_60_2_3_VULTURE.26",0.295599215562803,-0.0797575592671205,0.670955990392726,"ssf","mf.ss","gamma","unif",5,"ssfOUT_60_2_3_VULTURE","VULTURE",3,0.5,60,"no effect"
"ssfOUT_60_2_3_VULTURE.27",0.320825108947883,-0.036768545635035,0.678418763530801,"ssf","mf.ss","gamma","unif",15,"ssfOUT_60_2_3_VULTURE","VULTURE",3,0.5,60,"no effect"
"ssfOUT_60_2_3_VULTURE.28",0.275891905444275,-0.0729712785099613,0.624755089398511,"ssf","mf.ss","gamma","unif",50,"ssfOUT_60_2_3_VULTURE","VULTURE",3,0.5,60,"no effect"
"ssfOUT_60_2_3_VULTURE.29",0.251104470008636,-0.0964449428459845,0.598653882863257,"ssf","mf.ss","gamma","unif",158,"ssfOUT_60_2_3_VULTURE","VULTURE",3,0.5,60,"no effect"
"ssfOUT_60_2_3_VULTURE.30",0.214463023931944,-0.131714726221821,0.56064077408571,"ssf","mf.ss","gamma","unif",500,"ssfOUT_60_2_3_VULTURE","VULTURE",3,0.5,60,"no effect"
"ssfOUT_60_2_3_VULTURE.31",0.328784226483267,-0.0432552128218071,0.70082366578834,"ssf","mf.ss","exp","vonmises",5,"ssfOUT_60_2_3_VULTURE","VULTURE",3,0.5,60,"no effect"
"ssfOUT_60_2_3_VULTURE.32",0.291645860226791,-0.0639494566342474,0.647241177087829,"ssf","mf.ss","exp","vonmises",15,"ssfOUT_60_2_3_VULTURE","VULTURE",3,0.5,60,"no effect"
"ssfOUT_60_2_3_VULTURE.33",0.352085052550623,0.00144220844715076,0.702727896654096,"ssf","mf.ss","exp","vonmises",50,"ssfOUT_60_2_3_VULTURE","VULTURE",3,0.5,60,"preference"
"ssfOUT_60_2_3_VULTURE.34",0.30405459437818,-0.0451591338671063,0.653268322623467,"ssf","mf.ss","exp","vonmises",158,"ssfOUT_60_2_3_VULTURE","VULTURE",3,0.5,60,"no effect"
"ssfOUT_60_2_3_VULTURE.35",0.243908563516475,-0.103382843213225,0.591199970246175,"ssf","mf.ss","exp","vonmises",500,"ssfOUT_60_2_3_VULTURE","VULTURE",3,0.5,60,"no effect"
"ssfOUT_60_2_3_VULTURE.36",0.444868706634186,0.0782972989596742,0.811440114308698,"ssf","mf.ss","exp","unif",5,"ssfOUT_60_2_3_VULTURE","VULTURE",3,0.5,60,"preference"
"ssfOUT_60_2_3_VULTURE.37",0.137573680189025,-0.226889298600539,0.502036658978589,"ssf","mf.ss","exp","unif",15,"ssfOUT_60_2_3_VULTURE","VULTURE",3,0.5,60,"no effect"
"ssfOUT_60_2_3_VULTURE.38",0.281328931954444,-0.0672253598872813,0.62988322379617,"ssf","mf.ss","exp","unif",50,"ssfOUT_60_2_3_VULTURE","VULTURE",3,0.5,60,"no effect"
"ssfOUT_60_2_3_VULTURE.39",0.225572866385553,-0.123383507565332,0.574529240336438,"ssf","mf.ss","exp","unif",158,"ssfOUT_60_2_3_VULTURE","VULTURE",3,0.5,60,"no effect"
"ssfOUT_60_2_3_VULTURE.40",0.220229949501631,-0.127606670523126,0.568066569526388,"ssf","mf.ss","exp","unif",500,"ssfOUT_60_2_3_VULTURE","VULTURE",3,0.5,60,"no effect"
"ssfOUT_60_2_3_KINGCOBRA.1",1.12400814375485,0.0105197781026687,2.23749650940702,"ssf","mf.is","gamma","vonmises",5,"ssfOUT_60_2_3_KINGCOBRA","KINGCOBRA",3,0.5,60,"preference"
"ssfOUT_60_2_3_KINGCOBRA.2",1.2753784893141,0.202533034326856,2.34822394430133,"ssf","mf.is","gamma","vonmises",15,"ssfOUT_60_2_3_KINGCOBRA","KINGCOBRA",3,0.5,60,"preference"
"ssfOUT_60_2_3_KINGCOBRA.3",0.98542294297203,-0.0672996878343316,2.03814557377839,"ssf","mf.is","gamma","vonmises",50,"ssfOUT_60_2_3_KINGCOBRA","KINGCOBRA",3,0.5,60,"no effect"
"ssfOUT_60_2_3_KINGCOBRA.4",1.09983441525896,0.0363466162594441,2.16332221425847,"ssf","mf.is","gamma","vonmises",158,"ssfOUT_60_2_3_KINGCOBRA","KINGCOBRA",3,0.5,60,"preference"
"ssfOUT_60_2_3_KINGCOBRA.5",1.09822085486416,0.0372232773383532,2.15921843238996,"ssf","mf.is","gamma","vonmises",500,"ssfOUT_60_2_3_KINGCOBRA","KINGCOBRA",3,0.5,60,"preference"
"ssfOUT_60_2_3_KINGCOBRA.6",1.35154445967809,0.277444118424155,2.42564480093202,"ssf","mf.is","gamma","unif",5,"ssfOUT_60_2_3_KINGCOBRA","KINGCOBRA",3,0.5,60,"preference"
"ssfOUT_60_2_3_KINGCOBRA.7",0.893489382628057,-0.205078090839343,1.99205685609546,"ssf","mf.is","gamma","unif",15,"ssfOUT_60_2_3_KINGCOBRA","KINGCOBRA",3,0.5,60,"no effect"
"ssfOUT_60_2_3_KINGCOBRA.8",0.868173364961846,-0.209547316360829,1.94589404628452,"ssf","mf.is","gamma","unif",50,"ssfOUT_60_2_3_KINGCOBRA","KINGCOBRA",3,0.5,60,"no effect"
"ssfOUT_60_2_3_KINGCOBRA.9",1.03353539019929,-0.0389035195574938,2.10597429995606,"ssf","mf.is","gamma","unif",158,"ssfOUT_60_2_3_KINGCOBRA","KINGCOBRA",3,0.5,60,"no effect"
"ssfOUT_60_2_3_KINGCOBRA.10",1.0858343471008,0.0223231382608491,2.14934555594076,"ssf","mf.is","gamma","unif",500,"ssfOUT_60_2_3_KINGCOBRA","KINGCOBRA",3,0.5,60,"preference"
"ssfOUT_60_2_3_KINGCOBRA.11",0.713572521776717,-0.393167162790051,1.82031220634348,"ssf","mf.is","exp","vonmises",5,"ssfOUT_60_2_3_KINGCOBRA","KINGCOBRA",3,0.5,60,"no effect"
"ssfOUT_60_2_3_KINGCOBRA.12",0.0995271860348605,-0.979594595717299,1.17864896778702,"ssf","mf.is","exp","vonmises",15,"ssfOUT_60_2_3_KINGCOBRA","KINGCOBRA",3,0.5,60,"no effect"
"ssfOUT_60_2_3_KINGCOBRA.13",1.00221458283545,-0.106825123204704,2.11125428887561,"ssf","mf.is","exp","vonmises",50,"ssfOUT_60_2_3_KINGCOBRA","KINGCOBRA",3,0.5,60,"no effect"
"ssfOUT_60_2_3_KINGCOBRA.14",1.44755891728437,0.38100013948455,2.51411769508419,"ssf","mf.is","exp","vonmises",158,"ssfOUT_60_2_3_KINGCOBRA","KINGCOBRA",3,0.5,60,"preference"
"ssfOUT_60_2_3_KINGCOBRA.15",1.9345083859295,0.673117913232403,3.1958988586266,"ssf","mf.is","exp","vonmises",500,"ssfOUT_60_2_3_KINGCOBRA","KINGCOBRA",3,0.5,60,"preference"
"ssfOUT_60_2_3_KINGCOBRA.16",0.532767008393973,-0.637992338919889,1.70352635570784,"ssf","mf.is","exp","unif",5,"ssfOUT_60_2_3_KINGCOBRA","KINGCOBRA",3,0.5,60,"no effect"
"ssfOUT_60_2_3_KINGCOBRA.17",-0.0257978362723323,-1.11484726559235,1.06325159304769,"ssf","mf.is","exp","unif",15,"ssfOUT_60_2_3_KINGCOBRA","KINGCOBRA",3,0.5,60,"no effect"
"ssfOUT_60_2_3_KINGCOBRA.18",0.935321082267096,-0.139966774614134,2.01060893914833,"ssf","mf.is","exp","unif",50,"ssfOUT_60_2_3_KINGCOBRA","KINGCOBRA",3,0.5,60,"no effect"
"ssfOUT_60_2_3_KINGCOBRA.19",0.886546350445475,-0.195401216440243,1.96849391733119,"ssf","mf.is","exp","unif",158,"ssfOUT_60_2_3_KINGCOBRA","KINGCOBRA",3,0.5,60,"no effect"
"ssfOUT_60_2_3_KINGCOBRA.20",1.16417441233676,0.0717921235073706,2.25655670116615,"ssf","mf.is","exp","unif",500,"ssfOUT_60_2_3_KINGCOBRA","KINGCOBRA",3,0.5,60,"preference"
"ssfOUT_60_2_3_KINGCOBRA.21",1.00105229298919,-0.109212188169546,2.11131677414794,"ssf","mf.ss","gamma","vonmises",5,"ssfOUT_60_2_3_KINGCOBRA","KINGCOBRA",3,0.5,60,"no effect"
"ssfOUT_60_2_3_KINGCOBRA.22",1.22743348598623,0.139012116281932,2.31585485569054,"ssf","mf.ss","gamma","vonmises",15,"ssfOUT_60_2_3_KINGCOBRA","KINGCOBRA",3,0.5,60,"preference"
"ssfOUT_60_2_3_KINGCOBRA.23",0.956168583940858,-0.116268742457565,2.02860591033928,"ssf","mf.ss","gamma","vonmises",50,"ssfOUT_60_2_3_KINGCOBRA","KINGCOBRA",3,0.5,60,"no effect"
"ssfOUT_60_2_3_KINGCOBRA.24",1.06508815766797,-0.0108903725593597,2.14106668789531,"ssf","mf.ss","gamma","vonmises",158,"ssfOUT_60_2_3_KINGCOBRA","KINGCOBRA",3,0.5,60,"no effect"
"ssfOUT_60_2_3_KINGCOBRA.25",1.05317372298145,-0.0159183089444297,2.12226575490732,"ssf","mf.ss","gamma","vonmises",500,"ssfOUT_60_2_3_KINGCOBRA","KINGCOBRA",3,0.5,60,"no effect"
"ssfOUT_60_2_3_KINGCOBRA.26",1.313396024864,0.238525416985144,2.38826663274286,"ssf","mf.ss","gamma","unif",5,"ssfOUT_60_2_3_KINGCOBRA","KINGCOBRA",3,0.5,60,"preference"
"ssfOUT_60_2_3_KINGCOBRA.27",0.81064104071365,-0.299135021244349,1.92041710267165,"ssf","mf.ss","gamma","unif",15,"ssfOUT_60_2_3_KINGCOBRA","KINGCOBRA",3,0.5,60,"no effect"
"ssfOUT_60_2_3_KINGCOBRA.28",0.857587373987855,-0.233057966470455,1.94823271444616,"ssf","mf.ss","gamma","unif",50,"ssfOUT_60_2_3_KINGCOBRA","KINGCOBRA",3,0.5,60,"no effect"
"ssfOUT_60_2_3_KINGCOBRA.29",0.991622919337542,-0.0876788992327113,2.0709247379078,"ssf","mf.ss","gamma","unif",158,"ssfOUT_60_2_3_KINGCOBRA","KINGCOBRA",3,0.5,60,"no effect"
"ssfOUT_60_2_3_KINGCOBRA.30",1.05253785190252,-0.0201258804762678,2.1252015842813,"ssf","mf.ss","gamma","unif",500,"ssfOUT_60_2_3_KINGCOBRA","KINGCOBRA",3,0.5,60,"no effect"
"ssfOUT_60_2_3_KINGCOBRA.31",1.27558017314995,0.169870816647159,2.38128952965273,"ssf","mf.ss","exp","vonmises",5,"ssfOUT_60_2_3_KINGCOBRA","KINGCOBRA",3,0.5,60,"preference"
"ssfOUT_60_2_3_KINGCOBRA.32",0.335265483609575,-0.738467859347811,1.40899882656696,"ssf","mf.ss","exp","vonmises",15,"ssfOUT_60_2_3_KINGCOBRA","KINGCOBRA",3,0.5,60,"no effect"
"ssfOUT_60_2_3_KINGCOBRA.33",0.972380823994957,-0.0977712762122329,2.04253292420215,"ssf","mf.ss","exp","vonmises",50,"ssfOUT_60_2_3_KINGCOBRA","KINGCOBRA",3,0.5,60,"no effect"
"ssfOUT_60_2_3_KINGCOBRA.34",0.89599481514417,-0.197847973675362,1.9898376039637,"ssf","mf.ss","exp","vonmises",158,"ssfOUT_60_2_3_KINGCOBRA","KINGCOBRA",3,0.5,60,"no effect"
"ssfOUT_60_2_3_KINGCOBRA.35",0.845187093086299,-0.240780154791536,1.93115434096413,"ssf","mf.ss","exp","vonmises",500,"ssfOUT_60_2_3_KINGCOBRA","KINGCOBRA",3,0.5,60,"no effect"
"ssfOUT_60_2_3_KINGCOBRA.36",0.85092949928378,-0.301367841695208,2.00322684026277,"ssf","mf.ss","exp","unif",5,"ssfOUT_60_2_3_KINGCOBRA","KINGCOBRA",3,0.5,60,"no effect"
"ssfOUT_60_2_3_KINGCOBRA.37",0.54157645269114,-0.535841586032715,1.618994491415,"ssf","mf.ss","exp","unif",15,"ssfOUT_60_2_3_KINGCOBRA","KINGCOBRA",3,0.5,60,"no effect"
"ssfOUT_60_2_3_KINGCOBRA.38",0.711649925019709,-0.381161380016558,1.80446123005598,"ssf","mf.ss","exp","unif",50,"ssfOUT_60_2_3_KINGCOBRA","KINGCOBRA",3,0.5,60,"no effect"
"ssfOUT_60_2_3_KINGCOBRA.39",0.970340729035817,-0.10818674870072,2.04886820677235,"ssf","mf.ss","exp","unif",158,"ssfOUT_60_2_3_KINGCOBRA","KINGCOBRA",3,0.5,60,"no effect"
"ssfOUT_60_2_3_KINGCOBRA.40",0.883720354239697,-0.199942170875665,1.96738287935506,"ssf","mf.ss","exp","unif",500,"ssfOUT_60_2_3_KINGCOBRA","KINGCOBRA",3,0.5,60,"no effect"
"ssfOUT_60_2_4_BADGER.1",1.04333678961032,0.60347748899856,1.48319609022208,"ssf","mf.is","gamma","vonmises",5,"ssfOUT_60_2_4_BADGER","BADGER",4,0.5,60,"preference"
"ssfOUT_60_2_4_BADGER.2",1.18497958352951,0.756431203321752,1.61352796373727,"ssf","mf.is","gamma","vonmises",15,"ssfOUT_60_2_4_BADGER","BADGER",4,0.5,60,"preference"
"ssfOUT_60_2_4_BADGER.3",1.2068976527547,0.786127135807892,1.62766816970152,"ssf","mf.is","gamma","vonmises",50,"ssfOUT_60_2_4_BADGER","BADGER",4,0.5,60,"preference"
"ssfOUT_60_2_4_BADGER.4",1.19346645725989,0.773009962801115,1.61392295171867,"ssf","mf.is","gamma","vonmises",158,"ssfOUT_60_2_4_BADGER","BADGER",4,0.5,60,"preference"
"ssfOUT_60_2_4_BADGER.5",1.17576419807663,0.756357768817866,1.5951706273354,"ssf","mf.is","gamma","vonmises",500,"ssfOUT_60_2_4_BADGER","BADGER",4,0.5,60,"preference"
"ssfOUT_60_2_4_BADGER.6",1.13989539585429,0.703624674632543,1.57616611707603,"ssf","mf.is","gamma","unif",5,"ssfOUT_60_2_4_BADGER","BADGER",4,0.5,60,"preference"
"ssfOUT_60_2_4_BADGER.7",1.06994674027161,0.641560588818522,1.49833289172469,"ssf","mf.is","gamma","unif",15,"ssfOUT_60_2_4_BADGER","BADGER",4,0.5,60,"preference"
"ssfOUT_60_2_4_BADGER.8",1.18918547631777,0.769168366606972,1.60920258602856,"ssf","mf.is","gamma","unif",50,"ssfOUT_60_2_4_BADGER","BADGER",4,0.5,60,"preference"
"ssfOUT_60_2_4_BADGER.9",1.1523387032524,0.733129564885279,1.57154784161951,"ssf","mf.is","gamma","unif",158,"ssfOUT_60_2_4_BADGER","BADGER",4,0.5,60,"preference"
"ssfOUT_60_2_4_BADGER.10",1.19333101116096,0.774440269335679,1.61222175298623,"ssf","mf.is","gamma","unif",500,"ssfOUT_60_2_4_BADGER","BADGER",4,0.5,60,"preference"
"ssfOUT_60_2_4_BADGER.11",0.989407375155203,0.548867634451357,1.42994711585905,"ssf","mf.is","exp","vonmises",5,"ssfOUT_60_2_4_BADGER","BADGER",4,0.5,60,"preference"
"ssfOUT_60_2_4_BADGER.12",1.16024261685928,0.731413088584153,1.5890721451344,"ssf","mf.is","exp","vonmises",15,"ssfOUT_60_2_4_BADGER","BADGER",4,0.5,60,"preference"
"ssfOUT_60_2_4_BADGER.13",1.14429409335032,0.7234967803994,1.56509140630125,"ssf","mf.is","exp","vonmises",50,"ssfOUT_60_2_4_BADGER","BADGER",4,0.5,60,"preference"
"ssfOUT_60_2_4_BADGER.14",1.17995868204722,0.761018461900075,1.59889890219437,"ssf","mf.is","exp","vonmises",158,"ssfOUT_60_2_4_BADGER","BADGER",4,0.5,60,"preference"
"ssfOUT_60_2_4_BADGER.15",1.19643660291525,0.776987976502938,1.61588522932757,"ssf","mf.is","exp","vonmises",500,"ssfOUT_60_2_4_BADGER","BADGER",4,0.5,60,"preference"
"ssfOUT_60_2_4_BADGER.16",1.47435977557783,1.04073573103056,1.90798382012511,"ssf","mf.is","exp","unif",5,"ssfOUT_60_2_4_BADGER","BADGER",4,0.5,60,"preference"
"ssfOUT_60_2_4_BADGER.17",1.07142642030414,0.645715339390055,1.49713750121823,"ssf","mf.is","exp","unif",15,"ssfOUT_60_2_4_BADGER","BADGER",4,0.5,60,"preference"
"ssfOUT_60_2_4_BADGER.18",1.17067544543575,0.749195319132952,1.59215557173855,"ssf","mf.is","exp","unif",50,"ssfOUT_60_2_4_BADGER","BADGER",4,0.5,60,"preference"
"ssfOUT_60_2_4_BADGER.19",1.147230696785,0.72729366925915,1.56716772431085,"ssf","mf.is","exp","unif",158,"ssfOUT_60_2_4_BADGER","BADGER",4,0.5,60,"preference"
"ssfOUT_60_2_4_BADGER.20",1.19027756764179,0.771308868851745,1.60924626643183,"ssf","mf.is","exp","unif",500,"ssfOUT_60_2_4_BADGER","BADGER",4,0.5,60,"preference"
"ssfOUT_60_2_4_BADGER.21",1.04892844260964,0.61005473358237,1.48780215163691,"ssf","mf.ss","gamma","vonmises",5,"ssfOUT_60_2_4_BADGER","BADGER",4,0.5,60,"preference"
"ssfOUT_60_2_4_BADGER.22",1.16349919051315,0.735285130940935,1.59171325008536,"ssf","mf.ss","gamma","vonmises",15,"ssfOUT_60_2_4_BADGER","BADGER",4,0.5,60,"preference"
"ssfOUT_60_2_4_BADGER.23",1.18309309845277,0.762354861699047,1.60383133520649,"ssf","mf.ss","gamma","vonmises",50,"ssfOUT_60_2_4_BADGER","BADGER",4,0.5,60,"preference"
"ssfOUT_60_2_4_BADGER.24",1.16935091025544,0.748877321203148,1.58982449930773,"ssf","mf.ss","gamma","vonmises",158,"ssfOUT_60_2_4_BADGER","BADGER",4,0.5,60,"preference"
"ssfOUT_60_2_4_BADGER.25",1.14535799109853,0.725909442143209,1.56480654005384,"ssf","mf.ss","gamma","vonmises",500,"ssfOUT_60_2_4_BADGER","BADGER",4,0.5,60,"preference"
"ssfOUT_60_2_4_BADGER.26",1.14123785470485,0.704915641568274,1.57756006784142,"ssf","mf.ss","gamma","unif",5,"ssfOUT_60_2_4_BADGER","BADGER",4,0.5,60,"preference"
"ssfOUT_60_2_4_BADGER.27",1.04485968528962,0.616853549247352,1.47286582133189,"ssf","mf.ss","gamma","unif",15,"ssfOUT_60_2_4_BADGER","BADGER",4,0.5,60,"preference"
"ssfOUT_60_2_4_BADGER.28",1.16859658114522,0.748441375242007,1.58875178704843,"ssf","mf.ss","gamma","unif",50,"ssfOUT_60_2_4_BADGER","BADGER",4,0.5,60,"preference"
"ssfOUT_60_2_4_BADGER.29",1.13608710902543,0.716622542595726,1.55555167545513,"ssf","mf.ss","gamma","unif",158,"ssfOUT_60_2_4_BADGER","BADGER",4,0.5,60,"preference"
"ssfOUT_60_2_4_BADGER.30",1.17272107609765,0.753682858552083,1.59175929364321,"ssf","mf.ss","gamma","unif",500,"ssfOUT_60_2_4_BADGER","BADGER",4,0.5,60,"preference"
"ssfOUT_60_2_4_BADGER.31",0.960971009476573,0.520799987417404,1.40114203153574,"ssf","mf.ss","exp","vonmises",5,"ssfOUT_60_2_4_BADGER","BADGER",4,0.5,60,"preference"
"ssfOUT_60_2_4_BADGER.32",1.15954621305363,0.730776945309276,1.58831548079798,"ssf","mf.ss","exp","vonmises",15,"ssfOUT_60_2_4_BADGER","BADGER",4,0.5,60,"preference"
"ssfOUT_60_2_4_BADGER.33",1.13008197901745,0.709566830320695,1.55059712771421,"ssf","mf.ss","exp","vonmises",50,"ssfOUT_60_2_4_BADGER","BADGER",4,0.5,60,"preference"
"ssfOUT_60_2_4_BADGER.34",1.16359110276702,0.744755318814575,1.58242688671946,"ssf","mf.ss","exp","vonmises",158,"ssfOUT_60_2_4_BADGER","BADGER",4,0.5,60,"preference"
"ssfOUT_60_2_4_BADGER.35",1.18282086652159,0.763677373866557,1.60196435917663,"ssf","mf.ss","exp","vonmises",500,"ssfOUT_60_2_4_BADGER","BADGER",4,0.5,60,"preference"
"ssfOUT_60_2_4_BADGER.36",1.48456916136563,1.05054480814846,1.9185935145828,"ssf","mf.ss","exp","unif",5,"ssfOUT_60_2_4_BADGER","BADGER",4,0.5,60,"preference"
"ssfOUT_60_2_4_BADGER.37",1.06521057481346,0.639753334802154,1.49066781482476,"ssf","mf.ss","exp","unif",15,"ssfOUT_60_2_4_BADGER","BADGER",4,0.5,60,"preference"
"ssfOUT_60_2_4_BADGER.38",1.16266877296704,0.741509420720898,1.58382812521318,"ssf","mf.ss","exp","unif",50,"ssfOUT_60_2_4_BADGER","BADGER",4,0.5,60,"preference"
"ssfOUT_60_2_4_BADGER.39",1.14306407599103,0.72336174075479,1.56276641122727,"ssf","mf.ss","exp","unif",158,"ssfOUT_60_2_4_BADGER","BADGER",4,0.5,60,"preference"
"ssfOUT_60_2_4_BADGER.40",1.1851369458989,0.766387450334469,1.60388644146333,"ssf","mf.ss","exp","unif",500,"ssfOUT_60_2_4_BADGER","BADGER",4,0.5,60,"preference"
"ssfOUT_60_2_4_VULTURE.1",0.234330563445691,-0.0548096140100908,0.523470740901472,"ssf","mf.is","gamma","vonmises",5,"ssfOUT_60_2_4_VULTURE","VULTURE",4,0.5,60,"no effect"
"ssfOUT_60_2_4_VULTURE.2",0.108129758911218,-0.168970631077667,0.385230148900104,"ssf","mf.is","gamma","vonmises",15,"ssfOUT_60_2_4_VULTURE","VULTURE",4,0.5,60,"no effect"
"ssfOUT_60_2_4_VULTURE.3",0.199749434076666,-0.0701956786405918,0.469694546793924,"ssf","mf.is","gamma","vonmises",50,"ssfOUT_60_2_4_VULTURE","VULTURE",4,0.5,60,"no effect"
"ssfOUT_60_2_4_VULTURE.4",0.180362478715096,-0.0879365966695885,0.44866155409978,"ssf","mf.is","gamma","vonmises",158,"ssfOUT_60_2_4_VULTURE","VULTURE",4,0.5,60,"no effect"
"ssfOUT_60_2_4_VULTURE.5",0.216184557564413,-0.0519190961590759,0.484288211287902,"ssf","mf.is","gamma","vonmises",500,"ssfOUT_60_2_4_VULTURE","VULTURE",4,0.5,60,"no effect"
"ssfOUT_60_2_4_VULTURE.6",0.226650896828766,-0.0659384125385021,0.519240206196034,"ssf","mf.is","gamma","unif",5,"ssfOUT_60_2_4_VULTURE","VULTURE",4,0.5,60,"no effect"
"ssfOUT_60_2_4_VULTURE.7",0.14876529334444,-0.12845321995767,0.42598380664655,"ssf","mf.is","gamma","unif",15,"ssfOUT_60_2_4_VULTURE","VULTURE",4,0.5,60,"no effect"
"ssfOUT_60_2_4_VULTURE.8",0.213148910961408,-0.0569920175479554,0.483289839470772,"ssf","mf.is","gamma","unif",50,"ssfOUT_60_2_4_VULTURE","VULTURE",4,0.5,60,"no effect"
"ssfOUT_60_2_4_VULTURE.9",0.265491931400813,-0.00282241784325549,0.53380628064488,"ssf","mf.is","gamma","unif",158,"ssfOUT_60_2_4_VULTURE","VULTURE",4,0.5,60,"no effect"
"ssfOUT_60_2_4_VULTURE.10",0.202194524695714,-0.0655801429284871,0.469969192319916,"ssf","mf.is","gamma","unif",500,"ssfOUT_60_2_4_VULTURE","VULTURE",4,0.5,60,"no effect"
"ssfOUT_60_2_4_VULTURE.11",0.212284004117877,-0.0848457536096329,0.509413761845387,"ssf","mf.is","exp","vonmises",5,"ssfOUT_60_2_4_VULTURE","VULTURE",4,0.5,60,"no effect"
"ssfOUT_60_2_4_VULTURE.12",0.0852767437304968,-0.197230728749917,0.36778421621091,"ssf","mf.is","exp","vonmises",15,"ssfOUT_60_2_4_VULTURE","VULTURE",4,0.5,60,"no effect"
"ssfOUT_60_2_4_VULTURE.13",0.279249413157722,0.00824027557334406,0.5502585507421,"ssf","mf.is","exp","vonmises",50,"ssfOUT_60_2_4_VULTURE","VULTURE",4,0.5,60,"preference"
"ssfOUT_60_2_4_VULTURE.14",0.179153396644153,-0.0901199606846654,0.448426753972972,"ssf","mf.is","exp","vonmises",158,"ssfOUT_60_2_4_VULTURE","VULTURE",4,0.5,60,"no effect"
"ssfOUT_60_2_4_VULTURE.15",0.213598001723213,-0.0544994212216635,0.48169542466809,"ssf","mf.is","exp","vonmises",500,"ssfOUT_60_2_4_VULTURE","VULTURE",4,0.5,60,"no effect"
"ssfOUT_60_2_4_VULTURE.16",-0.134171116231702,-0.442968354818319,0.174626122354915,"ssf","mf.is","exp","unif",5,"ssfOUT_60_2_4_VULTURE","VULTURE",4,0.5,60,"no effect"
"ssfOUT_60_2_4_VULTURE.17",0.0641192276216988,-0.216231344802631,0.344469800046029,"ssf","mf.is","exp","unif",15,"ssfOUT_60_2_4_VULTURE","VULTURE",4,0.5,60,"no effect"
"ssfOUT_60_2_4_VULTURE.18",0.19953793371673,-0.0714448646094093,0.470520732042869,"ssf","mf.is","exp","unif",50,"ssfOUT_60_2_4_VULTURE","VULTURE",4,0.5,60,"no effect"
"ssfOUT_60_2_4_VULTURE.19",0.23463629271165,-0.0342863811783935,0.503558966601694,"ssf","mf.is","exp","unif",158,"ssfOUT_60_2_4_VULTURE","VULTURE",4,0.5,60,"no effect"
"ssfOUT_60_2_4_VULTURE.20",0.234340505779692,-0.0337927652651052,0.502473776824488,"ssf","mf.is","exp","unif",500,"ssfOUT_60_2_4_VULTURE","VULTURE",4,0.5,60,"no effect"
"ssfOUT_60_2_4_VULTURE.21",0.24211685093515,-0.0467231566379324,0.530956858508232,"ssf","mf.ss","gamma","vonmises",5,"ssfOUT_60_2_4_VULTURE","VULTURE",4,0.5,60,"no effect"
"ssfOUT_60_2_4_VULTURE.22",0.109060895420084,-0.167861473985539,0.385983264825706,"ssf","mf.ss","gamma","vonmises",15,"ssfOUT_60_2_4_VULTURE","VULTURE",4,0.5,60,"no effect"
"ssfOUT_60_2_4_VULTURE.23",0.197055896536948,-0.0727491659874908,0.466860959061386,"ssf","mf.ss","gamma","vonmises",50,"ssfOUT_60_2_4_VULTURE","VULTURE",4,0.5,60,"no effect"
"ssfOUT_60_2_4_VULTURE.24",0.178851722082206,-0.0893728572706715,0.447076301435084,"ssf","mf.ss","gamma","vonmises",158,"ssfOUT_60_2_4_VULTURE","VULTURE",4,0.5,60,"no effect"
"ssfOUT_60_2_4_VULTURE.25",0.214393739053129,-0.0536335914480642,0.482421069554322,"ssf","mf.ss","gamma","vonmises",500,"ssfOUT_60_2_4_VULTURE","VULTURE",4,0.5,60,"no effect"
"ssfOUT_60_2_4_VULTURE.26",0.208564718297135,-0.082967103303442,0.500096539897711,"ssf","mf.ss","gamma","unif",5,"ssfOUT_60_2_4_VULTURE","VULTURE",4,0.5,60,"no effect"
"ssfOUT_60_2_4_VULTURE.27",0.153241062984575,-0.123365047397433,0.429847173366582,"ssf","mf.ss","gamma","unif",15,"ssfOUT_60_2_4_VULTURE","VULTURE",4,0.5,60,"no effect"
"ssfOUT_60_2_4_VULTURE.28",0.218858898548126,-0.0509897699565477,0.4887075670528,"ssf","mf.ss","gamma","unif",50,"ssfOUT_60_2_4_VULTURE","VULTURE",4,0.5,60,"no effect"
"ssfOUT_60_2_4_VULTURE.29",0.275578610485106,0.00743571363679252,0.54372150733342,"ssf","mf.ss","gamma","unif",158,"ssfOUT_60_2_4_VULTURE","VULTURE",4,0.5,60,"preference"
"ssfOUT_60_2_4_VULTURE.30",0.211972575520948,-0.0556155642838898,0.479560715325785,"ssf","mf.ss","gamma","unif",500,"ssfOUT_60_2_4_VULTURE","VULTURE",4,0.5,60,"no effect"
"ssfOUT_60_2_4_VULTURE.31",0.25792677948966,-0.0316145093307134,0.547468068310033,"ssf","mf.ss","exp","vonmises",5,"ssfOUT_60_2_4_VULTURE","VULTURE",4,0.5,60,"no effect"
"ssfOUT_60_2_4_VULTURE.32",0.183096085174458,-0.0985865619471752,0.464778732296091,"ssf","mf.ss","exp","vonmises",15,"ssfOUT_60_2_4_VULTURE","VULTURE",4,0.5,60,"no effect"
"ssfOUT_60_2_4_VULTURE.33",0.288400363431257,0.0160039376767054,0.560796789185808,"ssf","mf.ss","exp","vonmises",50,"ssfOUT_60_2_4_VULTURE","VULTURE",4,0.5,60,"preference"
"ssfOUT_60_2_4_VULTURE.34",0.24419555821421,-0.0273266886549042,0.515717805083325,"ssf","mf.ss","exp","vonmises",158,"ssfOUT_60_2_4_VULTURE","VULTURE",4,0.5,60,"no effect"
"ssfOUT_60_2_4_VULTURE.35",0.258170926018298,-0.0120524517125567,0.528394303749152,"ssf","mf.ss","exp","vonmises",500,"ssfOUT_60_2_4_VULTURE","VULTURE",4,0.5,60,"no effect"
"ssfOUT_60_2_4_VULTURE.36",-0.0251387413613561,-0.324421509483078,0.274144026760365,"ssf","mf.ss","exp","unif",5,"ssfOUT_60_2_4_VULTURE","VULTURE",4,0.5,60,"no effect"
"ssfOUT_60_2_4_VULTURE.37",0.184829778421622,-0.0954676666152303,0.465127223458475,"ssf","mf.ss","exp","unif",15,"ssfOUT_60_2_4_VULTURE","VULTURE",4,0.5,60,"no effect"
"ssfOUT_60_2_4_VULTURE.38",0.25167057473568,-0.0204225833324028,0.523763732803762,"ssf","mf.ss","exp","unif",50,"ssfOUT_60_2_4_VULTURE","VULTURE",4,0.5,60,"no effect"
"ssfOUT_60_2_4_VULTURE.39",0.285852759668685,0.0152484360567897,0.556457083280581,"ssf","mf.ss","exp","unif",158,"ssfOUT_60_2_4_VULTURE","VULTURE",4,0.5,60,"preference"
"ssfOUT_60_2_4_VULTURE.40",0.285484412424214,0.015082163545764,0.555886661302663,"ssf","mf.ss","exp","unif",500,"ssfOUT_60_2_4_VULTURE","VULTURE",4,0.5,60,"preference"
"ssfOUT_60_2_4_KINGCOBRA.1",0.666245314656466,0.040455834513048,1.29203479479988,"ssf","mf.is","gamma","vonmises",5,"ssfOUT_60_2_4_KINGCOBRA","KINGCOBRA",4,0.5,60,"preference"
"ssfOUT_60_2_4_KINGCOBRA.2",0.53133776706178,-0.0755322781680325,1.13820781229159,"ssf","mf.is","gamma","vonmises",15,"ssfOUT_60_2_4_KINGCOBRA","KINGCOBRA",4,0.5,60,"no effect"
"ssfOUT_60_2_4_KINGCOBRA.3",0.82032116256067,0.220321577776542,1.4203207473448,"ssf","mf.is","gamma","vonmises",50,"ssfOUT_60_2_4_KINGCOBRA","KINGCOBRA",4,0.5,60,"preference"
"ssfOUT_60_2_4_KINGCOBRA.4",0.821395142499177,0.224173493013973,1.41861679198438,"ssf","mf.is","gamma","vonmises",158,"ssfOUT_60_2_4_KINGCOBRA","KINGCOBRA",4,0.5,60,"preference"
"ssfOUT_60_2_4_KINGCOBRA.5",0.786404212899706,0.191931055693779,1.38087737010563,"ssf","mf.is","gamma","vonmises",500,"ssfOUT_60_2_4_KINGCOBRA","KINGCOBRA",4,0.5,60,"preference"
"ssfOUT_60_2_4_KINGCOBRA.6",1.00350330241302,0.394709122560589,1.61229748226544,"ssf","mf.is","gamma","unif",5,"ssfOUT_60_2_4_KINGCOBRA","KINGCOBRA",4,0.5,60,"preference"
"ssfOUT_60_2_4_KINGCOBRA.7",0.798856671119839,0.199045738645245,1.39866760359443,"ssf","mf.is","gamma","unif",15,"ssfOUT_60_2_4_KINGCOBRA","KINGCOBRA",4,0.5,60,"preference"
"ssfOUT_60_2_4_KINGCOBRA.8",0.749059058964117,0.155379559494782,1.34273855843345,"ssf","mf.is","gamma","unif",50,"ssfOUT_60_2_4_KINGCOBRA","KINGCOBRA",4,0.5,60,"preference"
"ssfOUT_60_2_4_KINGCOBRA.9",0.771787158719328,0.175536202092575,1.36803811534608,"ssf","mf.is","gamma","unif",158,"ssfOUT_60_2_4_KINGCOBRA","KINGCOBRA",4,0.5,60,"preference"
"ssfOUT_60_2_4_KINGCOBRA.10",0.815413189206367,0.220670009200771,1.41015636921196,"ssf","mf.is","gamma","unif",500,"ssfOUT_60_2_4_KINGCOBRA","KINGCOBRA",4,0.5,60,"preference"
"ssfOUT_60_2_4_KINGCOBRA.11",0.742999029364367,0.106711906285728,1.37928615244301,"ssf","mf.is","exp","vonmises",5,"ssfOUT_60_2_4_KINGCOBRA","KINGCOBRA",4,0.5,60,"preference"
"ssfOUT_60_2_4_KINGCOBRA.12",0.651920001234942,0.0442054976012418,1.25963450486864,"ssf","mf.is","exp","vonmises",15,"ssfOUT_60_2_4_KINGCOBRA","KINGCOBRA",4,0.5,60,"preference"
"ssfOUT_60_2_4_KINGCOBRA.13",0.648564040788428,0.0540350907486945,1.24309299082816,"ssf","mf.is","exp","vonmises",50,"ssfOUT_60_2_4_KINGCOBRA","KINGCOBRA",4,0.5,60,"preference"
"ssfOUT_60_2_4_KINGCOBRA.14",0.792268126680133,0.193239377840385,1.39129687551988,"ssf","mf.is","exp","vonmises",158,"ssfOUT_60_2_4_KINGCOBRA","KINGCOBRA",4,0.5,60,"preference"
"ssfOUT_60_2_4_KINGCOBRA.15",0.702964344995764,0.107769295178624,1.2981593948129,"ssf","mf.is","exp","vonmises",500,"ssfOUT_60_2_4_KINGCOBRA","KINGCOBRA",4,0.5,60,"preference"
"ssfOUT_60_2_4_KINGCOBRA.16",1.07692575763954,0.449739225149535,1.70411229012954,"ssf","mf.is","exp","unif",5,"ssfOUT_60_2_4_KINGCOBRA","KINGCOBRA",4,0.5,60,"preference"
"ssfOUT_60_2_4_KINGCOBRA.17",0.659078367424694,0.0589922609063326,1.25916447394305,"ssf","mf.is","exp","unif",15,"ssfOUT_60_2_4_KINGCOBRA","KINGCOBRA",4,0.5,60,"preference"
"ssfOUT_60_2_4_KINGCOBRA.18",1.00886058329369,0.361323837218305,1.65639732936907,"ssf","mf.is","exp","unif",50,"ssfOUT_60_2_4_KINGCOBRA","KINGCOBRA",4,0.5,60,"preference"
"ssfOUT_60_2_4_KINGCOBRA.19",0.770470036845284,0.169009567716138,1.37193050597443,"ssf","mf.is","exp","unif",158,"ssfOUT_60_2_4_KINGCOBRA","KINGCOBRA",4,0.5,60,"preference"
"ssfOUT_60_2_4_KINGCOBRA.20",0.751677309147662,0.153965871017847,1.34938874727748,"ssf","mf.is","exp","unif",500,"ssfOUT_60_2_4_KINGCOBRA","KINGCOBRA",4,0.5,60,"preference"
"ssfOUT_60_2_4_KINGCOBRA.21",0.722346633251821,0.0980756405961055,1.34661762590754,"ssf","mf.ss","gamma","vonmises",5,"ssfOUT_60_2_4_KINGCOBRA","KINGCOBRA",4,0.5,60,"preference"
"ssfOUT_60_2_4_KINGCOBRA.22",0.582885114511303,-0.0270631815183282,1.19283341054093,"ssf","mf.ss","gamma","vonmises",15,"ssfOUT_60_2_4_KINGCOBRA","KINGCOBRA",4,0.5,60,"no effect"
"ssfOUT_60_2_4_KINGCOBRA.23",0.804072906157481,0.2027536361517,1.40539217616326,"ssf","mf.ss","gamma","vonmises",50,"ssfOUT_60_2_4_KINGCOBRA","KINGCOBRA",4,0.5,60,"preference"
"ssfOUT_60_2_4_KINGCOBRA.24",0.808212156586976,0.211914965180376,1.40450934799358,"ssf","mf.ss","gamma","vonmises",158,"ssfOUT_60_2_4_KINGCOBRA","KINGCOBRA",4,0.5,60,"preference"
"ssfOUT_60_2_4_KINGCOBRA.25",0.785214948271532,0.191176002418817,1.37925389412425,"ssf","mf.ss","gamma","vonmises",500,"ssfOUT_60_2_4_KINGCOBRA","KINGCOBRA",4,0.5,60,"preference"
"ssfOUT_60_2_4_KINGCOBRA.26",1.05873420852671,0.450907456019651,1.66656096103377,"ssf","mf.ss","gamma","unif",5,"ssfOUT_60_2_4_KINGCOBRA","KINGCOBRA",4,0.5,60,"preference"
"ssfOUT_60_2_4_KINGCOBRA.27",0.79887614578787,0.19912368478369,1.39862860679205,"ssf","mf.ss","gamma","unif",15,"ssfOUT_60_2_4_KINGCOBRA","KINGCOBRA",4,0.5,60,"preference"
"ssfOUT_60_2_4_KINGCOBRA.28",0.742944467661857,0.150699869915182,1.33518906540853,"ssf","mf.ss","gamma","unif",50,"ssfOUT_60_2_4_KINGCOBRA","KINGCOBRA",4,0.5,60,"preference"
"ssfOUT_60_2_4_KINGCOBRA.29",0.780104996737467,0.185156854371983,1.37505313910295,"ssf","mf.ss","gamma","unif",158,"ssfOUT_60_2_4_KINGCOBRA","KINGCOBRA",4,0.5,60,"preference"
"ssfOUT_60_2_4_KINGCOBRA.30",0.824278791918288,0.229693789277203,1.41886379455937,"ssf","mf.ss","gamma","unif",500,"ssfOUT_60_2_4_KINGCOBRA","KINGCOBRA",4,0.5,60,"preference"
"ssfOUT_60_2_4_KINGCOBRA.31",0.798329737031046,0.187769608132427,1.40888986592966,"ssf","mf.ss","exp","vonmises",5,"ssfOUT_60_2_4_KINGCOBRA","KINGCOBRA",4,0.5,60,"preference"
"ssfOUT_60_2_4_KINGCOBRA.32",0.70589007806614,0.113050021544127,1.29873013458815,"ssf","mf.ss","exp","vonmises",15,"ssfOUT_60_2_4_KINGCOBRA","KINGCOBRA",4,0.5,60,"preference"
"ssfOUT_60_2_4_KINGCOBRA.33",0.727573092159336,0.141396176057615,1.31375000826106,"ssf","mf.ss","exp","vonmises",50,"ssfOUT_60_2_4_KINGCOBRA","KINGCOBRA",4,0.5,60,"preference"
"ssfOUT_60_2_4_KINGCOBRA.34",0.733577687189197,0.146798651035309,1.32035672334308,"ssf","mf.ss","exp","vonmises",158,"ssfOUT_60_2_4_KINGCOBRA","KINGCOBRA",4,0.5,60,"preference"
"ssfOUT_60_2_4_KINGCOBRA.35",0.761478516497069,0.176059419591213,1.34689761340293,"ssf","mf.ss","exp","vonmises",500,"ssfOUT_60_2_4_KINGCOBRA","KINGCOBRA",4,0.5,60,"preference"
"ssfOUT_60_2_4_KINGCOBRA.36",0.984360500804107,0.380073860199125,1.58864714140909,"ssf","mf.ss","exp","unif",5,"ssfOUT_60_2_4_KINGCOBRA","KINGCOBRA",4,0.5,60,"preference"
"ssfOUT_60_2_4_KINGCOBRA.37",0.929961840330987,0.336959161980849,1.52296451868113,"ssf","mf.ss","exp","unif",15,"ssfOUT_60_2_4_KINGCOBRA","KINGCOBRA",4,0.5,60,"preference"
"ssfOUT_60_2_4_KINGCOBRA.38",0.733375409232932,0.14588713668081,1.32086368178505,"ssf","mf.ss","exp","unif",50,"ssfOUT_60_2_4_KINGCOBRA","KINGCOBRA",4,0.5,60,"preference"
"ssfOUT_60_2_4_KINGCOBRA.39",0.768395125469084,0.182808299392081,1.35398195154609,"ssf","mf.ss","exp","unif",158,"ssfOUT_60_2_4_KINGCOBRA","KINGCOBRA",4,0.5,60,"preference"
"ssfOUT_60_2_4_KINGCOBRA.40",0.775624861304465,0.190721556876709,1.36052816573222,"ssf","mf.ss","exp","unif",500,"ssfOUT_60_2_4_KINGCOBRA","KINGCOBRA",4,0.5,60,"preference"
"ssfOUT_60_6_1_BADGER.1",16.2606337947705,-2365.59693493862,2398.11820252816,"ssf","mf.is","gamma","vonmises",5,"ssfOUT_60_6_1_BADGER","BADGER",1,0.166666666666667,60,"no effect"
"ssfOUT_60_6_1_BADGER.2",16.3807985602359,-2063.42819829663,2096.1897954171,"ssf","mf.is","gamma","vonmises",15,"ssfOUT_60_6_1_BADGER","BADGER",1,0.166666666666667,60,"no effect"
"ssfOUT_60_6_1_BADGER.3",16.2876545652839,-1844.06660324443,1876.641912375,"ssf","mf.is","gamma","vonmises",50,"ssfOUT_60_6_1_BADGER","BADGER",1,0.166666666666667,60,"no effect"
"ssfOUT_60_6_1_BADGER.4",16.2637480540632,-1805.34651036981,1837.87400647794,"ssf","mf.is","gamma","vonmises",158,"ssfOUT_60_6_1_BADGER","BADGER",1,0.166666666666667,60,"no effect"
"ssfOUT_60_6_1_BADGER.5",15.2518219645023,-1097.03902720167,1127.54267113068,"ssf","mf.is","gamma","vonmises",500,"ssfOUT_60_6_1_BADGER","BADGER",1,0.166666666666667,60,"no effect"
"ssfOUT_60_6_1_BADGER.6",16.2629675800107,-2559.08364089684,2591.60957605686,"ssf","mf.is","gamma","unif",5,"ssfOUT_60_6_1_BADGER","BADGER",1,0.166666666666667,60,"no effect"
"ssfOUT_60_6_1_BADGER.7",16.3280021235153,-1826.64144109004,1859.29744533707,"ssf","mf.is","gamma","unif",15,"ssfOUT_60_6_1_BADGER","BADGER",1,0.166666666666667,60,"no effect"
"ssfOUT_60_6_1_BADGER.8",16.2623989064289,-1749.56470921424,1782.08950702709,"ssf","mf.is","gamma","unif",50,"ssfOUT_60_6_1_BADGER","BADGER",1,0.166666666666667,60,"no effect"
"ssfOUT_60_6_1_BADGER.9",16.1974130109063,-1797.18725367756,1829.58207969938,"ssf","mf.is","gamma","unif",158,"ssfOUT_60_6_1_BADGER","BADGER",1,0.166666666666667,60,"no effect"
"ssfOUT_60_6_1_BADGER.10",16.217301124263,-1757.60991288249,1790.04451513101,"ssf","mf.is","gamma","unif",500,"ssfOUT_60_6_1_BADGER","BADGER",1,0.166666666666667,60,"no effect"
"ssfOUT_60_6_1_BADGER.11",17.3975041614695,-3122.10612600289,3156.90113432582,"ssf","mf.is","exp","vonmises",5,"ssfOUT_60_6_1_BADGER","BADGER",1,0.166666666666667,60,"no effect"
"ssfOUT_60_6_1_BADGER.12",16.4225441686306,-1803.81231749135,1836.65740582861,"ssf","mf.is","exp","vonmises",15,"ssfOUT_60_6_1_BADGER","BADGER",1,0.166666666666667,60,"no effect"
"ssfOUT_60_6_1_BADGER.13",16.3060281638333,-1847.46625819205,1880.07831451971,"ssf","mf.is","exp","vonmises",50,"ssfOUT_60_6_1_BADGER","BADGER",1,0.166666666666667,60,"no effect"
"ssfOUT_60_6_1_BADGER.14",16.245610238409,-1823.65745501418,1856.148675491,"ssf","mf.is","exp","vonmises",158,"ssfOUT_60_6_1_BADGER","BADGER",1,0.166666666666667,60,"no effect"
"ssfOUT_60_6_1_BADGER.15",16.2534843108009,-1772.37646350405,1804.88343212565,"ssf","mf.is","exp","vonmises",500,"ssfOUT_60_6_1_BADGER","BADGER",1,0.166666666666667,60,"no effect"
"ssfOUT_60_6_1_BADGER.16",16.5772883485195,-2136.45118484699,2169.60576154403,"ssf","mf.is","exp","unif",5,"ssfOUT_60_6_1_BADGER","BADGER",1,0.166666666666667,60,"no effect"
"ssfOUT_60_6_1_BADGER.17",16.3097871987899,-1858.8425866758,1891.46216107338,"ssf","mf.is","exp","unif",15,"ssfOUT_60_6_1_BADGER","BADGER",1,0.166666666666667,60,"no effect"
"ssfOUT_60_6_1_BADGER.18",16.1720930708486,-1945.02535571954,1977.36954186124,"ssf","mf.is","exp","unif",50,"ssfOUT_60_6_1_BADGER","BADGER",1,0.166666666666667,60,"no effect"
"ssfOUT_60_6_1_BADGER.19",16.2218977078033,-1793.09062453464,1825.53441995025,"ssf","mf.is","exp","unif",158,"ssfOUT_60_6_1_BADGER","BADGER",1,0.166666666666667,60,"no effect"
"ssfOUT_60_6_1_BADGER.20",15.2264227696204,-1068.07487023784,1098.52771577708,"ssf","mf.is","exp","unif",500,"ssfOUT_60_6_1_BADGER","BADGER",1,0.166666666666667,60,"no effect"
"ssfOUT_60_6_1_BADGER.21",16.4397687118958,-2365.40647005458,2398.28600747837,"ssf","mf.ss","gamma","vonmises",5,"ssfOUT_60_6_1_BADGER","BADGER",1,0.166666666666667,60,"no effect"
"ssfOUT_60_6_1_BADGER.22",16.2216661004637,-2076.04611078379,2108.48944298472,"ssf","mf.ss","gamma","vonmises",15,"ssfOUT_60_6_1_BADGER","BADGER",1,0.166666666666667,60,"no effect"
"ssfOUT_60_6_1_BADGER.23",16.2110438498999,-1836.31656432479,1868.73865202459,"ssf","mf.ss","gamma","vonmises",50,"ssfOUT_60_6_1_BADGER","BADGER",1,0.166666666666667,60,"no effect"
"ssfOUT_60_6_1_BADGER.24",16.172505686587,-1795.30755527205,1827.65256664522,"ssf","mf.ss","gamma","vonmises",158,"ssfOUT_60_6_1_BADGER","BADGER",1,0.166666666666667,60,"no effect"
"ssfOUT_60_6_1_BADGER.25",15.167433781375,-1094.39177000716,1124.72663756991,"ssf","mf.ss","gamma","vonmises",500,"ssfOUT_60_6_1_BADGER","BADGER",1,0.166666666666667,60,"no effect"
"ssfOUT_60_6_1_BADGER.26",16.3670832744829,-2558.90646512936,2591.64063167832,"ssf","mf.ss","gamma","unif",5,"ssfOUT_60_6_1_BADGER","BADGER",1,0.166666666666667,60,"no effect"
"ssfOUT_60_6_1_BADGER.27",16.2821790511905,-1827.6042154932,1860.16857359558,"ssf","mf.ss","gamma","unif",15,"ssfOUT_60_6_1_BADGER","BADGER",1,0.166666666666667,60,"no effect"
"ssfOUT_60_6_1_BADGER.28",16.1923083287428,-1747.51895069318,1779.90356735066,"ssf","mf.ss","gamma","unif",50,"ssfOUT_60_6_1_BADGER","BADGER",1,0.166666666666667,60,"no effect"
"ssfOUT_60_6_1_BADGER.29",16.1651302355898,-1794.59954676682,1826.929807238,"ssf","mf.ss","gamma","unif",158,"ssfOUT_60_6_1_BADGER","BADGER",1,0.166666666666667,60,"no effect"
"ssfOUT_60_6_1_BADGER.30",16.1775605998275,-1757.48725859169,1789.84237979134,"ssf","mf.ss","gamma","unif",500,"ssfOUT_60_6_1_BADGER","BADGER",1,0.166666666666667,60,"no effect"
"ssfOUT_60_6_1_BADGER.31",17.3734572780081,-3090.97814892693,3125.72506348294,"ssf","mf.ss","exp","vonmises",5,"ssfOUT_60_6_1_BADGER","BADGER",1,0.166666666666667,60,"no effect"
"ssfOUT_60_6_1_BADGER.32",16.2709105391199,-1789.05804443125,1821.59986550949,"ssf","mf.ss","exp","vonmises",15,"ssfOUT_60_6_1_BADGER","BADGER",1,0.166666666666667,60,"no effect"
"ssfOUT_60_6_1_BADGER.33",16.183603474092,-1810.95772236351,1843.32492931169,"ssf","mf.ss","exp","vonmises",50,"ssfOUT_60_6_1_BADGER","BADGER",1,0.166666666666667,60,"no effect"
"ssfOUT_60_6_1_BADGER.34",16.1536134970215,-1803.59552048718,1835.90274748122,"ssf","mf.ss","exp","vonmises",158,"ssfOUT_60_6_1_BADGER","BADGER",1,0.166666666666667,60,"no effect"
"ssfOUT_60_6_1_BADGER.35",16.1636347536743,-1756.58309012457,1788.91035963192,"ssf","mf.ss","exp","vonmises",500,"ssfOUT_60_6_1_BADGER","BADGER",1,0.166666666666667,60,"no effect"
"ssfOUT_60_6_1_BADGER.36",16.4248161637364,-2145.25243941171,2178.10207173919,"ssf","mf.ss","exp","unif",5,"ssfOUT_60_6_1_BADGER","BADGER",1,0.166666666666667,60,"no effect"
"ssfOUT_60_6_1_BADGER.37",16.2792417132007,-1846.99682112066,1879.55530454706,"ssf","mf.ss","exp","unif",15,"ssfOUT_60_6_1_BADGER","BADGER",1,0.166666666666667,60,"no effect"
"ssfOUT_60_6_1_BADGER.38",16.1656305205045,-1949.39055988653,1981.72182092754,"ssf","mf.ss","exp","unif",50,"ssfOUT_60_6_1_BADGER","BADGER",1,0.166666666666667,60,"no effect"
"ssfOUT_60_6_1_BADGER.39",16.1861107831561,-1778.13243908012,1810.50466064644,"ssf","mf.ss","exp","unif",158,"ssfOUT_60_6_1_BADGER","BADGER",1,0.166666666666667,60,"no effect"
"ssfOUT_60_6_1_BADGER.40",15.1745542870358,-1062.25558066699,1092.60468924106,"ssf","mf.ss","exp","unif",500,"ssfOUT_60_6_1_BADGER","BADGER",1,0.166666666666667,60,"no effect"
"ssfOUT_60_6_1_VULTURE.1",17.4604282142339,-3277.36408345182,3312.28493988029,"ssf","mf.is","gamma","vonmises",5,"ssfOUT_60_6_1_VULTURE","VULTURE",1,0.166666666666667,60,"no effect"
"ssfOUT_60_6_1_VULTURE.2",16.5380648780561,-1930.82468481124,1963.90081456735,"ssf","mf.is","gamma","vonmises",15,"ssfOUT_60_6_1_VULTURE","VULTURE",1,0.166666666666667,60,"no effect"
"ssfOUT_60_6_1_VULTURE.3",16.4738141417749,-1566.80346117797,1599.75108946152,"ssf","mf.is","gamma","vonmises",50,"ssfOUT_60_6_1_VULTURE","VULTURE",1,0.166666666666667,60,"no effect"
"ssfOUT_60_6_1_VULTURE.4",16.3883564911761,-1786.23244667397,1819.00915965633,"ssf","mf.is","gamma","vonmises",158,"ssfOUT_60_6_1_VULTURE","VULTURE",1,0.166666666666667,60,"no effect"
"ssfOUT_60_6_1_VULTURE.5",16.4376558157495,-1690.21414254466,1723.08945417616,"ssf","mf.is","gamma","vonmises",500,"ssfOUT_60_6_1_VULTURE","VULTURE",1,0.166666666666667,60,"no effect"
"ssfOUT_60_6_1_VULTURE.6",16.590401171009,-2063.31650219109,2096.49730453311,"ssf","mf.is","gamma","unif",5,"ssfOUT_60_6_1_VULTURE","VULTURE",1,0.166666666666667,60,"no effect"
"ssfOUT_60_6_1_VULTURE.7",16.4412856734256,-1726.39180743103,1759.27437877788,"ssf","mf.is","gamma","unif",15,"ssfOUT_60_6_1_VULTURE","VULTURE",1,0.166666666666667,60,"no effect"
"ssfOUT_60_6_1_VULTURE.8",16.40544937837,-1745.49638698977,1778.30728574651,"ssf","mf.is","gamma","unif",50,"ssfOUT_60_6_1_VULTURE","VULTURE",1,0.166666666666667,60,"no effect"
"ssfOUT_60_6_1_VULTURE.9",16.3968731405411,-1701.69116610826,1734.48491238934,"ssf","mf.is","gamma","unif",158,"ssfOUT_60_6_1_VULTURE","VULTURE",1,0.166666666666667,60,"no effect"
"ssfOUT_60_6_1_VULTURE.10",16.3813512427291,-1617.891918015,1650.65462050046,"ssf","mf.is","gamma","unif",500,"ssfOUT_60_6_1_VULTURE","VULTURE",1,0.166666666666667,60,"no effect"
"ssfOUT_60_6_1_VULTURE.11",16.8963959512758,-2622.41109760488,2656.20388950743,"ssf","mf.is","exp","vonmises",5,"ssfOUT_60_6_1_VULTURE","VULTURE",1,0.166666666666667,60,"no effect"
"ssfOUT_60_6_1_VULTURE.12",16.4025791665483,-1902.6979647985,1935.50312313159,"ssf","mf.is","exp","vonmises",15,"ssfOUT_60_6_1_VULTURE","VULTURE",1,0.166666666666667,60,"no effect"
"ssfOUT_60_6_1_VULTURE.13",16.4283945153541,-1697.29928965322,1730.15607868392,"ssf","mf.is","exp","vonmises",50,"ssfOUT_60_6_1_VULTURE","VULTURE",1,0.166666666666667,60,"no effect"
"ssfOUT_60_6_1_VULTURE.14",16.4346432409525,-1624.73815535506,1657.60744183697,"ssf","mf.is","exp","vonmises",158,"ssfOUT_60_6_1_VULTURE","VULTURE",1,0.166666666666667,60,"no effect"
"ssfOUT_60_6_1_VULTURE.15",16.4013543468683,-1650.14624851731,1682.94895721105,"ssf","mf.is","exp","vonmises",500,"ssfOUT_60_6_1_VULTURE","VULTURE",1,0.166666666666667,60,"no effect"
"ssfOUT_60_6_1_VULTURE.16",17.535560251822,-2897.54034804396,2932.6114685476,"ssf","mf.is","exp","unif",5,"ssfOUT_60_6_1_VULTURE","VULTURE",1,0.166666666666667,60,"no effect"
"ssfOUT_60_6_1_VULTURE.17",16.4741230848129,-1919.83333618037,1952.78158234999,"ssf","mf.is","exp","unif",15,"ssfOUT_60_6_1_VULTURE","VULTURE",1,0.166666666666667,60,"no effect"
"ssfOUT_60_6_1_VULTURE.18",16.2550011463868,-1690.76746510271,1723.27746739548,"ssf","mf.is","exp","unif",50,"ssfOUT_60_6_1_VULTURE","VULTURE",1,0.166666666666667,60,"no effect"
"ssfOUT_60_6_1_VULTURE.19",16.3920076643944,-1647.37895053912,1680.16296586791,"ssf","mf.is","exp","unif",158,"ssfOUT_60_6_1_VULTURE","VULTURE",1,0.166666666666667,60,"no effect"
"ssfOUT_60_6_1_VULTURE.20",16.3875904712717,-1619.83633017761,1652.61151112016,"ssf","mf.is","exp","unif",500,"ssfOUT_60_6_1_VULTURE","VULTURE",1,0.166666666666667,60,"no effect"
"ssfOUT_60_6_1_VULTURE.21",17.5432596411943,-3319.23402949966,3354.32054878205,"ssf","mf.ss","gamma","vonmises",5,"ssfOUT_60_6_1_VULTURE","VULTURE",1,0.166666666666667,60,"no effect"
"ssfOUT_60_6_1_VULTURE.22",16.4090217855232,-1914.29836753775,1947.1164111088,"ssf","mf.ss","gamma","vonmises",15,"ssfOUT_60_6_1_VULTURE","VULTURE",1,0.166666666666667,60,"no effect"
"ssfOUT_60_6_1_VULTURE.23",16.3203645966129,-1562.31221582354,1594.95294501676,"ssf","mf.ss","gamma","vonmises",50,"ssfOUT_60_6_1_VULTURE","VULTURE",1,0.166666666666667,60,"no effect"
"ssfOUT_60_6_1_VULTURE.24",16.2893951911417,-1782.10303569455,1814.68182607684,"ssf","mf.ss","gamma","vonmises",158,"ssfOUT_60_6_1_VULTURE","VULTURE",1,0.166666666666667,60,"no effect"
"ssfOUT_60_6_1_VULTURE.25",16.2967532001808,-1686.52766537131,1719.12117177167,"ssf","mf.ss","gamma","vonmises",500,"ssfOUT_60_6_1_VULTURE","VULTURE",1,0.166666666666667,60,"no effect"
"ssfOUT_60_6_1_VULTURE.26",16.5181030857866,-2059.48099949245,2092.51720566402,"ssf","mf.ss","gamma","unif",5,"ssfOUT_60_6_1_VULTURE","VULTURE",1,0.166666666666667,60,"no effect"
"ssfOUT_60_6_1_VULTURE.27",16.3710057997698,-1734.08328732692,1766.82529892646,"ssf","mf.ss","gamma","unif",15,"ssfOUT_60_6_1_VULTURE","VULTURE",1,0.166666666666667,60,"no effect"
"ssfOUT_60_6_1_VULTURE.28",16.329204771707,-1740.57153741683,1773.22994696025,"ssf","mf.ss","gamma","unif",50,"ssfOUT_60_6_1_VULTURE","VULTURE",1,0.166666666666667,60,"no effect"
"ssfOUT_60_6_1_VULTURE.29",16.2991732126992,-1694.80105353668,1727.39939996208,"ssf","mf.ss","gamma","unif",158,"ssfOUT_60_6_1_VULTURE","VULTURE",1,0.166666666666667,60,"no effect"
"ssfOUT_60_6_1_VULTURE.30",16.2926688584077,-1612.98450272276,1645.56984043957,"ssf","mf.ss","gamma","unif",500,"ssfOUT_60_6_1_VULTURE","VULTURE",1,0.166666666666667,60,"no effect"
"ssfOUT_60_6_1_VULTURE.31",16.6847292574943,-2625.24249772867,2658.61195624366,"ssf","mf.ss","exp","vonmises",5,"ssfOUT_60_6_1_VULTURE","VULTURE",1,0.166666666666667,60,"no effect"
"ssfOUT_60_6_1_VULTURE.32",16.3714102244594,-1867.21272989487,1899.95555034379,"ssf","mf.ss","exp","vonmises",15,"ssfOUT_60_6_1_VULTURE","VULTURE",1,0.166666666666667,60,"no effect"
"ssfOUT_60_6_1_VULTURE.33",16.3286651862473,-1667.12719157826,1699.78452195076,"ssf","mf.ss","exp","vonmises",50,"ssfOUT_60_6_1_VULTURE","VULTURE",1,0.166666666666667,60,"no effect"
"ssfOUT_60_6_1_VULTURE.34",16.3097679486708,-1619.05953424808,1651.67907014542,"ssf","mf.ss","exp","vonmises",158,"ssfOUT_60_6_1_VULTURE","VULTURE",1,0.166666666666667,60,"no effect"
"ssfOUT_60_6_1_VULTURE.35",16.2946925542823,-1628.87250054848,1661.46188565705,"ssf","mf.ss","exp","vonmises",500,"ssfOUT_60_6_1_VULTURE","VULTURE",1,0.166666666666667,60,"no effect"
"ssfOUT_60_6_1_VULTURE.36",17.5810146820459,-2857.04876992494,2892.21079928903,"ssf","mf.ss","exp","unif",5,"ssfOUT_60_6_1_VULTURE","VULTURE",1,0.166666666666667,60,"no effect"
"ssfOUT_60_6_1_VULTURE.37",16.3846695622641,-1917.70218584355,1950.47152496808,"ssf","mf.ss","exp","unif",15,"ssfOUT_60_6_1_VULTURE","VULTURE",1,0.166666666666667,60,"no effect"
"ssfOUT_60_6_1_VULTURE.38",16.2636142172801,-1701.8434382311,1734.37066666566,"ssf","mf.ss","exp","unif",50,"ssfOUT_60_6_1_VULTURE","VULTURE",1,0.166666666666667,60,"no effect"
"ssfOUT_60_6_1_VULTURE.39",16.3069746106638,-1622.00448783075,1654.61843705208,"ssf","mf.ss","exp","unif",158,"ssfOUT_60_6_1_VULTURE","VULTURE",1,0.166666666666667,60,"no effect"
"ssfOUT_60_6_1_VULTURE.40",16.2906897774101,-1591.53762924482,1624.11900879964,"ssf","mf.ss","exp","unif",500,"ssfOUT_60_6_1_VULTURE","VULTURE",1,0.166666666666667,60,"no effect"
"ssfOUT_60_6_1_KINGCOBRA.1",0.72854150514365,-0.0824002222483295,1.53948323253563,"ssf","mf.is","gamma","vonmises",5,"ssfOUT_60_6_1_KINGCOBRA","KINGCOBRA",1,0.166666666666667,60,"no effect"
"ssfOUT_60_6_1_KINGCOBRA.2",0.145851911310899,-0.616712676208384,0.908416498830182,"ssf","mf.is","gamma","vonmises",15,"ssfOUT_60_6_1_KINGCOBRA","KINGCOBRA",1,0.166666666666667,60,"no effect"
"ssfOUT_60_6_1_KINGCOBRA.3",0.207917775942886,-0.541888265499306,0.957723817385077,"ssf","mf.is","gamma","vonmises",50,"ssfOUT_60_6_1_KINGCOBRA","KINGCOBRA",1,0.166666666666667,60,"no effect"
"ssfOUT_60_6_1_KINGCOBRA.4",0.298613161546139,-0.437638352995759,1.03486467608804,"ssf","mf.is","gamma","vonmises",158,"ssfOUT_60_6_1_KINGCOBRA","KINGCOBRA",1,0.166666666666667,60,"no effect"
"ssfOUT_60_6_1_KINGCOBRA.5",0.316338383591784,-0.412521178315467,1.04519794549903,"ssf","mf.is","gamma","vonmises",500,"ssfOUT_60_6_1_KINGCOBRA","KINGCOBRA",1,0.166666666666667,60,"no effect"
"ssfOUT_60_6_1_KINGCOBRA.6",0.367178410580169,-0.418793359887163,1.1531501810475,"ssf","mf.is","gamma","unif",5,"ssfOUT_60_6_1_KINGCOBRA","KINGCOBRA",1,0.166666666666667,60,"no effect"
"ssfOUT_60_6_1_KINGCOBRA.7",-0.087512477923435,-0.878279619134266,0.703254663287396,"ssf","mf.is","gamma","unif",15,"ssfOUT_60_6_1_KINGCOBRA","KINGCOBRA",1,0.166666666666667,60,"no effect"
"ssfOUT_60_6_1_KINGCOBRA.8",0.309461855511428,-0.430436385686271,1.04936009670913,"ssf","mf.is","gamma","unif",50,"ssfOUT_60_6_1_KINGCOBRA","KINGCOBRA",1,0.166666666666667,60,"no effect"
"ssfOUT_60_6_1_KINGCOBRA.9",0.235857745488627,-0.49614837223659,0.967863863213843,"ssf","mf.is","gamma","unif",158,"ssfOUT_60_6_1_KINGCOBRA","KINGCOBRA",1,0.166666666666667,60,"no effect"
"ssfOUT_60_6_1_KINGCOBRA.10",0.295303804608159,-0.435995646879685,1.026603256096,"ssf","mf.is","gamma","unif",500,"ssfOUT_60_6_1_KINGCOBRA","KINGCOBRA",1,0.166666666666667,60,"no effect"
"ssfOUT_60_6_1_KINGCOBRA.11",0.482887874038947,-0.375120503392431,1.34089625147033,"ssf","mf.is","exp","vonmises",5,"ssfOUT_60_6_1_KINGCOBRA","KINGCOBRA",1,0.166666666666667,60,"no effect"
"ssfOUT_60_6_1_KINGCOBRA.12",-0.332909036472017,-1.11916010527547,0.453342032331438,"ssf","mf.is","exp","vonmises",15,"ssfOUT_60_6_1_KINGCOBRA","KINGCOBRA",1,0.166666666666667,60,"no effect"
"ssfOUT_60_6_1_KINGCOBRA.13",0.165633474860504,-0.587354226828787,0.918621176549796,"ssf","mf.is","exp","vonmises",50,"ssfOUT_60_6_1_KINGCOBRA","KINGCOBRA",1,0.166666666666667,60,"no effect"
"ssfOUT_60_6_1_KINGCOBRA.14",0.110622044739821,-0.619171936309447,0.840416025789089,"ssf","mf.is","exp","vonmises",158,"ssfOUT_60_6_1_KINGCOBRA","KINGCOBRA",1,0.166666666666667,60,"no effect"
"ssfOUT_60_6_1_KINGCOBRA.15",0.303988240456441,-0.43647857575599,1.04445505666887,"ssf","mf.is","exp","vonmises",500,"ssfOUT_60_6_1_KINGCOBRA","KINGCOBRA",1,0.166666666666667,60,"no effect"
"ssfOUT_60_6_1_KINGCOBRA.16",-0.156229572552586,-0.972808123956222,0.660348978851049,"ssf","mf.is","exp","unif",5,"ssfOUT_60_6_1_KINGCOBRA","KINGCOBRA",1,0.166666666666667,60,"no effect"
"ssfOUT_60_6_1_KINGCOBRA.17",-0.309897694611549,-1.08031768565675,0.46052229643365,"ssf","mf.is","exp","unif",15,"ssfOUT_60_6_1_KINGCOBRA","KINGCOBRA",1,0.166666666666667,60,"no effect"
"ssfOUT_60_6_1_KINGCOBRA.18",0.328235087095607,-0.435785749973353,1.09225592416457,"ssf","mf.is","exp","unif",50,"ssfOUT_60_6_1_KINGCOBRA","KINGCOBRA",1,0.166666666666667,60,"no effect"
"ssfOUT_60_6_1_KINGCOBRA.19",0.114116351822629,-0.612961334367362,0.84119403801262,"ssf","mf.is","exp","unif",158,"ssfOUT_60_6_1_KINGCOBRA","KINGCOBRA",1,0.166666666666667,60,"no effect"
"ssfOUT_60_6_1_KINGCOBRA.20",0.244245827987868,-0.484152297618049,0.972643953593784,"ssf","mf.is","exp","unif",500,"ssfOUT_60_6_1_KINGCOBRA","KINGCOBRA",1,0.166666666666667,60,"no effect"
"ssfOUT_60_6_1_KINGCOBRA.21",0.942936509622222,0.175769433431498,1.71010358581294,"ssf","mf.ss","gamma","vonmises",5,"ssfOUT_60_6_1_KINGCOBRA","KINGCOBRA",1,0.166666666666667,60,"preference"
"ssfOUT_60_6_1_KINGCOBRA.22",0.502256369675561,-0.276848842541967,1.28136158189309,"ssf","mf.ss","gamma","vonmises",15,"ssfOUT_60_6_1_KINGCOBRA","KINGCOBRA",1,0.166666666666667,60,"no effect"
"ssfOUT_60_6_1_KINGCOBRA.23",0.518611861752678,-0.265482815620214,1.30270653912557,"ssf","mf.ss","gamma","vonmises",50,"ssfOUT_60_6_1_KINGCOBRA","KINGCOBRA",1,0.166666666666667,60,"no effect"
"ssfOUT_60_6_1_KINGCOBRA.24",0.474476278256045,-0.296687400001541,1.24563995651363,"ssf","mf.ss","gamma","vonmises",158,"ssfOUT_60_6_1_KINGCOBRA","KINGCOBRA",1,0.166666666666667,60,"no effect"
"ssfOUT_60_6_1_KINGCOBRA.25",0.54817760024802,-0.211973234119737,1.30832843461578,"ssf","mf.ss","gamma","vonmises",500,"ssfOUT_60_6_1_KINGCOBRA","KINGCOBRA",1,0.166666666666667,60,"no effect"
"ssfOUT_60_6_1_KINGCOBRA.26",0.707615412587698,-0.111872553436167,1.52710337861156,"ssf","mf.ss","gamma","unif",5,"ssfOUT_60_6_1_KINGCOBRA","KINGCOBRA",1,0.166666666666667,60,"no effect"
"ssfOUT_60_6_1_KINGCOBRA.27",0.287006550392246,-0.542111038228732,1.11612413901322,"ssf","mf.ss","gamma","unif",15,"ssfOUT_60_6_1_KINGCOBRA","KINGCOBRA",1,0.166666666666667,60,"no effect"
"ssfOUT_60_6_1_KINGCOBRA.28",0.595506720833824,-0.19303928816421,1.38405272983186,"ssf","mf.ss","gamma","unif",50,"ssfOUT_60_6_1_KINGCOBRA","KINGCOBRA",1,0.166666666666667,60,"no effect"
"ssfOUT_60_6_1_KINGCOBRA.29",0.564138121874771,-0.215356751479303,1.34363299522885,"ssf","mf.ss","gamma","unif",158,"ssfOUT_60_6_1_KINGCOBRA","KINGCOBRA",1,0.166666666666667,60,"no effect"
"ssfOUT_60_6_1_KINGCOBRA.30",0.570541745308843,-0.195765560746673,1.33684905136436,"ssf","mf.ss","gamma","unif",500,"ssfOUT_60_6_1_KINGCOBRA","KINGCOBRA",1,0.166666666666667,60,"no effect"
"ssfOUT_60_6_1_KINGCOBRA.31",0.31980243416738,-0.46285403276074,1.1024589010955,"ssf","mf.ss","exp","vonmises",5,"ssfOUT_60_6_1_KINGCOBRA","KINGCOBRA",1,0.166666666666667,60,"no effect"
"ssfOUT_60_6_1_KINGCOBRA.32",-0.000745635528265718,-0.772310319971139,0.770819048914607,"ssf","mf.ss","exp","vonmises",15,"ssfOUT_60_6_1_KINGCOBRA","KINGCOBRA",1,0.166666666666667,60,"no effect"
"ssfOUT_60_6_1_KINGCOBRA.33",0.203547045665971,-0.548131204999321,0.955225296331262,"ssf","mf.ss","exp","vonmises",50,"ssfOUT_60_6_1_KINGCOBRA","KINGCOBRA",1,0.166666666666667,60,"no effect"
"ssfOUT_60_6_1_KINGCOBRA.34",0.242760753252567,-0.508705771784109,0.994227278289243,"ssf","mf.ss","exp","vonmises",158,"ssfOUT_60_6_1_KINGCOBRA","KINGCOBRA",1,0.166666666666667,60,"no effect"
"ssfOUT_60_6_1_KINGCOBRA.35",0.268427239907092,-0.472358540379762,1.00921302019395,"ssf","mf.ss","exp","vonmises",500,"ssfOUT_60_6_1_KINGCOBRA","KINGCOBRA",1,0.166666666666667,60,"no effect"
"ssfOUT_60_6_1_KINGCOBRA.36",0.327045087982286,-0.484974785156519,1.13906496112109,"ssf","mf.ss","exp","unif",5,"ssfOUT_60_6_1_KINGCOBRA","KINGCOBRA",1,0.166666666666667,60,"no effect"
"ssfOUT_60_6_1_KINGCOBRA.37",0.287608104202843,-0.494430941204624,1.06964714961031,"ssf","mf.ss","exp","unif",15,"ssfOUT_60_6_1_KINGCOBRA","KINGCOBRA",1,0.166666666666667,60,"no effect"
"ssfOUT_60_6_1_KINGCOBRA.38",0.32118521771229,-0.425022983487874,1.06739341891245,"ssf","mf.ss","exp","unif",50,"ssfOUT_60_6_1_KINGCOBRA","KINGCOBRA",1,0.166666666666667,60,"no effect"
"ssfOUT_60_6_1_KINGCOBRA.39",0.338982076683737,-0.397993528185512,1.07595768155299,"ssf","mf.ss","exp","unif",158,"ssfOUT_60_6_1_KINGCOBRA","KINGCOBRA",1,0.166666666666667,60,"no effect"
"ssfOUT_60_6_1_KINGCOBRA.40",0.285658443730712,-0.456015198659857,1.02733208612128,"ssf","mf.ss","exp","unif",500,"ssfOUT_60_6_1_KINGCOBRA","KINGCOBRA",1,0.166666666666667,60,"no effect"
"ssfOUT_60_6_2_BADGER.1",0.750718685048137,0.250538732072318,1.25089863802396,"ssf","mf.is","gamma","vonmises",5,"ssfOUT_60_6_2_BADGER","BADGER",2,0.166666666666667,60,"preference"
"ssfOUT_60_6_2_BADGER.2",0.695302456558148,0.204178176457228,1.18642673665907,"ssf","mf.is","gamma","vonmises",15,"ssfOUT_60_6_2_BADGER","BADGER",2,0.166666666666667,60,"preference"
"ssfOUT_60_6_2_BADGER.3",0.610629413674495,0.138755833179921,1.08250299416907,"ssf","mf.is","gamma","vonmises",50,"ssfOUT_60_6_2_BADGER","BADGER",2,0.166666666666667,60,"preference"
"ssfOUT_60_6_2_BADGER.4",0.528767344623464,0.0608362379125157,0.996698451334413,"ssf","mf.is","gamma","vonmises",158,"ssfOUT_60_6_2_BADGER","BADGER",2,0.166666666666667,60,"preference"
"ssfOUT_60_6_2_BADGER.5",0.64475615241199,0.177687519773195,1.11182478505079,"ssf","mf.is","gamma","vonmises",500,"ssfOUT_60_6_2_BADGER","BADGER",2,0.166666666666667,60,"preference"
"ssfOUT_60_6_2_BADGER.6",0.829435017499494,0.324365304773312,1.33450473022568,"ssf","mf.is","gamma","unif",5,"ssfOUT_60_6_2_BADGER","BADGER",2,0.166666666666667,60,"preference"
"ssfOUT_60_6_2_BADGER.7",0.44901564444835,-0.0366044239895867,0.934635712886287,"ssf","mf.is","gamma","unif",15,"ssfOUT_60_6_2_BADGER","BADGER",2,0.166666666666667,60,"no effect"
"ssfOUT_60_6_2_BADGER.8",0.710711384231359,0.239115476833978,1.18230729162874,"ssf","mf.is","gamma","unif",50,"ssfOUT_60_6_2_BADGER","BADGER",2,0.166666666666667,60,"preference"
"ssfOUT_60_6_2_BADGER.9",0.703947799975334,0.235666353946859,1.17222924600381,"ssf","mf.is","gamma","unif",158,"ssfOUT_60_6_2_BADGER","BADGER",2,0.166666666666667,60,"preference"
"ssfOUT_60_6_2_BADGER.10",0.650489042493108,0.183526028804866,1.11745205618135,"ssf","mf.is","gamma","unif",500,"ssfOUT_60_6_2_BADGER","BADGER",2,0.166666666666667,60,"preference"
"ssfOUT_60_6_2_BADGER.11",0.296466590104252,-0.213963460992082,0.806896641200586,"ssf","mf.is","exp","vonmises",5,"ssfOUT_60_6_2_BADGER","BADGER",2,0.166666666666667,60,"no effect"
"ssfOUT_60_6_2_BADGER.12",0.341173054970655,-0.140825242679077,0.823171352620388,"ssf","mf.is","exp","vonmises",15,"ssfOUT_60_6_2_BADGER","BADGER",2,0.166666666666667,60,"no effect"
"ssfOUT_60_6_2_BADGER.13",0.604667326526548,0.131042365472515,1.07829228758058,"ssf","mf.is","exp","vonmises",50,"ssfOUT_60_6_2_BADGER","BADGER",2,0.166666666666667,60,"preference"
"ssfOUT_60_6_2_BADGER.14",0.697985382640966,0.228830082309979,1.16714068297195,"ssf","mf.is","exp","vonmises",158,"ssfOUT_60_6_2_BADGER","BADGER",2,0.166666666666667,60,"preference"
"ssfOUT_60_6_2_BADGER.15",0.615636480022922,0.148081130696497,1.08319182934935,"ssf","mf.is","exp","vonmises",500,"ssfOUT_60_6_2_BADGER","BADGER",2,0.166666666666667,60,"preference"
"ssfOUT_60_6_2_BADGER.16",0.619469852402676,0.110477845480465,1.12846185932489,"ssf","mf.is","exp","unif",5,"ssfOUT_60_6_2_BADGER","BADGER",2,0.166666666666667,60,"preference"
"ssfOUT_60_6_2_BADGER.17",0.691355034683097,0.210247771096811,1.17246229826938,"ssf","mf.is","exp","unif",15,"ssfOUT_60_6_2_BADGER","BADGER",2,0.166666666666667,60,"preference"
"ssfOUT_60_6_2_BADGER.18",0.779920576400671,0.308095748895567,1.25174540390577,"ssf","mf.is","exp","unif",50,"ssfOUT_60_6_2_BADGER","BADGER",2,0.166666666666667,60,"preference"
"ssfOUT_60_6_2_BADGER.19",0.664429632789386,0.194491237461673,1.1343680281171,"ssf","mf.is","exp","unif",158,"ssfOUT_60_6_2_BADGER","BADGER",2,0.166666666666667,60,"preference"
"ssfOUT_60_6_2_BADGER.20",0.63407786691209,0.166907469165023,1.10124826465916,"ssf","mf.is","exp","unif",500,"ssfOUT_60_6_2_BADGER","BADGER",2,0.166666666666667,60,"preference"
"ssfOUT_60_6_2_BADGER.21",0.787742474730596,0.295008186632629,1.28047676282856,"ssf","mf.ss","gamma","vonmises",5,"ssfOUT_60_6_2_BADGER","BADGER",2,0.166666666666667,60,"preference"
"ssfOUT_60_6_2_BADGER.22",0.659888575532301,0.17501488160189,1.14476226946271,"ssf","mf.ss","gamma","vonmises",15,"ssfOUT_60_6_2_BADGER","BADGER",2,0.166666666666667,60,"preference"
"ssfOUT_60_6_2_BADGER.23",0.515887443365106,0.0458991628178758,0.985875723912336,"ssf","mf.ss","gamma","vonmises",50,"ssfOUT_60_6_2_BADGER","BADGER",2,0.166666666666667,60,"preference"
"ssfOUT_60_6_2_BADGER.24",0.483659251765772,0.0151976614302607,0.952120842101283,"ssf","mf.ss","gamma","vonmises",158,"ssfOUT_60_6_2_BADGER","BADGER",2,0.166666666666667,60,"preference"
"ssfOUT_60_6_2_BADGER.25",0.600275086477611,0.133112517360574,1.06743765559465,"ssf","mf.ss","gamma","vonmises",500,"ssfOUT_60_6_2_BADGER","BADGER",2,0.166666666666667,60,"preference"
"ssfOUT_60_6_2_BADGER.26",0.777642317603785,0.266163002031244,1.28912163317633,"ssf","mf.ss","gamma","unif",5,"ssfOUT_60_6_2_BADGER","BADGER",2,0.166666666666667,60,"preference"
"ssfOUT_60_6_2_BADGER.27",0.453647719046282,-0.0340688596552576,0.941364297747822,"ssf","mf.ss","gamma","unif",15,"ssfOUT_60_6_2_BADGER","BADGER",2,0.166666666666667,60,"no effect"
"ssfOUT_60_6_2_BADGER.28",0.675599883373848,0.203461314211458,1.14773845253624,"ssf","mf.ss","gamma","unif",50,"ssfOUT_60_6_2_BADGER","BADGER",2,0.166666666666667,60,"preference"
"ssfOUT_60_6_2_BADGER.29",0.656898564756629,0.188358787077114,1.12543834243615,"ssf","mf.ss","gamma","unif",158,"ssfOUT_60_6_2_BADGER","BADGER",2,0.166666666666667,60,"preference"
"ssfOUT_60_6_2_BADGER.30",0.618892289235506,0.151536996767353,1.08624758170366,"ssf","mf.ss","gamma","unif",500,"ssfOUT_60_6_2_BADGER","BADGER",2,0.166666666666667,60,"preference"
"ssfOUT_60_6_2_BADGER.31",0.409849865011874,-0.0867217245226956,0.906421454546443,"ssf","mf.ss","exp","vonmises",5,"ssfOUT_60_6_2_BADGER","BADGER",2,0.166666666666667,60,"no effect"
"ssfOUT_60_6_2_BADGER.32",0.373851914505176,-0.106632659964938,0.854336488975289,"ssf","mf.ss","exp","vonmises",15,"ssfOUT_60_6_2_BADGER","BADGER",2,0.166666666666667,60,"no effect"
"ssfOUT_60_6_2_BADGER.33",0.586655888840049,0.114919542623039,1.05839223505706,"ssf","mf.ss","exp","vonmises",50,"ssfOUT_60_6_2_BADGER","BADGER",2,0.166666666666667,60,"preference"
"ssfOUT_60_6_2_BADGER.34",0.640484420893262,0.173372594427424,1.1075962473591,"ssf","mf.ss","exp","vonmises",158,"ssfOUT_60_6_2_BADGER","BADGER",2,0.166666666666667,60,"preference"
"ssfOUT_60_6_2_BADGER.35",0.570463508694463,0.103969935387365,1.03695708200156,"ssf","mf.ss","exp","vonmises",500,"ssfOUT_60_6_2_BADGER","BADGER",2,0.166666666666667,60,"preference"
"ssfOUT_60_6_2_BADGER.36",0.658056833964071,0.153479256892085,1.16263441103606,"ssf","mf.ss","exp","unif",5,"ssfOUT_60_6_2_BADGER","BADGER",2,0.166666666666667,60,"preference"
"ssfOUT_60_6_2_BADGER.37",0.690532500683713,0.209673898418056,1.17139110294937,"ssf","mf.ss","exp","unif",15,"ssfOUT_60_6_2_BADGER","BADGER",2,0.166666666666667,60,"preference"
"ssfOUT_60_6_2_BADGER.38",0.746932138281092,0.276645214286154,1.21721906227603,"ssf","mf.ss","exp","unif",50,"ssfOUT_60_6_2_BADGER","BADGER",2,0.166666666666667,60,"preference"
"ssfOUT_60_6_2_BADGER.39",0.642699699134523,0.174056932197543,1.1113424660715,"ssf","mf.ss","exp","unif",158,"ssfOUT_60_6_2_BADGER","BADGER",2,0.166666666666667,60,"preference"
"ssfOUT_60_6_2_BADGER.40",0.610425943958622,0.143804663510109,1.07704722440713,"ssf","mf.ss","exp","unif",500,"ssfOUT_60_6_2_BADGER","BADGER",2,0.166666666666667,60,"preference"
"ssfOUT_60_6_2_VULTURE.1",0.845261830565944,0.221907533865583,1.4686161272663,"ssf","mf.is","gamma","vonmises",5,"ssfOUT_60_6_2_VULTURE","VULTURE",2,0.166666666666667,60,"preference"
"ssfOUT_60_6_2_VULTURE.2",0.67064184053883,0.0703459259610598,1.2709377551166,"ssf","mf.is","gamma","vonmises",15,"ssfOUT_60_6_2_VULTURE","VULTURE",2,0.166666666666667,60,"preference"
"ssfOUT_60_6_2_VULTURE.3",0.666997967965789,0.0755391062598854,1.25845682967169,"ssf","mf.is","gamma","vonmises",50,"ssfOUT_60_6_2_VULTURE","VULTURE",2,0.166666666666667,60,"preference"
"ssfOUT_60_6_2_VULTURE.4",0.647546474769934,0.0595338574908085,1.23555909204906,"ssf","mf.is","gamma","vonmises",158,"ssfOUT_60_6_2_VULTURE","VULTURE",2,0.166666666666667,60,"preference"
"ssfOUT_60_6_2_VULTURE.5",0.735019905007599,0.147256063465192,1.32278374655001,"ssf","mf.is","gamma","vonmises",500,"ssfOUT_60_6_2_VULTURE","VULTURE",2,0.166666666666667,60,"preference"
"ssfOUT_60_6_2_VULTURE.6",0.353060512035462,-0.28108212402731,0.987203148098234,"ssf","mf.is","gamma","unif",5,"ssfOUT_60_6_2_VULTURE","VULTURE",2,0.166666666666667,60,"no effect"
"ssfOUT_60_6_2_VULTURE.7",0.546305686262095,-0.0534175424172383,1.14602891494143,"ssf","mf.is","gamma","unif",15,"ssfOUT_60_6_2_VULTURE","VULTURE",2,0.166666666666667,60,"no effect"
"ssfOUT_60_6_2_VULTURE.8",0.788579267953529,0.199474271370613,1.37768426453644,"ssf","mf.is","gamma","unif",50,"ssfOUT_60_6_2_VULTURE","VULTURE",2,0.166666666666667,60,"preference"
"ssfOUT_60_6_2_VULTURE.9",0.726028393576749,0.137408520878429,1.31464826627507,"ssf","mf.is","gamma","unif",158,"ssfOUT_60_6_2_VULTURE","VULTURE",2,0.166666666666667,60,"preference"
"ssfOUT_60_6_2_VULTURE.10",0.728546547090309,0.141282738366785,1.31581035581383,"ssf","mf.is","gamma","unif",500,"ssfOUT_60_6_2_VULTURE","VULTURE",2,0.166666666666667,60,"preference"
"ssfOUT_60_6_2_VULTURE.11",0.560055178075599,-0.073024214331835,1.19313457048303,"ssf","mf.is","exp","vonmises",5,"ssfOUT_60_6_2_VULTURE","VULTURE",2,0.166666666666667,60,"no effect"
"ssfOUT_60_6_2_VULTURE.12",0.675054981709545,0.0745983567833537,1.27551160663574,"ssf","mf.is","exp","vonmises",15,"ssfOUT_60_6_2_VULTURE","VULTURE",2,0.166666666666667,60,"preference"
"ssfOUT_60_6_2_VULTURE.13",0.773603577651435,0.183807656491289,1.36339949881158,"ssf","mf.is","exp","vonmises",50,"ssfOUT_60_6_2_VULTURE","VULTURE",2,0.166666666666667,60,"preference"
"ssfOUT_60_6_2_VULTURE.14",0.679701605249471,0.091171076050254,1.26823213444869,"ssf","mf.is","exp","vonmises",158,"ssfOUT_60_6_2_VULTURE","VULTURE",2,0.166666666666667,60,"preference"
"ssfOUT_60_6_2_VULTURE.15",0.734378770728631,0.14680603558663,1.32195150587063,"ssf","mf.is","exp","vonmises",500,"ssfOUT_60_6_2_VULTURE","VULTURE",2,0.166666666666667,60,"preference"
"ssfOUT_60_6_2_VULTURE.16",0.159509211219938,-0.482905428669337,0.801923851109213,"ssf","mf.is","exp","unif",5,"ssfOUT_60_6_2_VULTURE","VULTURE",2,0.166666666666667,60,"no effect"
"ssfOUT_60_6_2_VULTURE.17",0.816499272638136,0.216177803892987,1.41682074138328,"ssf","mf.is","exp","unif",15,"ssfOUT_60_6_2_VULTURE","VULTURE",2,0.166666666666667,60,"preference"
"ssfOUT_60_6_2_VULTURE.18",0.643691175654232,0.0532384458984477,1.23414390541002,"ssf","mf.is","exp","unif",50,"ssfOUT_60_6_2_VULTURE","VULTURE",2,0.166666666666667,60,"preference"
"ssfOUT_60_6_2_VULTURE.19",0.795095227136201,0.206747728262535,1.38344272600987,"ssf","mf.is","exp","unif",158,"ssfOUT_60_6_2_VULTURE","VULTURE",2,0.166666666666667,60,"preference"
"ssfOUT_60_6_2_VULTURE.20",0.698920847499781,0.111673019067588,1.28616867593197,"ssf","mf.is","exp","unif",500,"ssfOUT_60_6_2_VULTURE","VULTURE",2,0.166666666666667,60,"preference"
"ssfOUT_60_6_2_VULTURE.21",0.76080542251094,0.143824705735127,1.37778613928675,"ssf","mf.ss","gamma","vonmises",5,"ssfOUT_60_6_2_VULTURE","VULTURE",2,0.166666666666667,60,"preference"
"ssfOUT_60_6_2_VULTURE.22",0.670935367116966,0.0725363748896984,1.26933435934423,"ssf","mf.ss","gamma","vonmises",15,"ssfOUT_60_6_2_VULTURE","VULTURE",2,0.166666666666667,60,"preference"
"ssfOUT_60_6_2_VULTURE.23",0.62804077752168,0.0378196801159147,1.21826187492744,"ssf","mf.ss","gamma","vonmises",50,"ssfOUT_60_6_2_VULTURE","VULTURE",2,0.166666666666667,60,"preference"
"ssfOUT_60_6_2_VULTURE.24",0.613494570701367,0.0261919340989557,1.20079720730378,"ssf","mf.ss","gamma","vonmises",158,"ssfOUT_60_6_2_VULTURE","VULTURE",2,0.166666666666667,60,"preference"
"ssfOUT_60_6_2_VULTURE.25",0.691005571945094,0.103700062385073,1.27831108150511,"ssf","mf.ss","gamma","vonmises",500,"ssfOUT_60_6_2_VULTURE","VULTURE",2,0.166666666666667,60,"preference"
"ssfOUT_60_6_2_VULTURE.26",0.373462976683553,-0.258389784584657,1.00531573795176,"ssf","mf.ss","gamma","unif",5,"ssfOUT_60_6_2_VULTURE","VULTURE",2,0.166666666666667,60,"no effect"
"ssfOUT_60_6_2_VULTURE.27",0.542867105946596,-0.0562480391502173,1.14198225104341,"ssf","mf.ss","gamma","unif",15,"ssfOUT_60_6_2_VULTURE","VULTURE",2,0.166666666666667,60,"no effect"
"ssfOUT_60_6_2_VULTURE.28",0.761388038229151,0.172600209835883,1.35017586662242,"ssf","mf.ss","gamma","unif",50,"ssfOUT_60_6_2_VULTURE","VULTURE",2,0.166666666666667,60,"preference"
"ssfOUT_60_6_2_VULTURE.29",0.709410427559717,0.121277380100649,1.29754347501878,"ssf","mf.ss","gamma","unif",158,"ssfOUT_60_6_2_VULTURE","VULTURE",2,0.166666666666667,60,"preference"
"ssfOUT_60_6_2_VULTURE.30",0.707867271075394,0.120997126038345,1.29473741611244,"ssf","mf.ss","gamma","unif",500,"ssfOUT_60_6_2_VULTURE","VULTURE",2,0.166666666666667,60,"preference"
"ssfOUT_60_6_2_VULTURE.31",0.375542234209559,-0.248695322413789,0.999779790832907,"ssf","mf.ss","exp","vonmises",5,"ssfOUT_60_6_2_VULTURE","VULTURE",2,0.166666666666667,60,"no effect"
"ssfOUT_60_6_2_VULTURE.32",0.637872305638392,0.0405702277376097,1.23517438353917,"ssf","mf.ss","exp","vonmises",15,"ssfOUT_60_6_2_VULTURE","VULTURE",2,0.166666666666667,60,"preference"
"ssfOUT_60_6_2_VULTURE.33",0.807736769859357,0.217711144768083,1.39776239495063,"ssf","mf.ss","exp","vonmises",50,"ssfOUT_60_6_2_VULTURE","VULTURE",2,0.166666666666667,60,"preference"
"ssfOUT_60_6_2_VULTURE.34",0.68234789143033,0.0921364679165038,1.27255931494416,"ssf","mf.ss","exp","vonmises",158,"ssfOUT_60_6_2_VULTURE","VULTURE",2,0.166666666666667,60,"preference"
"ssfOUT_60_6_2_VULTURE.35",0.701892828311291,0.113048159239399,1.29073749738318,"ssf","mf.ss","exp","vonmises",500,"ssfOUT_60_6_2_VULTURE","VULTURE",2,0.166666666666667,60,"preference"
"ssfOUT_60_6_2_VULTURE.36",0.342876898766796,-0.284123787409092,0.969877584942683,"ssf","mf.ss","exp","unif",5,"ssfOUT_60_6_2_VULTURE","VULTURE",2,0.166666666666667,60,"no effect"
"ssfOUT_60_6_2_VULTURE.37",0.764464520144853,0.16680381099193,1.36212522929778,"ssf","mf.ss","exp","unif",15,"ssfOUT_60_6_2_VULTURE","VULTURE",2,0.166666666666667,60,"preference"
"ssfOUT_60_6_2_VULTURE.38",0.656897200011579,0.0654191188546573,1.2483752811685,"ssf","mf.ss","exp","unif",50,"ssfOUT_60_6_2_VULTURE","VULTURE",2,0.166666666666667,60,"preference"
"ssfOUT_60_6_2_VULTURE.39",0.80243360839057,0.212763007414568,1.39210420936657,"ssf","mf.ss","exp","unif",158,"ssfOUT_60_6_2_VULTURE","VULTURE",2,0.166666666666667,60,"preference"
"ssfOUT_60_6_2_VULTURE.40",0.694537870747312,0.105629583937335,1.28344615755729,"ssf","mf.ss","exp","unif",500,"ssfOUT_60_6_2_VULTURE","VULTURE",2,0.166666666666667,60,"preference"
"ssfOUT_60_6_2_KINGCOBRA.1",1.55958463628937,0.480393797356642,2.6387754752221,"ssf","mf.is","gamma","vonmises",5,"ssfOUT_60_6_2_KINGCOBRA","KINGCOBRA",2,0.166666666666667,60,"preference"
"ssfOUT_60_6_2_KINGCOBRA.2",0.98983741875777,-0.0422737436891489,2.02194858120469,"ssf","mf.is","gamma","vonmises",15,"ssfOUT_60_6_2_KINGCOBRA","KINGCOBRA",2,0.166666666666667,60,"no effect"
"ssfOUT_60_6_2_KINGCOBRA.3",1.18999963320037,0.162956291372635,2.21704297502811,"ssf","mf.is","gamma","vonmises",50,"ssfOUT_60_6_2_KINGCOBRA","KINGCOBRA",2,0.166666666666667,60,"preference"
"ssfOUT_60_6_2_KINGCOBRA.4",1.30985653561885,0.28558875591184,2.33412431532585,"ssf","mf.is","gamma","vonmises",158,"ssfOUT_60_6_2_KINGCOBRA","KINGCOBRA",2,0.166666666666667,60,"preference"
"ssfOUT_60_6_2_KINGCOBRA.5",1.25814488472935,0.237016546310023,2.27927322314868,"ssf","mf.is","gamma","vonmises",500,"ssfOUT_60_6_2_KINGCOBRA","KINGCOBRA",2,0.166666666666667,60,"preference"
"ssfOUT_60_6_2_KINGCOBRA.6",0.983811179680561,-0.0665042799308391,2.03412663929196,"ssf","mf.is","gamma","unif",5,"ssfOUT_60_6_2_KINGCOBRA","KINGCOBRA",2,0.166666666666667,60,"no effect"
"ssfOUT_60_6_2_KINGCOBRA.7",1.24456863233678,0.22297791614385,2.26615934852972,"ssf","mf.is","gamma","unif",15,"ssfOUT_60_6_2_KINGCOBRA","KINGCOBRA",2,0.166666666666667,60,"preference"
"ssfOUT_60_6_2_KINGCOBRA.8",1.08965402816775,0.0683453031773098,2.11096275315819,"ssf","mf.is","gamma","unif",50,"ssfOUT_60_6_2_KINGCOBRA","KINGCOBRA",2,0.166666666666667,60,"preference"
"ssfOUT_60_6_2_KINGCOBRA.9",1.28227281613759,0.261012073543955,2.30353355873122,"ssf","mf.is","gamma","unif",158,"ssfOUT_60_6_2_KINGCOBRA","KINGCOBRA",2,0.166666666666667,60,"preference"
"ssfOUT_60_6_2_KINGCOBRA.10",1.21339554911794,0.195488651722895,2.23130244651298,"ssf","mf.is","gamma","unif",500,"ssfOUT_60_6_2_KINGCOBRA","KINGCOBRA",2,0.166666666666667,60,"preference"
"ssfOUT_60_6_2_KINGCOBRA.11",0.352987394622653,-0.729606899758546,1.43558168900385,"ssf","mf.is","exp","vonmises",5,"ssfOUT_60_6_2_KINGCOBRA","KINGCOBRA",2,0.166666666666667,60,"no effect"
"ssfOUT_60_6_2_KINGCOBRA.12",1.05959599144168,0.0259174670872202,2.09327451579614,"ssf","mf.is","exp","vonmises",15,"ssfOUT_60_6_2_KINGCOBRA","KINGCOBRA",2,0.166666666666667,60,"preference"
"ssfOUT_60_6_2_KINGCOBRA.13",1.10622528656588,0.0799125004766834,2.13253807265507,"ssf","mf.is","exp","vonmises",50,"ssfOUT_60_6_2_KINGCOBRA","KINGCOBRA",2,0.166666666666667,60,"preference"
"ssfOUT_60_6_2_KINGCOBRA.14",1.2433698052357,0.217196027323673,2.26954358314773,"ssf","mf.is","exp","vonmises",158,"ssfOUT_60_6_2_KINGCOBRA","KINGCOBRA",2,0.166666666666667,60,"preference"
"ssfOUT_60_6_2_KINGCOBRA.15",1.18778314330995,0.167633803630226,2.20793248298968,"ssf","mf.is","exp","vonmises",500,"ssfOUT_60_6_2_KINGCOBRA","KINGCOBRA",2,0.166666666666667,60,"preference"
"ssfOUT_60_6_2_KINGCOBRA.16",0.907612921467782,-0.174081130969292,1.98930697390486,"ssf","mf.is","exp","unif",5,"ssfOUT_60_6_2_KINGCOBRA","KINGCOBRA",2,0.166666666666667,60,"no effect"
"ssfOUT_60_6_2_KINGCOBRA.17",1.48594555864829,0.442550735421025,2.52934038187555,"ssf","mf.is","exp","unif",15,"ssfOUT_60_6_2_KINGCOBRA","KINGCOBRA",2,0.166666666666667,60,"preference"
"ssfOUT_60_6_2_KINGCOBRA.18",1.02715959266154,0.0142861484160748,2.04003303690701,"ssf","mf.is","exp","unif",50,"ssfOUT_60_6_2_KINGCOBRA","KINGCOBRA",2,0.166666666666667,60,"preference"
"ssfOUT_60_6_2_KINGCOBRA.19",1.2133431459378,0.197585943100146,2.22910034877545,"ssf","mf.is","exp","unif",158,"ssfOUT_60_6_2_KINGCOBRA","KINGCOBRA",2,0.166666666666667,60,"preference"
"ssfOUT_60_6_2_KINGCOBRA.20",1.17510263423703,0.156284767538569,2.19392050093549,"ssf","mf.is","exp","unif",500,"ssfOUT_60_6_2_KINGCOBRA","KINGCOBRA",2,0.166666666666667,60,"preference"
"ssfOUT_60_6_2_KINGCOBRA.21",1.08418538469517,0.0310390371929798,2.13733173219737,"ssf","mf.ss","gamma","vonmises",5,"ssfOUT_60_6_2_KINGCOBRA","KINGCOBRA",2,0.166666666666667,60,"preference"
"ssfOUT_60_6_2_KINGCOBRA.22",1.10886962848512,0.0865267670063623,2.13121248996388,"ssf","mf.ss","gamma","vonmises",15,"ssfOUT_60_6_2_KINGCOBRA","KINGCOBRA",2,0.166666666666667,60,"preference"
"ssfOUT_60_6_2_KINGCOBRA.23",1.23734147601866,0.214393038741911,2.26028991329541,"ssf","mf.ss","gamma","vonmises",50,"ssfOUT_60_6_2_KINGCOBRA","KINGCOBRA",2,0.166666666666667,60,"preference"
"ssfOUT_60_6_2_KINGCOBRA.24",1.31184683911398,0.294302579177368,2.3293910990506,"ssf","mf.ss","gamma","vonmises",158,"ssfOUT_60_6_2_KINGCOBRA","KINGCOBRA",2,0.166666666666667,60,"preference"
"ssfOUT_60_6_2_KINGCOBRA.25",1.23615649350864,0.221984515047223,2.25032847197006,"ssf","mf.ss","gamma","vonmises",500,"ssfOUT_60_6_2_KINGCOBRA","KINGCOBRA",2,0.166666666666667,60,"preference"
"ssfOUT_60_6_2_KINGCOBRA.26",1.21650636163521,0.170108856496509,2.26290386677391,"ssf","mf.ss","gamma","unif",5,"ssfOUT_60_6_2_KINGCOBRA","KINGCOBRA",2,0.166666666666667,60,"preference"
"ssfOUT_60_6_2_KINGCOBRA.27",1.22250513132402,0.205403575188888,2.23960668745915,"ssf","mf.ss","gamma","unif",15,"ssfOUT_60_6_2_KINGCOBRA","KINGCOBRA",2,0.166666666666667,60,"preference"
"ssfOUT_60_6_2_KINGCOBRA.28",1.13272911132351,0.115016022234325,2.1504422004127,"ssf","mf.ss","gamma","unif",50,"ssfOUT_60_6_2_KINGCOBRA","KINGCOBRA",2,0.166666666666667,60,"preference"
"ssfOUT_60_6_2_KINGCOBRA.29",1.25542674873647,0.235429599298921,2.27542389817403,"ssf","mf.ss","gamma","unif",158,"ssfOUT_60_6_2_KINGCOBRA","KINGCOBRA",2,0.166666666666667,60,"preference"
"ssfOUT_60_6_2_KINGCOBRA.30",1.21439432795858,0.198758979535292,2.23002967638186,"ssf","mf.ss","gamma","unif",500,"ssfOUT_60_6_2_KINGCOBRA","KINGCOBRA",2,0.166666666666667,60,"preference"
"ssfOUT_60_6_2_KINGCOBRA.31",1.35147432204523,0.309339329710465,2.39360931438,"ssf","mf.ss","exp","vonmises",5,"ssfOUT_60_6_2_KINGCOBRA","KINGCOBRA",2,0.166666666666667,60,"preference"
"ssfOUT_60_6_2_KINGCOBRA.32",1.43081335650063,0.414287044829031,2.44733966817223,"ssf","mf.ss","exp","vonmises",15,"ssfOUT_60_6_2_KINGCOBRA","KINGCOBRA",2,0.166666666666667,60,"preference"
"ssfOUT_60_6_2_KINGCOBRA.33",1.46169792981725,0.452876546115506,2.47051931351898,"ssf","mf.ss","exp","vonmises",50,"ssfOUT_60_6_2_KINGCOBRA","KINGCOBRA",2,0.166666666666667,60,"preference"
"ssfOUT_60_6_2_KINGCOBRA.34",1.41486634912247,0.40736249716194,2.42237020108301,"ssf","mf.ss","exp","vonmises",158,"ssfOUT_60_6_2_KINGCOBRA","KINGCOBRA",2,0.166666666666667,60,"preference"
"ssfOUT_60_6_2_KINGCOBRA.35",1.42637512799624,0.41977996203534,2.43297029395714,"ssf","mf.ss","exp","vonmises",500,"ssfOUT_60_6_2_KINGCOBRA","KINGCOBRA",2,0.166666666666667,60,"preference"
"ssfOUT_60_6_2_KINGCOBRA.36",0.906895179757438,-0.144821559411564,1.95861191892644,"ssf","mf.ss","exp","unif",5,"ssfOUT_60_6_2_KINGCOBRA","KINGCOBRA",2,0.166666666666667,60,"no effect"
"ssfOUT_60_6_2_KINGCOBRA.37",1.35026452353146,0.33309852119378,2.36743052586915,"ssf","mf.ss","exp","unif",15,"ssfOUT_60_6_2_KINGCOBRA","KINGCOBRA",2,0.166666666666667,60,"preference"
"ssfOUT_60_6_2_KINGCOBRA.38",1.35048796149328,0.341629013730947,2.35934690925561,"ssf","mf.ss","exp","unif",50,"ssfOUT_60_6_2_KINGCOBRA","KINGCOBRA",2,0.166666666666667,60,"preference"
"ssfOUT_60_6_2_KINGCOBRA.39",1.40632514751682,0.399762877792257,2.41288741724138,"ssf","mf.ss","exp","unif",158,"ssfOUT_60_6_2_KINGCOBRA","KINGCOBRA",2,0.166666666666667,60,"preference"
"ssfOUT_60_6_2_KINGCOBRA.40",1.32303138214656,0.316469353376464,2.32959341091665,"ssf","mf.ss","exp","unif",500,"ssfOUT_60_6_2_KINGCOBRA","KINGCOBRA",2,0.166666666666667,60,"preference"
"ssfOUT_60_6_3_BADGER.1",0.27883317477261,-0.18129235804764,0.738958707592859,"ssf","mf.is","gamma","vonmises",5,"ssfOUT_60_6_3_BADGER","BADGER",3,0.166666666666667,60,"no effect"
"ssfOUT_60_6_3_BADGER.2",-0.0443004342674112,-0.486058360111722,0.397457491576899,"ssf","mf.is","gamma","vonmises",15,"ssfOUT_60_6_3_BADGER","BADGER",3,0.166666666666667,60,"no effect"
"ssfOUT_60_6_3_BADGER.3",0.0552220180909783,-0.37663743120504,0.487081467386997,"ssf","mf.is","gamma","vonmises",50,"ssfOUT_60_6_3_BADGER","BADGER",3,0.166666666666667,60,"no effect"
"ssfOUT_60_6_3_BADGER.4",0.0217321211301071,-0.40292432166527,0.446388563925484,"ssf","mf.is","gamma","vonmises",158,"ssfOUT_60_6_3_BADGER","BADGER",3,0.166666666666667,60,"no effect"
"ssfOUT_60_6_3_BADGER.5",0.0979700016728652,-0.325032369703189,0.520972373048919,"ssf","mf.is","gamma","vonmises",500,"ssfOUT_60_6_3_BADGER","BADGER",3,0.166666666666667,60,"no effect"
"ssfOUT_60_6_3_BADGER.6",0.0840192606458514,-0.383196105636274,0.551234626927977,"ssf","mf.is","gamma","unif",5,"ssfOUT_60_6_3_BADGER","BADGER",3,0.166666666666667,60,"no effect"
"ssfOUT_60_6_3_BADGER.7",0.0552748616254923,-0.383905094685347,0.494454817936332,"ssf","mf.is","gamma","unif",15,"ssfOUT_60_6_3_BADGER","BADGER",3,0.166666666666667,60,"no effect"
"ssfOUT_60_6_3_BADGER.8",0.16337602336168,-0.263065539068766,0.589817585792126,"ssf","mf.is","gamma","unif",50,"ssfOUT_60_6_3_BADGER","BADGER",3,0.166666666666667,60,"no effect"
"ssfOUT_60_6_3_BADGER.9",0.139198930691528,-0.284297364735135,0.56269522611819,"ssf","mf.is","gamma","unif",158,"ssfOUT_60_6_3_BADGER","BADGER",3,0.166666666666667,60,"no effect"
"ssfOUT_60_6_3_BADGER.10",0.118813966779824,-0.303540329087075,0.541168262646724,"ssf","mf.is","gamma","unif",500,"ssfOUT_60_6_3_BADGER","BADGER",3,0.166666666666667,60,"no effect"
"ssfOUT_60_6_3_BADGER.11",0.360560933657126,-0.11427982475086,0.835401692065112,"ssf","mf.is","exp","vonmises",5,"ssfOUT_60_6_3_BADGER","BADGER",3,0.166666666666667,60,"no effect"
"ssfOUT_60_6_3_BADGER.12",0.159889793151284,-0.277778409407853,0.597557995710421,"ssf","mf.is","exp","vonmises",15,"ssfOUT_60_6_3_BADGER","BADGER",3,0.166666666666667,60,"no effect"
"ssfOUT_60_6_3_BADGER.13",0.0522305077085366,-0.377553489802351,0.482014505219424,"ssf","mf.is","exp","vonmises",50,"ssfOUT_60_6_3_BADGER","BADGER",3,0.166666666666667,60,"no effect"
"ssfOUT_60_6_3_BADGER.14",0.0130937925914736,-0.411528050349125,0.437715635532072,"ssf","mf.is","exp","vonmises",158,"ssfOUT_60_6_3_BADGER","BADGER",3,0.166666666666667,60,"no effect"
"ssfOUT_60_6_3_BADGER.15",0.109267034251889,-0.313827483504311,0.532361552008088,"ssf","mf.is","exp","vonmises",500,"ssfOUT_60_6_3_BADGER","BADGER",3,0.166666666666667,60,"no effect"
"ssfOUT_60_6_3_BADGER.16",0.212737050369711,-0.25330019100569,0.678774291745111,"ssf","mf.is","exp","unif",5,"ssfOUT_60_6_3_BADGER","BADGER",3,0.166666666666667,60,"no effect"
"ssfOUT_60_6_3_BADGER.17",0.0634524234969145,-0.383289431589441,0.51019427858327,"ssf","mf.is","exp","unif",15,"ssfOUT_60_6_3_BADGER","BADGER",3,0.166666666666667,60,"no effect"
"ssfOUT_60_6_3_BADGER.18",0.0122150758690899,-0.416551622712096,0.440981774450276,"ssf","mf.is","exp","unif",50,"ssfOUT_60_6_3_BADGER","BADGER",3,0.166666666666667,60,"no effect"
"ssfOUT_60_6_3_BADGER.19",0.13230199887402,-0.291906984984747,0.556510982732786,"ssf","mf.is","exp","unif",158,"ssfOUT_60_6_3_BADGER","BADGER",3,0.166666666666667,60,"no effect"
"ssfOUT_60_6_3_BADGER.20",0.115980596551019,-0.30697015035958,0.538931343461619,"ssf","mf.is","exp","unif",500,"ssfOUT_60_6_3_BADGER","BADGER",3,0.166666666666667,60,"no effect"
"ssfOUT_60_6_3_BADGER.21",0.405400300339141,-0.0446723713194661,0.855472971997747,"ssf","mf.ss","gamma","vonmises",5,"ssfOUT_60_6_3_BADGER","BADGER",3,0.166666666666667,60,"no effect"
"ssfOUT_60_6_3_BADGER.22",-0.101039870501727,-0.537950238469051,0.335870497465596,"ssf","mf.ss","gamma","vonmises",15,"ssfOUT_60_6_3_BADGER","BADGER",3,0.166666666666667,60,"no effect"
"ssfOUT_60_6_3_BADGER.23",0.0286276225124282,-0.399205812385031,0.456461057409888,"ssf","mf.ss","gamma","vonmises",50,"ssfOUT_60_6_3_BADGER","BADGER",3,0.166666666666667,60,"no effect"
"ssfOUT_60_6_3_BADGER.24",0.0215612770967424,-0.401333561982913,0.444456116176398,"ssf","mf.ss","gamma","vonmises",158,"ssfOUT_60_6_3_BADGER","BADGER",3,0.166666666666667,60,"no effect"
"ssfOUT_60_6_3_BADGER.25",0.0840727848157369,-0.337725520148567,0.50587108978004,"ssf","mf.ss","gamma","vonmises",500,"ssfOUT_60_6_3_BADGER","BADGER",3,0.166666666666667,60,"no effect"
"ssfOUT_60_6_3_BADGER.26",0.0446435581563814,-0.424004998594786,0.513292114907549,"ssf","mf.ss","gamma","unif",5,"ssfOUT_60_6_3_BADGER","BADGER",3,0.166666666666667,60,"no effect"
"ssfOUT_60_6_3_BADGER.27",0.0345078021303708,-0.400423175105513,0.469438779366254,"ssf","mf.ss","gamma","unif",15,"ssfOUT_60_6_3_BADGER","BADGER",3,0.166666666666667,60,"no effect"
"ssfOUT_60_6_3_BADGER.28",0.159666015956821,-0.265520043820913,0.584852075734555,"ssf","mf.ss","gamma","unif",50,"ssfOUT_60_6_3_BADGER","BADGER",3,0.166666666666667,60,"no effect"
"ssfOUT_60_6_3_BADGER.29",0.12016452848859,-0.302271060730381,0.542600117707561,"ssf","mf.ss","gamma","unif",158,"ssfOUT_60_6_3_BADGER","BADGER",3,0.166666666666667,60,"no effect"
"ssfOUT_60_6_3_BADGER.30",0.117648743423188,-0.303856008728025,0.539153495574401,"ssf","mf.ss","gamma","unif",500,"ssfOUT_60_6_3_BADGER","BADGER",3,0.166666666666667,60,"no effect"
"ssfOUT_60_6_3_BADGER.31",0.227022594671046,-0.238199809103265,0.692244998445356,"ssf","mf.ss","exp","vonmises",5,"ssfOUT_60_6_3_BADGER","BADGER",3,0.166666666666667,60,"no effect"
"ssfOUT_60_6_3_BADGER.32",0.200411760613886,-0.233782224487699,0.634605745715471,"ssf","mf.ss","exp","vonmises",15,"ssfOUT_60_6_3_BADGER","BADGER",3,0.166666666666667,60,"no effect"
"ssfOUT_60_6_3_BADGER.33",0.0489205144414622,-0.379515866031995,0.47735689491492,"ssf","mf.ss","exp","vonmises",50,"ssfOUT_60_6_3_BADGER","BADGER",3,0.166666666666667,60,"no effect"
"ssfOUT_60_6_3_BADGER.34",0.0098513677979474,-0.413927372476314,0.433630108072208,"ssf","mf.ss","exp","vonmises",158,"ssfOUT_60_6_3_BADGER","BADGER",3,0.166666666666667,60,"no effect"
"ssfOUT_60_6_3_BADGER.35",0.0622353550752495,-0.361293154675425,0.485763864825924,"ssf","mf.ss","exp","vonmises",500,"ssfOUT_60_6_3_BADGER","BADGER",3,0.166666666666667,60,"no effect"
"ssfOUT_60_6_3_BADGER.36",0.0648507391010618,-0.394633129935408,0.524334608137532,"ssf","mf.ss","exp","unif",5,"ssfOUT_60_6_3_BADGER","BADGER",3,0.166666666666667,60,"no effect"
"ssfOUT_60_6_3_BADGER.37",0.0704592154042422,-0.377659346077881,0.518577776886365,"ssf","mf.ss","exp","unif",15,"ssfOUT_60_6_3_BADGER","BADGER",3,0.166666666666667,60,"no effect"
"ssfOUT_60_6_3_BADGER.38",-0.0118592559679012,-0.439514260557938,0.415795748622136,"ssf","mf.ss","exp","unif",50,"ssfOUT_60_6_3_BADGER","BADGER",3,0.166666666666667,60,"no effect"
"ssfOUT_60_6_3_BADGER.39",0.0972907131182446,-0.327240898036678,0.521822324273168,"ssf","mf.ss","exp","unif",158,"ssfOUT_60_6_3_BADGER","BADGER",3,0.166666666666667,60,"no effect"
"ssfOUT_60_6_3_BADGER.40",0.0776665961199106,-0.345802134785335,0.501135327025156,"ssf","mf.ss","exp","unif",500,"ssfOUT_60_6_3_BADGER","BADGER",3,0.166666666666667,60,"no effect"
"ssfOUT_60_6_3_VULTURE.1",1.00867765388259,0.245069832022201,1.77228547574297,"ssf","mf.is","gamma","vonmises",5,"ssfOUT_60_6_3_VULTURE","VULTURE",3,0.166666666666667,60,"preference"
"ssfOUT_60_6_3_VULTURE.2",0.999955323907086,0.271653005697819,1.72825764211635,"ssf","mf.is","gamma","vonmises",15,"ssfOUT_60_6_3_VULTURE","VULTURE",3,0.166666666666667,60,"preference"
"ssfOUT_60_6_3_VULTURE.3",0.999611252307209,0.279454944713506,1.71976755990091,"ssf","mf.is","gamma","vonmises",50,"ssfOUT_60_6_3_VULTURE","VULTURE",3,0.166666666666667,60,"preference"
"ssfOUT_60_6_3_VULTURE.4",0.9634077142085,0.24633194692854,1.68048348148846,"ssf","mf.is","gamma","vonmises",158,"ssfOUT_60_6_3_VULTURE","VULTURE",3,0.166666666666667,60,"preference"
"ssfOUT_60_6_3_VULTURE.5",0.993840666897686,0.276886119300513,1.71079521449486,"ssf","mf.is","gamma","vonmises",500,"ssfOUT_60_6_3_VULTURE","VULTURE",3,0.166666666666667,60,"preference"
"ssfOUT_60_6_3_VULTURE.6",0.872044249172693,0.11631479517461,1.62777370317078,"ssf","mf.is","gamma","unif",5,"ssfOUT_60_6_3_VULTURE","VULTURE",3,0.166666666666667,60,"preference"
"ssfOUT_60_6_3_VULTURE.7",1.05719648710064,0.329478572801496,1.78491440139978,"ssf","mf.is","gamma","unif",15,"ssfOUT_60_6_3_VULTURE","VULTURE",3,0.166666666666667,60,"preference"
"ssfOUT_60_6_3_VULTURE.8",0.91366611481341,0.193098593114964,1.63423363651186,"ssf","mf.is","gamma","unif",50,"ssfOUT_60_6_3_VULTURE","VULTURE",3,0.166666666666667,60,"preference"
"ssfOUT_60_6_3_VULTURE.9",0.934657553696635,0.217099176657579,1.65221593073569,"ssf","mf.is","gamma","unif",158,"ssfOUT_60_6_3_VULTURE","VULTURE",3,0.166666666666667,60,"preference"
"ssfOUT_60_6_3_VULTURE.10",0.986187200712586,0.269859756463795,1.70251464496138,"ssf","mf.is","gamma","unif",500,"ssfOUT_60_6_3_VULTURE","VULTURE",3,0.166666666666667,60,"preference"
"ssfOUT_60_6_3_VULTURE.11",0.763404617688351,-0.00774298884608327,1.53455222422279,"ssf","mf.is","exp","vonmises",5,"ssfOUT_60_6_3_VULTURE","VULTURE",3,0.166666666666667,60,"no effect"
"ssfOUT_60_6_3_VULTURE.12",0.969439536416506,0.227961784255782,1.71091728857723,"ssf","mf.is","exp","vonmises",15,"ssfOUT_60_6_3_VULTURE","VULTURE",3,0.166666666666667,60,"preference"
"ssfOUT_60_6_3_VULTURE.13",0.849827026810924,0.129364770761651,1.5702892828602,"ssf","mf.is","exp","vonmises",50,"ssfOUT_60_6_3_VULTURE","VULTURE",3,0.166666666666667,60,"preference"
"ssfOUT_60_6_3_VULTURE.14",0.997151177361075,0.278873210394821,1.71542914432733,"ssf","mf.is","exp","vonmises",158,"ssfOUT_60_6_3_VULTURE","VULTURE",3,0.166666666666667,60,"preference"
"ssfOUT_60_6_3_VULTURE.15",0.961452844493973,0.244713817408942,1.678191871579,"ssf","mf.is","exp","vonmises",500,"ssfOUT_60_6_3_VULTURE","VULTURE",3,0.166666666666667,60,"preference"
"ssfOUT_60_6_3_VULTURE.16",1.12736159066793,0.344707440165572,1.9100157411703,"ssf","mf.is","exp","unif",5,"ssfOUT_60_6_3_VULTURE","VULTURE",3,0.166666666666667,60,"preference"
"ssfOUT_60_6_3_VULTURE.17",1.00648947996989,0.276869614258062,1.73610934568172,"ssf","mf.is","exp","unif",15,"ssfOUT_60_6_3_VULTURE","VULTURE",3,0.166666666666667,60,"preference"
"ssfOUT_60_6_3_VULTURE.18",0.911857409416882,0.193078768656507,1.63063605017726,"ssf","mf.is","exp","unif",50,"ssfOUT_60_6_3_VULTURE","VULTURE",3,0.166666666666667,60,"preference"
"ssfOUT_60_6_3_VULTURE.19",1.01587619364334,0.298719164780481,1.7330332225062,"ssf","mf.is","exp","unif",158,"ssfOUT_60_6_3_VULTURE","VULTURE",3,0.166666666666667,60,"preference"
"ssfOUT_60_6_3_VULTURE.20",0.949917167151102,0.233487596641966,1.66634673766024,"ssf","mf.is","exp","unif",500,"ssfOUT_60_6_3_VULTURE","VULTURE",3,0.166666666666667,60,"preference"
"ssfOUT_60_6_3_VULTURE.21",0.931258838966886,0.170150696774307,1.69236698115946,"ssf","mf.ss","gamma","vonmises",5,"ssfOUT_60_6_3_VULTURE","VULTURE",3,0.166666666666667,60,"preference"
"ssfOUT_60_6_3_VULTURE.22",0.936295669054585,0.208839284771375,1.66375205333779,"ssf","mf.ss","gamma","vonmises",15,"ssfOUT_60_6_3_VULTURE","VULTURE",3,0.166666666666667,60,"preference"
"ssfOUT_60_6_3_VULTURE.23",0.943721244933209,0.225310407965604,1.66213208190081,"ssf","mf.ss","gamma","vonmises",50,"ssfOUT_60_6_3_VULTURE","VULTURE",3,0.166666666666667,60,"preference"
"ssfOUT_60_6_3_VULTURE.24",0.90705803690852,0.191119666166637,1.6229964076504,"ssf","mf.ss","gamma","vonmises",158,"ssfOUT_60_6_3_VULTURE","VULTURE",3,0.166666666666667,60,"preference"
"ssfOUT_60_6_3_VULTURE.25",0.936653803756548,0.22093708527587,1.65237052223723,"ssf","mf.ss","gamma","vonmises",500,"ssfOUT_60_6_3_VULTURE","VULTURE",3,0.166666666666667,60,"preference"
"ssfOUT_60_6_3_VULTURE.26",0.925426120910923,0.170722463880083,1.68012977794176,"ssf","mf.ss","gamma","unif",5,"ssfOUT_60_6_3_VULTURE","VULTURE",3,0.166666666666667,60,"preference"
"ssfOUT_60_6_3_VULTURE.27",1.03965631300949,0.313590428240244,1.76572219777873,"ssf","mf.ss","gamma","unif",15,"ssfOUT_60_6_3_VULTURE","VULTURE",3,0.166666666666667,60,"preference"
"ssfOUT_60_6_3_VULTURE.28",0.888019458558597,0.168513317815793,1.6075255993014,"ssf","mf.ss","gamma","unif",50,"ssfOUT_60_6_3_VULTURE","VULTURE",3,0.166666666666667,60,"preference"
"ssfOUT_60_6_3_VULTURE.29",0.906810317068014,0.190193115350425,1.6234275187856,"ssf","mf.ss","gamma","unif",158,"ssfOUT_60_6_3_VULTURE","VULTURE",3,0.166666666666667,60,"preference"
"ssfOUT_60_6_3_VULTURE.30",0.952720766941634,0.237239519886726,1.66820201399654,"ssf","mf.ss","gamma","unif",500,"ssfOUT_60_6_3_VULTURE","VULTURE",3,0.166666666666667,60,"preference"
"ssfOUT_60_6_3_VULTURE.31",0.579673578141731,-0.180508341847442,1.3398554981309,"ssf","mf.ss","exp","vonmises",5,"ssfOUT_60_6_3_VULTURE","VULTURE",3,0.166666666666667,60,"no effect"
"ssfOUT_60_6_3_VULTURE.32",0.808159715449535,0.0719571974307228,1.54436223346835,"ssf","mf.ss","exp","vonmises",15,"ssfOUT_60_6_3_VULTURE","VULTURE",3,0.166666666666667,60,"preference"
"ssfOUT_60_6_3_VULTURE.33",0.791496340828762,0.0709708445963774,1.51202183706115,"ssf","mf.ss","exp","vonmises",50,"ssfOUT_60_6_3_VULTURE","VULTURE",3,0.166666666666667,60,"preference"
"ssfOUT_60_6_3_VULTURE.34",0.954046416117168,0.235290616066804,1.67280221616753,"ssf","mf.ss","exp","vonmises",158,"ssfOUT_60_6_3_VULTURE","VULTURE",3,0.166666666666667,60,"preference"
"ssfOUT_60_6_3_VULTURE.35",0.917789661866582,0.200281574348846,1.63529774938432,"ssf","mf.ss","exp","vonmises",500,"ssfOUT_60_6_3_VULTURE","VULTURE",3,0.166666666666667,60,"preference"
"ssfOUT_60_6_3_VULTURE.36",0.925508118096452,0.157281924952235,1.69373431124067,"ssf","mf.ss","exp","unif",5,"ssfOUT_60_6_3_VULTURE","VULTURE",3,0.166666666666667,60,"preference"
"ssfOUT_60_6_3_VULTURE.37",0.931925447813719,0.204952091186221,1.65889880444122,"ssf","mf.ss","exp","unif",15,"ssfOUT_60_6_3_VULTURE","VULTURE",3,0.166666666666667,60,"preference"
"ssfOUT_60_6_3_VULTURE.38",0.929104228630177,0.209840166368878,1.64836829089148,"ssf","mf.ss","exp","unif",50,"ssfOUT_60_6_3_VULTURE","VULTURE",3,0.166666666666667,60,"preference"
"ssfOUT_60_6_3_VULTURE.39",0.969046284726255,0.251516310612713,1.6865762588398,"ssf","mf.ss","exp","unif",158,"ssfOUT_60_6_3_VULTURE","VULTURE",3,0.166666666666667,60,"preference"
"ssfOUT_60_6_3_VULTURE.40",0.921969878150126,0.204608088842603,1.63933166745765,"ssf","mf.ss","exp","unif",500,"ssfOUT_60_6_3_VULTURE","VULTURE",3,0.166666666666667,60,"preference"
"ssfOUT_60_6_3_KINGCOBRA.1",0.714392553509014,-0.422723263409944,1.85150837042797,"ssf","mf.is","gamma","vonmises",5,"ssfOUT_60_6_3_KINGCOBRA","KINGCOBRA",3,0.166666666666667,60,"no effect"
"ssfOUT_60_6_3_KINGCOBRA.2",0.427476533654457,-0.646025314160687,1.5009783814696,"ssf","mf.is","gamma","vonmises",15,"ssfOUT_60_6_3_KINGCOBRA","KINGCOBRA",3,0.166666666666667,60,"no effect"
"ssfOUT_60_6_3_KINGCOBRA.3",-0.0290402667365383,-1.09187275406906,1.03379222059598,"ssf","mf.is","gamma","vonmises",50,"ssfOUT_60_6_3_KINGCOBRA","KINGCOBRA",3,0.166666666666667,60,"no effect"
"ssfOUT_60_6_3_KINGCOBRA.4",0.453066297185195,-0.629401667838364,1.53553426220875,"ssf","mf.is","gamma","vonmises",158,"ssfOUT_60_6_3_KINGCOBRA","KINGCOBRA",3,0.166666666666667,60,"no effect"
"ssfOUT_60_6_3_KINGCOBRA.5",0.361998213213232,-0.703971096388781,1.42796752281524,"ssf","mf.is","gamma","vonmises",500,"ssfOUT_60_6_3_KINGCOBRA","KINGCOBRA",3,0.166666666666667,60,"no effect"
"ssfOUT_60_6_3_KINGCOBRA.6",0.374207004098961,-0.712380451267789,1.46079445946571,"ssf","mf.is","gamma","unif",5,"ssfOUT_60_6_3_KINGCOBRA","KINGCOBRA",3,0.166666666666667,60,"no effect"
"ssfOUT_60_6_3_KINGCOBRA.7",0.340609954624093,-0.741771742294427,1.42299165154261,"ssf","mf.is","gamma","unif",15,"ssfOUT_60_6_3_KINGCOBRA","KINGCOBRA",3,0.166666666666667,60,"no effect"
"ssfOUT_60_6_3_KINGCOBRA.8",0.453957399142859,-0.626999108582063,1.53491390686778,"ssf","mf.is","gamma","unif",50,"ssfOUT_60_6_3_KINGCOBRA","KINGCOBRA",3,0.166666666666667,60,"no effect"
"ssfOUT_60_6_3_KINGCOBRA.9",0.410628113966236,-0.667717356662569,1.48897358459504,"ssf","mf.is","gamma","unif",158,"ssfOUT_60_6_3_KINGCOBRA","KINGCOBRA",3,0.166666666666667,60,"no effect"
"ssfOUT_60_6_3_KINGCOBRA.10",0.382442157077782,-0.692240320198394,1.45712463435396,"ssf","mf.is","gamma","unif",500,"ssfOUT_60_6_3_KINGCOBRA","KINGCOBRA",3,0.166666666666667,60,"no effect"
"ssfOUT_60_6_3_KINGCOBRA.11",-0.561433566943223,-1.82220696881348,0.699339834927037,"ssf","mf.is","exp","vonmises",5,"ssfOUT_60_6_3_KINGCOBRA","KINGCOBRA",3,0.166666666666667,60,"no effect"
"ssfOUT_60_6_3_KINGCOBRA.12",-1.59912643978725,-2.76711431753294,-0.431138562041569,"ssf","mf.is","exp","vonmises",15,"ssfOUT_60_6_3_KINGCOBRA","KINGCOBRA",3,0.166666666666667,60,"avoidance"
"ssfOUT_60_6_3_KINGCOBRA.13",-0.0533095553918799,-1.13323338537852,1.02661427459476,"ssf","mf.is","exp","vonmises",50,"ssfOUT_60_6_3_KINGCOBRA","KINGCOBRA",3,0.166666666666667,60,"no effect"
"ssfOUT_60_6_3_KINGCOBRA.14",0.419311250068325,-0.664475640176497,1.50309814031315,"ssf","mf.is","exp","vonmises",158,"ssfOUT_60_6_3_KINGCOBRA","KINGCOBRA",3,0.166666666666667,60,"no effect"
"ssfOUT_60_6_3_KINGCOBRA.15",0.338755406800416,-0.730315806288516,1.40782661988935,"ssf","mf.is","exp","vonmises",500,"ssfOUT_60_6_3_KINGCOBRA","KINGCOBRA",3,0.166666666666667,60,"no effect"
"ssfOUT_60_6_3_KINGCOBRA.16",-0.458453360350683,-1.7294722411085,0.812565520407139,"ssf","mf.is","exp","unif",5,"ssfOUT_60_6_3_KINGCOBRA","KINGCOBRA",3,0.166666666666667,60,"no effect"
"ssfOUT_60_6_3_KINGCOBRA.17",-1.51659395836011,-2.67353017800233,-0.359657738717896,"ssf","mf.is","exp","unif",15,"ssfOUT_60_6_3_KINGCOBRA","KINGCOBRA",3,0.166666666666667,60,"avoidance"
"ssfOUT_60_6_3_KINGCOBRA.18",0.0938810553147533,-0.966190855283688,1.15395296591319,"ssf","mf.is","exp","unif",50,"ssfOUT_60_6_3_KINGCOBRA","KINGCOBRA",3,0.166666666666667,60,"no effect"
"ssfOUT_60_6_3_KINGCOBRA.19",0.199329147432243,-0.867532403776793,1.26619069864128,"ssf","mf.is","exp","unif",158,"ssfOUT_60_6_3_KINGCOBRA","KINGCOBRA",3,0.166666666666667,60,"no effect"
"ssfOUT_60_6_3_KINGCOBRA.20",0.144637878494993,-0.945165836762809,1.23444159375279,"ssf","mf.is","exp","unif",500,"ssfOUT_60_6_3_KINGCOBRA","KINGCOBRA",3,0.166666666666667,60,"no effect"
"ssfOUT_60_6_3_KINGCOBRA.21",0.659739321570102,-0.478345685614006,1.79782432875421,"ssf","mf.ss","gamma","vonmises",5,"ssfOUT_60_6_3_KINGCOBRA","KINGCOBRA",3,0.166666666666667,60,"no effect"
"ssfOUT_60_6_3_KINGCOBRA.22",0.243586355776548,-0.798480561869394,1.28565327342249,"ssf","mf.ss","gamma","vonmises",15,"ssfOUT_60_6_3_KINGCOBRA","KINGCOBRA",3,0.166666666666667,60,"no effect"
"ssfOUT_60_6_3_KINGCOBRA.23",-0.0750746935492946,-1.12909947066319,0.978950083564605,"ssf","mf.ss","gamma","vonmises",50,"ssfOUT_60_6_3_KINGCOBRA","KINGCOBRA",3,0.166666666666667,60,"no effect"
"ssfOUT_60_6_3_KINGCOBRA.24",0.216795516670383,-0.858172248769544,1.29176328211031,"ssf","mf.ss","gamma","vonmises",158,"ssfOUT_60_6_3_KINGCOBRA","KINGCOBRA",3,0.166666666666667,60,"no effect"
"ssfOUT_60_6_3_KINGCOBRA.25",0.145406204432756,-0.917912497366234,1.20872490623175,"ssf","mf.ss","gamma","vonmises",500,"ssfOUT_60_6_3_KINGCOBRA","KINGCOBRA",3,0.166666666666667,60,"no effect"
"ssfOUT_60_6_3_KINGCOBRA.26",0.461754832032258,-0.608858894077326,1.53236855814184,"ssf","mf.ss","gamma","unif",5,"ssfOUT_60_6_3_KINGCOBRA","KINGCOBRA",3,0.166666666666667,60,"no effect"
"ssfOUT_60_6_3_KINGCOBRA.27",0.186460741238551,-0.89484093353594,1.26776241601304,"ssf","mf.ss","gamma","unif",15,"ssfOUT_60_6_3_KINGCOBRA","KINGCOBRA",3,0.166666666666667,60,"no effect"
"ssfOUT_60_6_3_KINGCOBRA.28",0.331363592182644,-0.760916468598608,1.4236436529639,"ssf","mf.ss","gamma","unif",50,"ssfOUT_60_6_3_KINGCOBRA","KINGCOBRA",3,0.166666666666667,60,"no effect"
"ssfOUT_60_6_3_KINGCOBRA.29",0.275906831013469,-0.807947467413043,1.35976112943998,"ssf","mf.ss","gamma","unif",158,"ssfOUT_60_6_3_KINGCOBRA","KINGCOBRA",3,0.166666666666667,60,"no effect"
"ssfOUT_60_6_3_KINGCOBRA.30",0.244198122159225,-0.829059761752742,1.31745600607119,"ssf","mf.ss","gamma","unif",500,"ssfOUT_60_6_3_KINGCOBRA","KINGCOBRA",3,0.166666666666667,60,"no effect"
"ssfOUT_60_6_3_KINGCOBRA.31",-0.756633054382056,-1.98224672051057,0.468980611746461,"ssf","mf.ss","exp","vonmises",5,"ssfOUT_60_6_3_KINGCOBRA","KINGCOBRA",3,0.166666666666667,60,"no effect"
"ssfOUT_60_6_3_KINGCOBRA.32",-1.18584052008192,-2.34668424207421,-0.0249967980896248,"ssf","mf.ss","exp","vonmises",15,"ssfOUT_60_6_3_KINGCOBRA","KINGCOBRA",3,0.166666666666667,60,"avoidance"
"ssfOUT_60_6_3_KINGCOBRA.33",-0.452185871220966,-1.48789625352815,0.583524511086215,"ssf","mf.ss","exp","vonmises",50,"ssfOUT_60_6_3_KINGCOBRA","KINGCOBRA",3,0.166666666666667,60,"no effect"
"ssfOUT_60_6_3_KINGCOBRA.34",-0.318649814169161,-1.35741619554682,0.720116567208501,"ssf","mf.ss","exp","vonmises",158,"ssfOUT_60_6_3_KINGCOBRA","KINGCOBRA",3,0.166666666666667,60,"no effect"
"ssfOUT_60_6_3_KINGCOBRA.35",-0.287894458922116,-1.31404083832813,0.7382519204839,"ssf","mf.ss","exp","vonmises",500,"ssfOUT_60_6_3_KINGCOBRA","KINGCOBRA",3,0.166666666666667,60,"no effect"
"ssfOUT_60_6_3_KINGCOBRA.36",-0.309995570497347,-1.46786439888102,0.847873257886327,"ssf","mf.ss","exp","unif",5,"ssfOUT_60_6_3_KINGCOBRA","KINGCOBRA",3,0.166666666666667,60,"no effect"
"ssfOUT_60_6_3_KINGCOBRA.37",-1.38516256786587,-2.5416984047352,-0.22862673099654,"ssf","mf.ss","exp","unif",15,"ssfOUT_60_6_3_KINGCOBRA","KINGCOBRA",3,0.166666666666667,60,"avoidance"
"ssfOUT_60_6_3_KINGCOBRA.38",-0.237591116813967,-1.27633765757393,0.801155423945995,"ssf","mf.ss","exp","unif",50,"ssfOUT_60_6_3_KINGCOBRA","KINGCOBRA",3,0.166666666666667,60,"no effect"
"ssfOUT_60_6_3_KINGCOBRA.39",-0.379445942706756,-1.40897745822541,0.6500855728119,"ssf","mf.ss","exp","unif",158,"ssfOUT_60_6_3_KINGCOBRA","KINGCOBRA",3,0.166666666666667,60,"no effect"
"ssfOUT_60_6_3_KINGCOBRA.40",-0.336341345981072,-1.37452414707562,0.701841455113476,"ssf","mf.ss","exp","unif",500,"ssfOUT_60_6_3_KINGCOBRA","KINGCOBRA",3,0.166666666666667,60,"no effect"
"ssfOUT_60_6_4_BADGER.1",1.05642138127197,0.43137781429916,1.68146494824478,"ssf","mf.is","gamma","vonmises",5,"ssfOUT_60_6_4_BADGER","BADGER",4,0.166666666666667,60,"preference"
"ssfOUT_60_6_4_BADGER.2",1.02928213056884,0.424427549844762,1.63413671129292,"ssf","mf.is","gamma","vonmises",15,"ssfOUT_60_6_4_BADGER","BADGER",4,0.166666666666667,60,"preference"
"ssfOUT_60_6_4_BADGER.3",1.0768852853883,0.484415547512963,1.66935502326363,"ssf","mf.is","gamma","vonmises",50,"ssfOUT_60_6_4_BADGER","BADGER",4,0.166666666666667,60,"preference"
"ssfOUT_60_6_4_BADGER.4",0.996091147914003,0.406471477588567,1.58571081823944,"ssf","mf.is","gamma","vonmises",158,"ssfOUT_60_6_4_BADGER","BADGER",4,0.166666666666667,60,"preference"
"ssfOUT_60_6_4_BADGER.5",1.03974715872268,0.45204929757744,1.62744501986792,"ssf","mf.is","gamma","vonmises",500,"ssfOUT_60_6_4_BADGER","BADGER",4,0.166666666666667,60,"preference"
"ssfOUT_60_6_4_BADGER.6",1.04798293596003,0.433985358736053,1.66198051318401,"ssf","mf.is","gamma","unif",5,"ssfOUT_60_6_4_BADGER","BADGER",4,0.166666666666667,60,"preference"
"ssfOUT_60_6_4_BADGER.7",0.843563406400937,0.241126879708307,1.44599993309357,"ssf","mf.is","gamma","unif",15,"ssfOUT_60_6_4_BADGER","BADGER",4,0.166666666666667,60,"preference"
"ssfOUT_60_6_4_BADGER.8",0.950163637597774,0.358878276440914,1.54144899875463,"ssf","mf.is","gamma","unif",50,"ssfOUT_60_6_4_BADGER","BADGER",4,0.166666666666667,60,"preference"
"ssfOUT_60_6_4_BADGER.9",1.0251780498307,0.437519818415922,1.61283628124548,"ssf","mf.is","gamma","unif",158,"ssfOUT_60_6_4_BADGER","BADGER",4,0.166666666666667,60,"preference"
"ssfOUT_60_6_4_BADGER.10",1.00035938282574,0.412353735657738,1.58836502999374,"ssf","mf.is","gamma","unif",500,"ssfOUT_60_6_4_BADGER","BADGER",4,0.166666666666667,60,"preference"
"ssfOUT_60_6_4_BADGER.11",1.03465105046456,0.402314663660922,1.66698743726819,"ssf","mf.is","exp","vonmises",5,"ssfOUT_60_6_4_BADGER","BADGER",4,0.166666666666667,60,"preference"
"ssfOUT_60_6_4_BADGER.12",0.871635315474359,0.266060834044108,1.47720979690461,"ssf","mf.is","exp","vonmises",15,"ssfOUT_60_6_4_BADGER","BADGER",4,0.166666666666667,60,"preference"
"ssfOUT_60_6_4_BADGER.13",1.03864724645527,0.445743015921307,1.63155147698924,"ssf","mf.is","exp","vonmises",50,"ssfOUT_60_6_4_BADGER","BADGER",4,0.166666666666667,60,"preference"
"ssfOUT_60_6_4_BADGER.14",1.01439505525437,0.426098242801588,1.60269186770715,"ssf","mf.is","exp","vonmises",158,"ssfOUT_60_6_4_BADGER","BADGER",4,0.166666666666667,60,"preference"
"ssfOUT_60_6_4_BADGER.15",1.01151629616118,0.423687332578161,1.5993452597442,"ssf","mf.is","exp","vonmises",500,"ssfOUT_60_6_4_BADGER","BADGER",4,0.166666666666667,60,"preference"
"ssfOUT_60_6_4_BADGER.16",1.09633462028879,0.475906378256437,1.71676286232114,"ssf","mf.is","exp","unif",5,"ssfOUT_60_6_4_BADGER","BADGER",4,0.166666666666667,60,"preference"
"ssfOUT_60_6_4_BADGER.17",0.867696206290132,0.261989385469127,1.47340302711114,"ssf","mf.is","exp","unif",15,"ssfOUT_60_6_4_BADGER","BADGER",4,0.166666666666667,60,"preference"
"ssfOUT_60_6_4_BADGER.18",1.03529661703391,0.443825751389097,1.62676748267872,"ssf","mf.is","exp","unif",50,"ssfOUT_60_6_4_BADGER","BADGER",4,0.166666666666667,60,"preference"
"ssfOUT_60_6_4_BADGER.19",0.996429695980386,0.408146610013381,1.58471278194739,"ssf","mf.is","exp","unif",158,"ssfOUT_60_6_4_BADGER","BADGER",4,0.166666666666667,60,"preference"
"ssfOUT_60_6_4_BADGER.20",1.00022519389335,0.412681131336626,1.58776925645007,"ssf","mf.is","exp","unif",500,"ssfOUT_60_6_4_BADGER","BADGER",4,0.166666666666667,60,"preference"
"ssfOUT_60_6_4_BADGER.21",0.926477806816136,0.306914518413017,1.54604109521926,"ssf","mf.ss","gamma","vonmises",5,"ssfOUT_60_6_4_BADGER","BADGER",4,0.166666666666667,60,"preference"
"ssfOUT_60_6_4_BADGER.22",0.885320280078417,0.285010615761625,1.48562994439521,"ssf","mf.ss","gamma","vonmises",15,"ssfOUT_60_6_4_BADGER","BADGER",4,0.166666666666667,60,"preference"
"ssfOUT_60_6_4_BADGER.23",0.899506019779822,0.308911770702079,1.49010026885757,"ssf","mf.ss","gamma","vonmises",50,"ssfOUT_60_6_4_BADGER","BADGER",4,0.166666666666667,60,"preference"
"ssfOUT_60_6_4_BADGER.24",0.833042957293048,0.245052622938908,1.42103329164719,"ssf","mf.ss","gamma","vonmises",158,"ssfOUT_60_6_4_BADGER","BADGER",4,0.166666666666667,60,"preference"
"ssfOUT_60_6_4_BADGER.25",0.889298878562341,0.302449210473326,1.47614854665136,"ssf","mf.ss","gamma","vonmises",500,"ssfOUT_60_6_4_BADGER","BADGER",4,0.166666666666667,60,"preference"
"ssfOUT_60_6_4_BADGER.26",1.10348321240999,0.492252500139714,1.71471392468026,"ssf","mf.ss","gamma","unif",5,"ssfOUT_60_6_4_BADGER","BADGER",4,0.166666666666667,60,"preference"
"ssfOUT_60_6_4_BADGER.27",0.826011523273183,0.225099804727074,1.42692324181929,"ssf","mf.ss","gamma","unif",15,"ssfOUT_60_6_4_BADGER","BADGER",4,0.166666666666667,60,"preference"
"ssfOUT_60_6_4_BADGER.28",0.901221684831422,0.311189438301206,1.49125393136164,"ssf","mf.ss","gamma","unif",50,"ssfOUT_60_6_4_BADGER","BADGER",4,0.166666666666667,60,"preference"
"ssfOUT_60_6_4_BADGER.29",0.915059819606236,0.328671251967145,1.50144838724533,"ssf","mf.ss","gamma","unif",158,"ssfOUT_60_6_4_BADGER","BADGER",4,0.166666666666667,60,"preference"
"ssfOUT_60_6_4_BADGER.30",0.912155096442074,0.325118072681456,1.49919212020269,"ssf","mf.ss","gamma","unif",500,"ssfOUT_60_6_4_BADGER","BADGER",4,0.166666666666667,60,"preference"
"ssfOUT_60_6_4_BADGER.31",1.06930420021191,0.454240848891761,1.68436755153205,"ssf","mf.ss","exp","vonmises",5,"ssfOUT_60_6_4_BADGER","BADGER",4,0.166666666666667,60,"preference"
"ssfOUT_60_6_4_BADGER.32",0.741832256680772,0.14398329798523,1.33968121537631,"ssf","mf.ss","exp","vonmises",15,"ssfOUT_60_6_4_BADGER","BADGER",4,0.166666666666667,60,"preference"
"ssfOUT_60_6_4_BADGER.33",0.776313109934346,0.184886720334101,1.36773949953459,"ssf","mf.ss","exp","vonmises",50,"ssfOUT_60_6_4_BADGER","BADGER",4,0.166666666666667,60,"preference"
"ssfOUT_60_6_4_BADGER.34",0.846889417047035,0.258557708253477,1.43522112584059,"ssf","mf.ss","exp","vonmises",158,"ssfOUT_60_6_4_BADGER","BADGER",4,0.166666666666667,60,"preference"
"ssfOUT_60_6_4_BADGER.35",0.814723078349837,0.226249192501184,1.40319696419849,"ssf","mf.ss","exp","vonmises",500,"ssfOUT_60_6_4_BADGER","BADGER",4,0.166666666666667,60,"preference"
"ssfOUT_60_6_4_BADGER.36",1.10293650167641,0.488528064988695,1.71734493836412,"ssf","mf.ss","exp","unif",5,"ssfOUT_60_6_4_BADGER","BADGER",4,0.166666666666667,60,"preference"
"ssfOUT_60_6_4_BADGER.37",0.781327661556427,0.17811523614301,1.38454008696984,"ssf","mf.ss","exp","unif",15,"ssfOUT_60_6_4_BADGER","BADGER",4,0.166666666666667,60,"preference"
"ssfOUT_60_6_4_BADGER.38",0.861518122595839,0.271013137405982,1.4520231077857,"ssf","mf.ss","exp","unif",50,"ssfOUT_60_6_4_BADGER","BADGER",4,0.166666666666667,60,"preference"
"ssfOUT_60_6_4_BADGER.39",0.843831059175752,0.255510022029434,1.43215209632207,"ssf","mf.ss","exp","unif",158,"ssfOUT_60_6_4_BADGER","BADGER",4,0.166666666666667,60,"preference"
"ssfOUT_60_6_4_BADGER.40",0.840169577708245,0.252222080681107,1.42811707473538,"ssf","mf.ss","exp","unif",500,"ssfOUT_60_6_4_BADGER","BADGER",4,0.166666666666667,60,"preference"
"ssfOUT_60_6_4_VULTURE.1",0.580530047633193,0.0300774267470983,1.13098266851929,"ssf","mf.is","gamma","vonmises",5,"ssfOUT_60_6_4_VULTURE","VULTURE",4,0.166666666666667,60,"preference"
"ssfOUT_60_6_4_VULTURE.2",0.850682886108421,0.328948856234371,1.37241691598247,"ssf","mf.is","gamma","vonmises",15,"ssfOUT_60_6_4_VULTURE","VULTURE",4,0.166666666666667,60,"preference"
"ssfOUT_60_6_4_VULTURE.3",0.799789964300566,0.287114057500848,1.31246587110028,"ssf","mf.is","gamma","vonmises",50,"ssfOUT_60_6_4_VULTURE","VULTURE",4,0.166666666666667,60,"preference"
"ssfOUT_60_6_4_VULTURE.4",0.68347868330593,0.172325222057978,1.19463214455388,"ssf","mf.is","gamma","vonmises",158,"ssfOUT_60_6_4_VULTURE","VULTURE",4,0.166666666666667,60,"preference"
"ssfOUT_60_6_4_VULTURE.5",0.673133933540334,0.162877157949564,1.1833907091311,"ssf","mf.is","gamma","vonmises",500,"ssfOUT_60_6_4_VULTURE","VULTURE",4,0.166666666666667,60,"preference"
"ssfOUT_60_6_4_VULTURE.6",0.630003095933068,0.0829808349150938,1.17702535695104,"ssf","mf.is","gamma","unif",5,"ssfOUT_60_6_4_VULTURE","VULTURE",4,0.166666666666667,60,"preference"
"ssfOUT_60_6_4_VULTURE.7",0.547256596871437,0.0268360751417303,1.06767711860114,"ssf","mf.is","gamma","unif",15,"ssfOUT_60_6_4_VULTURE","VULTURE",4,0.166666666666667,60,"preference"
"ssfOUT_60_6_4_VULTURE.8",0.689472816410242,0.17649102227575,1.20245461054474,"ssf","mf.is","gamma","unif",50,"ssfOUT_60_6_4_VULTURE","VULTURE",4,0.166666666666667,60,"preference"
"ssfOUT_60_6_4_VULTURE.9",0.644596565396695,0.134031133961807,1.15516199683158,"ssf","mf.is","gamma","unif",158,"ssfOUT_60_6_4_VULTURE","VULTURE",4,0.166666666666667,60,"preference"
"ssfOUT_60_6_4_VULTURE.10",0.684728744691598,0.174688379439934,1.19476910994326,"ssf","mf.is","gamma","unif",500,"ssfOUT_60_6_4_VULTURE","VULTURE",4,0.166666666666667,60,"preference"
"ssfOUT_60_6_4_VULTURE.11",0.956766219799234,0.409456637859827,1.50407580173864,"ssf","mf.is","exp","vonmises",5,"ssfOUT_60_6_4_VULTURE","VULTURE",4,0.166666666666667,60,"preference"
"ssfOUT_60_6_4_VULTURE.12",0.526087070899948,-0.00960294063088885,1.06177708243079,"ssf","mf.is","exp","vonmises",15,"ssfOUT_60_6_4_VULTURE","VULTURE",4,0.166666666666667,60,"no effect"
"ssfOUT_60_6_4_VULTURE.13",0.571108178280281,0.0559213943655974,1.08629496219496,"ssf","mf.is","exp","vonmises",50,"ssfOUT_60_6_4_VULTURE","VULTURE",4,0.166666666666667,60,"preference"
"ssfOUT_60_6_4_VULTURE.14",0.710086854182389,0.198950843729755,1.22122286463502,"ssf","mf.is","exp","vonmises",158,"ssfOUT_60_6_4_VULTURE","VULTURE",4,0.166666666666667,60,"preference"
"ssfOUT_60_6_4_VULTURE.15",0.675529599306381,0.16540826538161,1.18565093323115,"ssf","mf.is","exp","vonmises",500,"ssfOUT_60_6_4_VULTURE","VULTURE",4,0.166666666666667,60,"preference"
"ssfOUT_60_6_4_VULTURE.16",0.507199686603115,-0.0417568113272762,1.05615618453351,"ssf","mf.is","exp","unif",5,"ssfOUT_60_6_4_VULTURE","VULTURE",4,0.166666666666667,60,"no effect"
"ssfOUT_60_6_4_VULTURE.17",0.760800728450942,0.240218100375316,1.28138335652657,"ssf","mf.is","exp","unif",15,"ssfOUT_60_6_4_VULTURE","VULTURE",4,0.166666666666667,60,"preference"
"ssfOUT_60_6_4_VULTURE.18",0.712784730304609,0.198705588686043,1.22686387192318,"ssf","mf.is","exp","unif",50,"ssfOUT_60_6_4_VULTURE","VULTURE",4,0.166666666666667,60,"preference"
"ssfOUT_60_6_4_VULTURE.19",0.711476056419169,0.200542629996048,1.22240948284229,"ssf","mf.is","exp","unif",158,"ssfOUT_60_6_4_VULTURE","VULTURE",4,0.166666666666667,60,"preference"
"ssfOUT_60_6_4_VULTURE.20",0.696842921837992,0.186644174407009,1.20704166926897,"ssf","mf.is","exp","unif",500,"ssfOUT_60_6_4_VULTURE","VULTURE",4,0.166666666666667,60,"preference"
"ssfOUT_60_6_4_VULTURE.21",0.595810385246172,0.0433641554109774,1.14825661508137,"ssf","mf.ss","gamma","vonmises",5,"ssfOUT_60_6_4_VULTURE","VULTURE",4,0.166666666666667,60,"preference"
"ssfOUT_60_6_4_VULTURE.22",0.753368558056257,0.234069399443885,1.27266771666863,"ssf","mf.ss","gamma","vonmises",15,"ssfOUT_60_6_4_VULTURE","VULTURE",4,0.166666666666667,60,"preference"
"ssfOUT_60_6_4_VULTURE.23",0.760589385990153,0.248143124757426,1.27303564722288,"ssf","mf.ss","gamma","vonmises",50,"ssfOUT_60_6_4_VULTURE","VULTURE",4,0.166666666666667,60,"preference"
"ssfOUT_60_6_4_VULTURE.24",0.676116784616832,0.165288632354347,1.18694493687932,"ssf","mf.ss","gamma","vonmises",158,"ssfOUT_60_6_4_VULTURE","VULTURE",4,0.166666666666667,60,"preference"
"ssfOUT_60_6_4_VULTURE.25",0.631160982116053,0.12136136477403,1.14096059945808,"ssf","mf.ss","gamma","vonmises",500,"ssfOUT_60_6_4_VULTURE","VULTURE",4,0.166666666666667,60,"preference"
"ssfOUT_60_6_4_VULTURE.26",0.626243358824527,0.0819053406245065,1.17058137702455,"ssf","mf.ss","gamma","unif",5,"ssfOUT_60_6_4_VULTURE","VULTURE",4,0.166666666666667,60,"preference"
"ssfOUT_60_6_4_VULTURE.27",0.559385568679596,0.0398996240837001,1.07887151327549,"ssf","mf.ss","gamma","unif",15,"ssfOUT_60_6_4_VULTURE","VULTURE",4,0.166666666666667,60,"preference"
"ssfOUT_60_6_4_VULTURE.28",0.681129001638367,0.168417347064123,1.19384065621261,"ssf","mf.ss","gamma","unif",50,"ssfOUT_60_6_4_VULTURE","VULTURE",4,0.166666666666667,60,"preference"
"ssfOUT_60_6_4_VULTURE.29",0.639038162726087,0.128883896365753,1.14919242908642,"ssf","mf.ss","gamma","unif",158,"ssfOUT_60_6_4_VULTURE","VULTURE",4,0.166666666666667,60,"preference"
"ssfOUT_60_6_4_VULTURE.30",0.677958360858617,0.168229138097149,1.18768758362009,"ssf","mf.ss","gamma","unif",500,"ssfOUT_60_6_4_VULTURE","VULTURE",4,0.166666666666667,60,"preference"
"ssfOUT_60_6_4_VULTURE.31",0.737856511454061,0.203737156750904,1.27197586615722,"ssf","mf.ss","exp","vonmises",5,"ssfOUT_60_6_4_VULTURE","VULTURE",4,0.166666666666667,60,"preference"
"ssfOUT_60_6_4_VULTURE.32",0.422166145563939,-0.1041839573906,0.948516248518477,"ssf","mf.ss","exp","vonmises",15,"ssfOUT_60_6_4_VULTURE","VULTURE",4,0.166666666666667,60,"no effect"
"ssfOUT_60_6_4_VULTURE.33",0.536434166633328,0.0201365624238022,1.05273177084285,"ssf","mf.ss","exp","vonmises",50,"ssfOUT_60_6_4_VULTURE","VULTURE",4,0.166666666666667,60,"preference"
"ssfOUT_60_6_4_VULTURE.34",0.649195712890177,0.13766882004804,1.16072260573231,"ssf","mf.ss","exp","vonmises",158,"ssfOUT_60_6_4_VULTURE","VULTURE",4,0.166666666666667,60,"preference"
"ssfOUT_60_6_4_VULTURE.35",0.626204359771402,0.115410318596033,1.13699840094677,"ssf","mf.ss","exp","vonmises",500,"ssfOUT_60_6_4_VULTURE","VULTURE",4,0.166666666666667,60,"preference"
"ssfOUT_60_6_4_VULTURE.36",0.610620806946786,0.0710388760830624,1.15020273781051,"ssf","mf.ss","exp","unif",5,"ssfOUT_60_6_4_VULTURE","VULTURE",4,0.166666666666667,60,"preference"
"ssfOUT_60_6_4_VULTURE.37",0.663013140389874,0.142383915457197,1.18364236532255,"ssf","mf.ss","exp","unif",15,"ssfOUT_60_6_4_VULTURE","VULTURE",4,0.166666666666667,60,"preference"
"ssfOUT_60_6_4_VULTURE.38",0.630554484017902,0.11676278621164,1.14434618182416,"ssf","mf.ss","exp","unif",50,"ssfOUT_60_6_4_VULTURE","VULTURE",4,0.166666666666667,60,"preference"
"ssfOUT_60_6_4_VULTURE.39",0.658307177663247,0.146784119820007,1.16983023550649,"ssf","mf.ss","exp","unif",158,"ssfOUT_60_6_4_VULTURE","VULTURE",4,0.166666666666667,60,"preference"
"ssfOUT_60_6_4_VULTURE.40",0.654183788002143,0.143238641772016,1.16512893423227,"ssf","mf.ss","exp","unif",500,"ssfOUT_60_6_4_VULTURE","VULTURE",4,0.166666666666667,60,"preference"
"ssfOUT_60_6_4_KINGCOBRA.1",17.4032766838513,-3438.31651325717,3473.12306662488,"ssf","mf.is","gamma","vonmises",5,"ssfOUT_60_6_4_KINGCOBRA","KINGCOBRA",4,0.166666666666667,60,"no effect"
"ssfOUT_60_6_4_KINGCOBRA.2",16.0511726550944,-2245.09075640504,2277.19310171523,"ssf","mf.is","gamma","vonmises",15,"ssfOUT_60_6_4_KINGCOBRA","KINGCOBRA",4,0.166666666666667,60,"no effect"
"ssfOUT_60_6_4_KINGCOBRA.3",16.1103288827551,-1827.93234630576,1860.15300407127,"ssf","mf.is","gamma","vonmises",50,"ssfOUT_60_6_4_KINGCOBRA","KINGCOBRA",4,0.166666666666667,60,"no effect"
"ssfOUT_60_6_4_KINGCOBRA.4",16.0053418935522,-1797.20607119337,1829.21675498047,"ssf","mf.is","gamma","vonmises",158,"ssfOUT_60_6_4_KINGCOBRA","KINGCOBRA",4,0.166666666666667,60,"no effect"
"ssfOUT_60_6_4_KINGCOBRA.5",16.0163949176724,-1744.53916297698,1776.57195281233,"ssf","mf.is","gamma","vonmises",500,"ssfOUT_60_6_4_KINGCOBRA","KINGCOBRA",4,0.166666666666667,60,"no effect"
"ssfOUT_60_6_4_KINGCOBRA.6",17.4141341960485,-3012.59932750718,3047.42759589928,"ssf","mf.is","gamma","unif",5,"ssfOUT_60_6_4_KINGCOBRA","KINGCOBRA",4,0.166666666666667,60,"no effect"
"ssfOUT_60_6_4_KINGCOBRA.7",16.0502311159038,-1740.71895560484,1772.81941783665,"ssf","mf.is","gamma","unif",15,"ssfOUT_60_6_4_KINGCOBRA","KINGCOBRA",4,0.166666666666667,60,"no effect"
"ssfOUT_60_6_4_KINGCOBRA.8",16.0159805902332,-1698.82888360884,1730.86084478931,"ssf","mf.is","gamma","unif",50,"ssfOUT_60_6_4_KINGCOBRA","KINGCOBRA",4,0.166666666666667,60,"no effect"
"ssfOUT_60_6_4_KINGCOBRA.9",16.0458510984467,-1782.91642028592,1815.00812248282,"ssf","mf.is","gamma","unif",158,"ssfOUT_60_6_4_KINGCOBRA","KINGCOBRA",4,0.166666666666667,60,"no effect"
"ssfOUT_60_6_4_KINGCOBRA.10",15.9928081519349,-1747.94535816357,1779.93097446744,"ssf","mf.is","gamma","unif",500,"ssfOUT_60_6_4_KINGCOBRA","KINGCOBRA",4,0.166666666666667,60,"no effect"
"ssfOUT_60_6_4_KINGCOBRA.11",17.2047411159964,-3288.3307532523,3322.7402354843,"ssf","mf.is","exp","vonmises",5,"ssfOUT_60_6_4_KINGCOBRA","KINGCOBRA",4,0.166666666666667,60,"no effect"
"ssfOUT_60_6_4_KINGCOBRA.12",16.1982196006415,-2025.6084008617,2058.00484006299,"ssf","mf.is","exp","vonmises",15,"ssfOUT_60_6_4_KINGCOBRA","KINGCOBRA",4,0.166666666666667,60,"no effect"
"ssfOUT_60_6_4_KINGCOBRA.13",16.5444949934814,-2357.82145005041,2390.91044003737,"ssf","mf.is","exp","vonmises",50,"ssfOUT_60_6_4_KINGCOBRA","KINGCOBRA",4,0.166666666666667,60,"no effect"
"ssfOUT_60_6_4_KINGCOBRA.14",15.5394192402302,-1404.57815461549,1435.65699309595,"ssf","mf.is","exp","vonmises",158,"ssfOUT_60_6_4_KINGCOBRA","KINGCOBRA",4,0.166666666666667,60,"no effect"
"ssfOUT_60_6_4_KINGCOBRA.15",15.6119427978337,-1391.23923497153,1422.46312056719,"ssf","mf.is","exp","vonmises",500,"ssfOUT_60_6_4_KINGCOBRA","KINGCOBRA",4,0.166666666666667,60,"no effect"
"ssfOUT_60_6_4_KINGCOBRA.16",17.2549811281614,-3053.26652608772,3087.77648834405,"ssf","mf.is","exp","unif",5,"ssfOUT_60_6_4_KINGCOBRA","KINGCOBRA",4,0.166666666666667,60,"no effect"
"ssfOUT_60_6_4_KINGCOBRA.17",16.3605280820182,-2160.54509103858,2193.26614720262,"ssf","mf.is","exp","unif",15,"ssfOUT_60_6_4_KINGCOBRA","KINGCOBRA",4,0.166666666666667,60,"no effect"
"ssfOUT_60_6_4_KINGCOBRA.18",16.5118816374721,-2053.52066570825,2086.5444289832,"ssf","mf.is","exp","unif",50,"ssfOUT_60_6_4_KINGCOBRA","KINGCOBRA",4,0.166666666666667,60,"no effect"
"ssfOUT_60_6_4_KINGCOBRA.19",15.5410422420282,-1393.71691235171,1424.79899683576,"ssf","mf.is","exp","unif",158,"ssfOUT_60_6_4_KINGCOBRA","KINGCOBRA",4,0.166666666666667,60,"no effect"
"ssfOUT_60_6_4_KINGCOBRA.20",15.7537641809564,-1351.51036137183,1383.01788973375,"ssf","mf.is","exp","unif",500,"ssfOUT_60_6_4_KINGCOBRA","KINGCOBRA",4,0.166666666666667,60,"no effect"
"ssfOUT_60_6_4_KINGCOBRA.21",16.221399284711,-2125.5410324549,2157.98383102433,"ssf","mf.ss","gamma","vonmises",5,"ssfOUT_60_6_4_KINGCOBRA","KINGCOBRA",4,0.166666666666667,60,"no effect"
"ssfOUT_60_6_4_KINGCOBRA.22",16.0522537297,-2292.70742470263,2324.81193216203,"ssf","mf.ss","gamma","vonmises",15,"ssfOUT_60_6_4_KINGCOBRA","KINGCOBRA",4,0.166666666666667,60,"no effect"
"ssfOUT_60_6_4_KINGCOBRA.23",16.036622922049,-1806.4456004182,1838.5188462623,"ssf","mf.ss","gamma","vonmises",50,"ssfOUT_60_6_4_KINGCOBRA","KINGCOBRA",4,0.166666666666667,60,"no effect"
"ssfOUT_60_6_4_KINGCOBRA.24",16.0041389200789,-1788.71968513011,1820.72796297027,"ssf","mf.ss","gamma","vonmises",158,"ssfOUT_60_6_4_KINGCOBRA","KINGCOBRA",4,0.166666666666667,60,"no effect"
"ssfOUT_60_6_4_KINGCOBRA.25",15.9727558994055,-1744.8734162881,1776.81892808691,"ssf","mf.ss","gamma","vonmises",500,"ssfOUT_60_6_4_KINGCOBRA","KINGCOBRA",4,0.166666666666667,60,"no effect"
"ssfOUT_60_6_4_KINGCOBRA.26",17.2776494126479,-3003.38791722575,3037.94321605104,"ssf","mf.ss","gamma","unif",5,"ssfOUT_60_6_4_KINGCOBRA","KINGCOBRA",4,0.166666666666667,60,"no effect"
"ssfOUT_60_6_4_KINGCOBRA.27",16.086144081506,-1733.74185648477,1765.91414464779,"ssf","mf.ss","gamma","unif",15,"ssfOUT_60_6_4_KINGCOBRA","KINGCOBRA",4,0.166666666666667,60,"no effect"
"ssfOUT_60_6_4_KINGCOBRA.28",16.0318011987131,-1690.93274392402,1722.99634632144,"ssf","mf.ss","gamma","unif",50,"ssfOUT_60_6_4_KINGCOBRA","KINGCOBRA",4,0.166666666666667,60,"no effect"
"ssfOUT_60_6_4_KINGCOBRA.29",15.9964195948477,-1779.10945644224,1811.10229563193,"ssf","mf.ss","gamma","unif",158,"ssfOUT_60_6_4_KINGCOBRA","KINGCOBRA",4,0.166666666666667,60,"no effect"
"ssfOUT_60_6_4_KINGCOBRA.30",15.9731246456391,-1744.9435430605,1776.88979235178,"ssf","mf.ss","gamma","unif",500,"ssfOUT_60_6_4_KINGCOBRA","KINGCOBRA",4,0.166666666666667,60,"no effect"
"ssfOUT_60_6_4_KINGCOBRA.31",16.2258869567434,-2047.79181356856,2080.24358748205,"ssf","mf.ss","exp","vonmises",5,"ssfOUT_60_6_4_KINGCOBRA","KINGCOBRA",4,0.166666666666667,60,"no effect"
"ssfOUT_60_6_4_KINGCOBRA.32",16.112164099216,-1718.35666409158,1750.58099229001,"ssf","mf.ss","exp","vonmises",15,"ssfOUT_60_6_4_KINGCOBRA","KINGCOBRA",4,0.166666666666667,60,"no effect"
"ssfOUT_60_6_4_KINGCOBRA.33",16.0134996379565,-1594.15142278516,1626.17842206107,"ssf","mf.ss","exp","vonmises",50,"ssfOUT_60_6_4_KINGCOBRA","KINGCOBRA",4,0.166666666666667,60,"no effect"
"ssfOUT_60_6_4_KINGCOBRA.34",16.004908189901,-1664.44403867808,1696.45385505788,"ssf","mf.ss","exp","vonmises",158,"ssfOUT_60_6_4_KINGCOBRA","KINGCOBRA",4,0.166666666666667,60,"no effect"
"ssfOUT_60_6_4_KINGCOBRA.35",15.9985388425809,-1614.55244529256,1646.54952297773,"ssf","mf.ss","exp","vonmises",500,"ssfOUT_60_6_4_KINGCOBRA","KINGCOBRA",4,0.166666666666667,60,"no effect"
"ssfOUT_60_6_4_KINGCOBRA.36",17.3128986875608,-2940.35532673833,2974.98112411346,"ssf","mf.ss","exp","unif",5,"ssfOUT_60_6_4_KINGCOBRA","KINGCOBRA",4,0.166666666666667,60,"no effect"
"ssfOUT_60_6_4_KINGCOBRA.37",16.0901163945819,-1698.67326445726,1730.85349724643,"ssf","mf.ss","exp","unif",15,"ssfOUT_60_6_4_KINGCOBRA","KINGCOBRA",4,0.166666666666667,60,"no effect"
"ssfOUT_60_6_4_KINGCOBRA.38",16.0204065634943,-1511.35468613597,1543.39549926296,"ssf","mf.ss","exp","unif",50,"ssfOUT_60_6_4_KINGCOBRA","KINGCOBRA",4,0.166666666666667,60,"no effect"
"ssfOUT_60_6_4_KINGCOBRA.39",15.9990397892645,-1622.9994285854,1654.99750816393,"ssf","mf.ss","exp","unif",158,"ssfOUT_60_6_4_KINGCOBRA","KINGCOBRA",4,0.166666666666667,60,"no effect"
"ssfOUT_60_6_4_KINGCOBRA.40",15.9894157254807,-1550.04704429292,1582.02587574388,"ssf","mf.ss","exp","unif",500,"ssfOUT_60_6_4_KINGCOBRA","KINGCOBRA",4,0.166666666666667,60,"no effect"
"ssfOUT_60_12_1_BADGER.1",17.0688345490076,-4996.08957075207,5030.22723985009,"ssf","mf.is","gamma","vonmises",5,"ssfOUT_60_12_1_BADGER","BADGER",1,0.0833333333333333,60,"no effect"
"ssfOUT_60_12_1_BADGER.2",16.4579282213439,-3225.85034764659,3258.76620408928,"ssf","mf.is","gamma","vonmises",15,"ssfOUT_60_12_1_BADGER","BADGER",1,0.0833333333333333,60,"no effect"
"ssfOUT_60_12_1_BADGER.3",16.5426608164469,-3271.16796738578,3304.25328901867,"ssf","mf.is","gamma","vonmises",50,"ssfOUT_60_12_1_BADGER","BADGER",1,0.0833333333333333,60,"no effect"
"ssfOUT_60_12_1_BADGER.4",16.4609015855971,-2927.18907639866,2960.11087956986,"ssf","mf.is","gamma","vonmises",158,"ssfOUT_60_12_1_BADGER","BADGER",1,0.0833333333333333,60,"no effect"
"ssfOUT_60_12_1_BADGER.5",15.6008202480895,-1843.19961644155,1874.40125693773,"ssf","mf.is","gamma","vonmises",500,"ssfOUT_60_12_1_BADGER","BADGER",1,0.0833333333333333,60,"no effect"
"ssfOUT_60_12_1_BADGER.6",16.5592935337856,-3947.93916535968,3981.05775242725,"ssf","mf.is","gamma","unif",5,"ssfOUT_60_12_1_BADGER","BADGER",1,0.0833333333333333,60,"no effect"
"ssfOUT_60_12_1_BADGER.7",16.202578254242,-3071.22184245387,3103.62699896236,"ssf","mf.is","gamma","unif",15,"ssfOUT_60_12_1_BADGER","BADGER",1,0.0833333333333333,60,"no effect"
"ssfOUT_60_12_1_BADGER.8",15.2832476334598,-1975.66962845829,2006.23612372521,"ssf","mf.is","gamma","unif",50,"ssfOUT_60_12_1_BADGER","BADGER",1,0.0833333333333333,60,"no effect"
"ssfOUT_60_12_1_BADGER.9",16.4125880685258,-2711.49362229435,2744.3187984314,"ssf","mf.is","gamma","unif",158,"ssfOUT_60_12_1_BADGER","BADGER",1,0.0833333333333333,60,"no effect"
"ssfOUT_60_12_1_BADGER.10",15.3554201375898,-1647.31167187872,1678.0225121539,"ssf","mf.is","gamma","unif",500,"ssfOUT_60_12_1_BADGER","BADGER",1,0.0833333333333333,60,"no effect"
"ssfOUT_60_12_1_BADGER.11",16.4494429277004,-4578.87204520862,4611.77093106402,"ssf","mf.is","exp","vonmises",5,"ssfOUT_60_12_1_BADGER","BADGER",1,0.0833333333333333,60,"no effect"
"ssfOUT_60_12_1_BADGER.12",16.2977225817929,-3153.53096076207,3186.12640592566,"ssf","mf.is","exp","vonmises",15,"ssfOUT_60_12_1_BADGER","BADGER",1,0.0833333333333333,60,"no effect"
"ssfOUT_60_12_1_BADGER.13",16.9427112443369,-2992.88742970198,3026.77285219065,"ssf","mf.is","exp","vonmises",50,"ssfOUT_60_12_1_BADGER","BADGER",1,0.0833333333333333,60,"no effect"
"ssfOUT_60_12_1_BADGER.14",15.3948052731492,-1937.66573503256,1968.45534557886,"ssf","mf.is","exp","vonmises",158,"ssfOUT_60_12_1_BADGER","BADGER",1,0.0833333333333333,60,"no effect"
"ssfOUT_60_12_1_BADGER.15",15.4299444023851,-1778.20989803942,1809.06978684419,"ssf","mf.is","exp","vonmises",500,"ssfOUT_60_12_1_BADGER","BADGER",1,0.0833333333333333,60,"no effect"
"ssfOUT_60_12_1_BADGER.16",17.9531508590513,-4892.68355659633,4928.58985831444,"ssf","mf.is","exp","unif",5,"ssfOUT_60_12_1_BADGER","BADGER",1,0.0833333333333333,60,"no effect"
"ssfOUT_60_12_1_BADGER.17",16.6520712445692,-2756.0841809533,2789.38832344243,"ssf","mf.is","exp","unif",15,"ssfOUT_60_12_1_BADGER","BADGER",1,0.0833333333333333,60,"no effect"
"ssfOUT_60_12_1_BADGER.18",16.3372497566707,-2859.35674271737,2892.03124223071,"ssf","mf.is","exp","unif",50,"ssfOUT_60_12_1_BADGER","BADGER",1,0.0833333333333333,60,"no effect"
"ssfOUT_60_12_1_BADGER.19",16.4139055332888,-2790.36584732218,2823.19365838875,"ssf","mf.is","exp","unif",158,"ssfOUT_60_12_1_BADGER","BADGER",1,0.0833333333333333,60,"no effect"
"ssfOUT_60_12_1_BADGER.20",15.3962520156495,-1575.91412408091,1606.70662811221,"ssf","mf.is","exp","unif",500,"ssfOUT_60_12_1_BADGER","BADGER",1,0.0833333333333333,60,"no effect"
"ssfOUT_60_12_1_BADGER.21",17.5349110216414,-4558.76056323761,4593.83038528089,"ssf","mf.ss","gamma","vonmises",5,"ssfOUT_60_12_1_BADGER","BADGER",1,0.0833333333333333,60,"no effect"
"ssfOUT_60_12_1_BADGER.22",16.2748800875443,-2877.41609321043,2909.96585338552,"ssf","mf.ss","gamma","vonmises",15,"ssfOUT_60_12_1_BADGER","BADGER",1,0.0833333333333333,60,"no effect"
"ssfOUT_60_12_1_BADGER.23",16.1867985798597,-2920.22653165642,2952.60012881614,"ssf","mf.ss","gamma","vonmises",50,"ssfOUT_60_12_1_BADGER","BADGER",1,0.0833333333333333,60,"no effect"
"ssfOUT_60_12_1_BADGER.24",15.1901784027182,-1797.05429234853,1827.43464915396,"ssf","mf.ss","gamma","vonmises",158,"ssfOUT_60_12_1_BADGER","BADGER",1,0.0833333333333333,60,"no effect"
"ssfOUT_60_12_1_BADGER.25",15.181788366186,-1829.74231823423,1860.1058949666,"ssf","mf.ss","gamma","vonmises",500,"ssfOUT_60_12_1_BADGER","BADGER",1,0.0833333333333333,60,"no effect"
"ssfOUT_60_12_1_BADGER.26",16.3573703198238,-3844.53320219825,3877.2479428379,"ssf","mf.ss","gamma","unif",5,"ssfOUT_60_12_1_BADGER","BADGER",1,0.0833333333333333,60,"no effect"
"ssfOUT_60_12_1_BADGER.27",16.2663318995237,-3036.79298609527,3069.32564989432,"ssf","mf.ss","gamma","unif",15,"ssfOUT_60_12_1_BADGER","BADGER",1,0.0833333333333333,60,"no effect"
"ssfOUT_60_12_1_BADGER.28",15.1807204015106,-1955.93541741411,1986.29685821713,"ssf","mf.ss","gamma","unif",50,"ssfOUT_60_12_1_BADGER","BADGER",1,0.0833333333333333,60,"no effect"
"ssfOUT_60_12_1_BADGER.29",16.216180882157,-2709.50835063252,2741.94071239683,"ssf","mf.ss","gamma","unif",158,"ssfOUT_60_12_1_BADGER","BADGER",1,0.0833333333333333,60,"no effect"
"ssfOUT_60_12_1_BADGER.30",15.203614182172,-1637.32816639998,1667.73539476433,"ssf","mf.ss","gamma","unif",500,"ssfOUT_60_12_1_BADGER","BADGER",1,0.0833333333333333,60,"no effect"
"ssfOUT_60_12_1_BADGER.31",15.3816455838233,-3303.16595844021,3333.92924960785,"ssf","mf.ss","exp","vonmises",5,"ssfOUT_60_12_1_BADGER","BADGER",1,0.0833333333333333,60,"no effect"
"ssfOUT_60_12_1_BADGER.32",16.2993917106744,-3517.67676728657,3550.27555070792,"ssf","mf.ss","exp","vonmises",15,"ssfOUT_60_12_1_BADGER","BADGER",1,0.0833333333333333,60,"no effect"
"ssfOUT_60_12_1_BADGER.33",16.2512047066276,-2935.66985320217,2968.17226261543,"ssf","mf.ss","exp","vonmises",50,"ssfOUT_60_12_1_BADGER","BADGER",1,0.0833333333333333,60,"no effect"
"ssfOUT_60_12_1_BADGER.34",15.1998083381701,-1932.98571751367,1963.38533419001,"ssf","mf.ss","exp","vonmises",158,"ssfOUT_60_12_1_BADGER","BADGER",1,0.0833333333333333,60,"no effect"
"ssfOUT_60_12_1_BADGER.35",15.195476296908,-1804.85081134367,1835.24176393749,"ssf","mf.ss","exp","vonmises",500,"ssfOUT_60_12_1_BADGER","BADGER",1,0.0833333333333333,60,"no effect"
"ssfOUT_60_12_1_BADGER.36",16.5283409100054,-2912.51440031218,2945.57108213219,"ssf","mf.ss","exp","unif",5,"ssfOUT_60_12_1_BADGER","BADGER",1,0.0833333333333333,60,"no effect"
"ssfOUT_60_12_1_BADGER.37",16.3025277685556,-2665.83545087921,2698.44050641632,"ssf","mf.ss","exp","unif",15,"ssfOUT_60_12_1_BADGER","BADGER",1,0.0833333333333333,60,"no effect"
"ssfOUT_60_12_1_BADGER.38",16.2138749985831,-2845.24711195311,2877.67486195028,"ssf","mf.ss","exp","unif",50,"ssfOUT_60_12_1_BADGER","BADGER",1,0.0833333333333333,60,"no effect"
"ssfOUT_60_12_1_BADGER.39",16.2055402426048,-2761.1000936486,2793.51117413381,"ssf","mf.ss","exp","unif",158,"ssfOUT_60_12_1_BADGER","BADGER",1,0.0833333333333333,60,"no effect"
"ssfOUT_60_12_1_BADGER.40",15.2107277722177,-1571.19290655852,1601.61436210296,"ssf","mf.ss","exp","unif",500,"ssfOUT_60_12_1_BADGER","BADGER",1,0.0833333333333333,60,"no effect"
"ssfOUT_60_12_1_VULTURE.1",17.9177775658882,-3592.5200771115,3628.35563224328,"ssf","mf.is","gamma","vonmises",5,"ssfOUT_60_12_1_VULTURE","VULTURE",1,0.0833333333333333,60,"no effect"
"ssfOUT_60_12_1_VULTURE.2",16.382101712034,-2618.51255568752,2651.27675911159,"ssf","mf.is","gamma","vonmises",15,"ssfOUT_60_12_1_VULTURE","VULTURE",1,0.0833333333333333,60,"no effect"
"ssfOUT_60_12_1_VULTURE.3",16.5269361486067,-2683.06194330674,2716.11581560395,"ssf","mf.is","gamma","vonmises",50,"ssfOUT_60_12_1_VULTURE","VULTURE",1,0.0833333333333333,60,"no effect"
"ssfOUT_60_12_1_VULTURE.4",16.5764352436814,-2447.88625697719,2481.03912746455,"ssf","mf.is","gamma","vonmises",158,"ssfOUT_60_12_1_VULTURE","VULTURE",1,0.0833333333333333,60,"no effect"
"ssfOUT_60_12_1_VULTURE.5",16.5437318997353,-2496.89777065407,2529.98523445354,"ssf","mf.is","gamma","vonmises",500,"ssfOUT_60_12_1_VULTURE","VULTURE",1,0.0833333333333333,60,"no effect"
"ssfOUT_60_12_1_VULTURE.6",16.5738148806366,-3161.26299381997,3194.41062358124,"ssf","mf.is","gamma","unif",5,"ssfOUT_60_12_1_VULTURE","VULTURE",1,0.0833333333333333,60,"no effect"
"ssfOUT_60_12_1_VULTURE.7",16.5499590932659,-2451.94419650114,2485.04411468767,"ssf","mf.is","gamma","unif",15,"ssfOUT_60_12_1_VULTURE","VULTURE",1,0.0833333333333333,60,"no effect"
"ssfOUT_60_12_1_VULTURE.8",16.4256618871674,-2546.08750777659,2578.93883155093,"ssf","mf.is","gamma","unif",50,"ssfOUT_60_12_1_VULTURE","VULTURE",1,0.0833333333333333,60,"no effect"
"ssfOUT_60_12_1_VULTURE.9",16.4958332291438,-2247.15074342267,2280.14240988096,"ssf","mf.is","gamma","unif",158,"ssfOUT_60_12_1_VULTURE","VULTURE",1,0.0833333333333333,60,"no effect"
"ssfOUT_60_12_1_VULTURE.10",16.4159395239046,-2432.7491784777,2465.58105752551,"ssf","mf.is","gamma","unif",500,"ssfOUT_60_12_1_VULTURE","VULTURE",1,0.0833333333333333,60,"no effect"
"ssfOUT_60_12_1_VULTURE.11",17.345332682839,-5119.34734439641,5154.03800976209,"ssf","mf.is","exp","vonmises",5,"ssfOUT_60_12_1_VULTURE","VULTURE",1,0.0833333333333333,60,"no effect"
"ssfOUT_60_12_1_VULTURE.12",17.7590934737154,-3649.13590979072,3684.65409673815,"ssf","mf.is","exp","vonmises",15,"ssfOUT_60_12_1_VULTURE","VULTURE",1,0.0833333333333333,60,"no effect"
"ssfOUT_60_12_1_VULTURE.13",16.5151636136155,-2400.70450479061,2433.73483201784,"ssf","mf.is","exp","vonmises",50,"ssfOUT_60_12_1_VULTURE","VULTURE",1,0.0833333333333333,60,"no effect"
"ssfOUT_60_12_1_VULTURE.14",16.463264138186,-2378.83386411618,2411.76039239255,"ssf","mf.is","exp","vonmises",158,"ssfOUT_60_12_1_VULTURE","VULTURE",1,0.0833333333333333,60,"no effect"
"ssfOUT_60_12_1_VULTURE.15",16.4572045553296,-2379.82346137673,2412.73787048739,"ssf","mf.is","exp","vonmises",500,"ssfOUT_60_12_1_VULTURE","VULTURE",1,0.0833333333333333,60,"no effect"
"ssfOUT_60_12_1_VULTURE.16",17.7501960460032,-4288.93796572877,4324.43835782078,"ssf","mf.is","exp","unif",5,"ssfOUT_60_12_1_VULTURE","VULTURE",1,0.0833333333333333,60,"no effect"
"ssfOUT_60_12_1_VULTURE.17",17.6217991858975,-3610.59122621309,3645.83482458488,"ssf","mf.is","exp","unif",15,"ssfOUT_60_12_1_VULTURE","VULTURE",1,0.0833333333333333,60,"no effect"
"ssfOUT_60_12_1_VULTURE.18",16.2184099634721,-2499.64603571772,2532.08285564467,"ssf","mf.is","exp","unif",50,"ssfOUT_60_12_1_VULTURE","VULTURE",1,0.0833333333333333,60,"no effect"
"ssfOUT_60_12_1_VULTURE.19",16.4501607143187,-2406.06001371398,2438.96033514262,"ssf","mf.is","exp","unif",158,"ssfOUT_60_12_1_VULTURE","VULTURE",1,0.0833333333333333,60,"no effect"
"ssfOUT_60_12_1_VULTURE.20",16.3928710120839,-2359.41767534507,2392.20341736924,"ssf","mf.is","exp","unif",500,"ssfOUT_60_12_1_VULTURE","VULTURE",1,0.0833333333333333,60,"no effect"
"ssfOUT_60_12_1_VULTURE.21",17.4952534601214,-3562.0121254178,3597.00263233804,"ssf","mf.ss","gamma","vonmises",5,"ssfOUT_60_12_1_VULTURE","VULTURE",1,0.0833333333333333,60,"no effect"
"ssfOUT_60_12_1_VULTURE.22",16.2701118174149,-2720.08940205725,2752.62962569208,"ssf","mf.ss","gamma","vonmises",15,"ssfOUT_60_12_1_VULTURE","VULTURE",1,0.0833333333333333,60,"no effect"
"ssfOUT_60_12_1_VULTURE.23",16.2611241847921,-2637.72303215874,2670.24528052833,"ssf","mf.ss","gamma","vonmises",50,"ssfOUT_60_12_1_VULTURE","VULTURE",1,0.0833333333333333,60,"no effect"
"ssfOUT_60_12_1_VULTURE.24",16.2650847400391,-2405.17553114971,2437.70570062979,"ssf","mf.ss","gamma","vonmises",158,"ssfOUT_60_12_1_VULTURE","VULTURE",1,0.0833333333333333,60,"no effect"
"ssfOUT_60_12_1_VULTURE.25",16.247876659284,-2502.31630488516,2534.81205820373,"ssf","mf.ss","gamma","vonmises",500,"ssfOUT_60_12_1_VULTURE","VULTURE",1,0.0833333333333333,60,"no effect"
"ssfOUT_60_12_1_VULTURE.26",16.4365673879606,-2913.55144481905,2946.42457959497,"ssf","mf.ss","gamma","unif",5,"ssfOUT_60_12_1_VULTURE","VULTURE",1,0.0833333333333333,60,"no effect"
"ssfOUT_60_12_1_VULTURE.27",16.4152229700699,-2420.58793798057,2453.41838392071,"ssf","mf.ss","gamma","unif",15,"ssfOUT_60_12_1_VULTURE","VULTURE",1,0.0833333333333333,60,"no effect"
"ssfOUT_60_12_1_VULTURE.28",16.3214386005023,-2490.34575004985,2522.98862725086,"ssf","mf.ss","gamma","unif",50,"ssfOUT_60_12_1_VULTURE","VULTURE",1,0.0833333333333333,60,"no effect"
"ssfOUT_60_12_1_VULTURE.29",16.3158429215974,-2227.95899985075,2260.59068569394,"ssf","mf.ss","gamma","unif",158,"ssfOUT_60_12_1_VULTURE","VULTURE",1,0.0833333333333333,60,"no effect"
"ssfOUT_60_12_1_VULTURE.30",16.2713747144924,-2416.54593549199,2449.08868492098,"ssf","mf.ss","gamma","unif",500,"ssfOUT_60_12_1_VULTURE","VULTURE",1,0.0833333333333333,60,"no effect"
"ssfOUT_60_12_1_VULTURE.31",18.1663347321566,-4637.48671414718,4673.81938361149,"ssf","mf.ss","exp","vonmises",5,"ssfOUT_60_12_1_VULTURE","VULTURE",1,0.0833333333333333,60,"no effect"
"ssfOUT_60_12_1_VULTURE.32",17.3444823078188,-3695.75193532765,3730.44089994329,"ssf","mf.ss","exp","vonmises",15,"ssfOUT_60_12_1_VULTURE","VULTURE",1,0.0833333333333333,60,"no effect"
"ssfOUT_60_12_1_VULTURE.33",16.2888050245274,-2389.73021518139,2422.30782523045,"ssf","mf.ss","exp","vonmises",50,"ssfOUT_60_12_1_VULTURE","VULTURE",1,0.0833333333333333,60,"no effect"
"ssfOUT_60_12_1_VULTURE.34",16.2852887136898,-2416.48744126758,2449.05801869496,"ssf","mf.ss","exp","vonmises",158,"ssfOUT_60_12_1_VULTURE","VULTURE",1,0.0833333333333333,60,"no effect"
"ssfOUT_60_12_1_VULTURE.35",16.2584617200116,-2414.1752522074,2446.69217564743,"ssf","mf.ss","exp","vonmises",500,"ssfOUT_60_12_1_VULTURE","VULTURE",1,0.0833333333333333,60,"no effect"
"ssfOUT_60_12_1_VULTURE.36",17.4621567780203,-4504.05779440872,4538.98210796476,"ssf","mf.ss","exp","unif",5,"ssfOUT_60_12_1_VULTURE","VULTURE",1,0.0833333333333333,60,"no effect"
"ssfOUT_60_12_1_VULTURE.37",17.3693225357246,-3583.26014975839,3617.99879482983,"ssf","mf.ss","exp","unif",15,"ssfOUT_60_12_1_VULTURE","VULTURE",1,0.0833333333333333,60,"no effect"
"ssfOUT_60_12_1_VULTURE.38",16.2790151995348,-2478.3614453747,2510.91947577377,"ssf","mf.ss","exp","unif",50,"ssfOUT_60_12_1_VULTURE","VULTURE",1,0.0833333333333333,60,"no effect"
"ssfOUT_60_12_1_VULTURE.39",16.2868736040692,-2299.88462623344,2332.45837344157,"ssf","mf.ss","exp","unif",158,"ssfOUT_60_12_1_VULTURE","VULTURE",1,0.0833333333333333,60,"no effect"
"ssfOUT_60_12_1_VULTURE.40",16.2703183329171,-2334.40581743414,2366.94645409998,"ssf","mf.ss","exp","unif",500,"ssfOUT_60_12_1_VULTURE","VULTURE",1,0.0833333333333333,60,"no effect"
"ssfOUT_60_12_1_KINGCOBRA.1",0.29352005847174,-0.868882867403785,1.45592298434726,"ssf","mf.is","gamma","vonmises",5,"ssfOUT_60_12_1_KINGCOBRA","KINGCOBRA",1,0.0833333333333333,60,"no effect"
"ssfOUT_60_12_1_KINGCOBRA.2",-0.902482390845189,-2.15160239173574,0.346637610045361,"ssf","mf.is","gamma","vonmises",15,"ssfOUT_60_12_1_KINGCOBRA","KINGCOBRA",1,0.0833333333333333,60,"no effect"
"ssfOUT_60_12_1_KINGCOBRA.3",-0.248683711660783,-1.3207650871124,0.823397663790838,"ssf","mf.is","gamma","vonmises",50,"ssfOUT_60_12_1_KINGCOBRA","KINGCOBRA",1,0.0833333333333333,60,"no effect"
"ssfOUT_60_12_1_KINGCOBRA.4",0.479258932677742,-0.580396098875566,1.53891396423105,"ssf","mf.is","gamma","vonmises",158,"ssfOUT_60_12_1_KINGCOBRA","KINGCOBRA",1,0.0833333333333333,60,"no effect"
"ssfOUT_60_12_1_KINGCOBRA.5",0.353988273975027,-0.695331097825362,1.40330764577542,"ssf","mf.is","gamma","vonmises",500,"ssfOUT_60_12_1_KINGCOBRA","KINGCOBRA",1,0.0833333333333333,60,"no effect"
"ssfOUT_60_12_1_KINGCOBRA.6",0.203231777646811,-1.01198982267208,1.4184533779657,"ssf","mf.is","gamma","unif",5,"ssfOUT_60_12_1_KINGCOBRA","KINGCOBRA",1,0.0833333333333333,60,"no effect"
"ssfOUT_60_12_1_KINGCOBRA.7",0.644010892159765,-0.442550008245345,1.73057179256487,"ssf","mf.is","gamma","unif",15,"ssfOUT_60_12_1_KINGCOBRA","KINGCOBRA",1,0.0833333333333333,60,"no effect"
"ssfOUT_60_12_1_KINGCOBRA.8",0.347779041642557,-0.691355868804476,1.38691395208959,"ssf","mf.is","gamma","unif",50,"ssfOUT_60_12_1_KINGCOBRA","KINGCOBRA",1,0.0833333333333333,60,"no effect"
"ssfOUT_60_12_1_KINGCOBRA.9",0.391627413430346,-0.67727867008994,1.46053349695063,"ssf","mf.is","gamma","unif",158,"ssfOUT_60_12_1_KINGCOBRA","KINGCOBRA",1,0.0833333333333333,60,"no effect"
"ssfOUT_60_12_1_KINGCOBRA.10",0.411297536834713,-0.635230174096695,1.45782524776612,"ssf","mf.is","gamma","unif",500,"ssfOUT_60_12_1_KINGCOBRA","KINGCOBRA",1,0.0833333333333333,60,"no effect"
"ssfOUT_60_12_1_KINGCOBRA.11",-0.501736616617394,-1.84841323231844,0.844939999083648,"ssf","mf.is","exp","vonmises",5,"ssfOUT_60_12_1_KINGCOBRA","KINGCOBRA",1,0.0833333333333333,60,"no effect"
"ssfOUT_60_12_1_KINGCOBRA.12",-1.00075208441932,-2.23809247786162,0.236588309022968,"ssf","mf.is","exp","vonmises",15,"ssfOUT_60_12_1_KINGCOBRA","KINGCOBRA",1,0.0833333333333333,60,"no effect"
"ssfOUT_60_12_1_KINGCOBRA.13",0.169112871616331,-0.90537099165066,1.24359673488332,"ssf","mf.is","exp","vonmises",50,"ssfOUT_60_12_1_KINGCOBRA","KINGCOBRA",1,0.0833333333333333,60,"no effect"
"ssfOUT_60_12_1_KINGCOBRA.14",0.24219259746003,-0.848469155936099,1.33285435085616,"ssf","mf.is","exp","vonmises",158,"ssfOUT_60_12_1_KINGCOBRA","KINGCOBRA",1,0.0833333333333333,60,"no effect"
"ssfOUT_60_12_1_KINGCOBRA.15",0.392639011051707,-0.65404745447313,1.43932547657654,"ssf","mf.is","exp","vonmises",500,"ssfOUT_60_12_1_KINGCOBRA","KINGCOBRA",1,0.0833333333333333,60,"no effect"
"ssfOUT_60_12_1_KINGCOBRA.16",-0.333573577143674,-1.5180975018219,0.850950347534553,"ssf","mf.is","exp","unif",5,"ssfOUT_60_12_1_KINGCOBRA","KINGCOBRA",1,0.0833333333333333,60,"no effect"
"ssfOUT_60_12_1_KINGCOBRA.17",0.0746929064941593,-1.06012077231798,1.2095065853063,"ssf","mf.is","exp","unif",15,"ssfOUT_60_12_1_KINGCOBRA","KINGCOBRA",1,0.0833333333333333,60,"no effect"
"ssfOUT_60_12_1_KINGCOBRA.18",-0.340701993502145,-1.37560807179969,0.694204084795395,"ssf","mf.is","exp","unif",50,"ssfOUT_60_12_1_KINGCOBRA","KINGCOBRA",1,0.0833333333333333,60,"no effect"
"ssfOUT_60_12_1_KINGCOBRA.19",0.210904024572312,-0.826913589157479,1.2487216383021,"ssf","mf.is","exp","unif",158,"ssfOUT_60_12_1_KINGCOBRA","KINGCOBRA",1,0.0833333333333333,60,"no effect"
"ssfOUT_60_12_1_KINGCOBRA.20",0.353925269840804,-0.689082139591202,1.39693267927281,"ssf","mf.is","exp","unif",500,"ssfOUT_60_12_1_KINGCOBRA","KINGCOBRA",1,0.0833333333333333,60,"no effect"
"ssfOUT_60_12_1_KINGCOBRA.21",0.269651814011551,-0.869896636370037,1.40920026439314,"ssf","mf.ss","gamma","vonmises",5,"ssfOUT_60_12_1_KINGCOBRA","KINGCOBRA",1,0.0833333333333333,60,"no effect"
"ssfOUT_60_12_1_KINGCOBRA.22",-0.390859756255687,-1.5593523573422,0.777632844830828,"ssf","mf.ss","gamma","vonmises",15,"ssfOUT_60_12_1_KINGCOBRA","KINGCOBRA",1,0.0833333333333333,60,"no effect"
"ssfOUT_60_12_1_KINGCOBRA.23",-0.136203521926501,-1.18955395242426,0.91714690857126,"ssf","mf.ss","gamma","vonmises",50,"ssfOUT_60_12_1_KINGCOBRA","KINGCOBRA",1,0.0833333333333333,60,"no effect"
"ssfOUT_60_12_1_KINGCOBRA.24",0.296729120417196,-0.767728702111096,1.36118694294549,"ssf","mf.ss","gamma","vonmises",158,"ssfOUT_60_12_1_KINGCOBRA","KINGCOBRA",1,0.0833333333333333,60,"no effect"
"ssfOUT_60_12_1_KINGCOBRA.25",0.230378523267073,-0.818862400626172,1.27961944716032,"ssf","mf.ss","gamma","vonmises",500,"ssfOUT_60_12_1_KINGCOBRA","KINGCOBRA",1,0.0833333333333333,60,"no effect"
"ssfOUT_60_12_1_KINGCOBRA.26",0.0695817321498936,-1.12260096186922,1.261764426169,"ssf","mf.ss","gamma","unif",5,"ssfOUT_60_12_1_KINGCOBRA","KINGCOBRA",1,0.0833333333333333,60,"no effect"
"ssfOUT_60_12_1_KINGCOBRA.27",0.756681833779823,-0.317849333698833,1.83121300125848,"ssf","mf.ss","gamma","unif",15,"ssfOUT_60_12_1_KINGCOBRA","KINGCOBRA",1,0.0833333333333333,60,"no effect"
"ssfOUT_60_12_1_KINGCOBRA.28",0.401066897445089,-0.62810300335682,1.430236798247,"ssf","mf.ss","gamma","unif",50,"ssfOUT_60_12_1_KINGCOBRA","KINGCOBRA",1,0.0833333333333333,60,"no effect"
"ssfOUT_60_12_1_KINGCOBRA.29",0.325809798807233,-0.736430544432391,1.38805014204686,"ssf","mf.ss","gamma","unif",158,"ssfOUT_60_12_1_KINGCOBRA","KINGCOBRA",1,0.0833333333333333,60,"no effect"
"ssfOUT_60_12_1_KINGCOBRA.30",0.329158793886701,-0.716841919185198,1.3751595069586,"ssf","mf.ss","gamma","unif",500,"ssfOUT_60_12_1_KINGCOBRA","KINGCOBRA",1,0.0833333333333333,60,"no effect"
"ssfOUT_60_12_1_KINGCOBRA.31",-0.249039881743821,-1.41071187596102,0.912632112473379,"ssf","mf.ss","exp","vonmises",5,"ssfOUT_60_12_1_KINGCOBRA","KINGCOBRA",1,0.0833333333333333,60,"no effect"
"ssfOUT_60_12_1_KINGCOBRA.32",-0.420000479257753,-1.52469813983744,0.684697181321938,"ssf","mf.ss","exp","vonmises",15,"ssfOUT_60_12_1_KINGCOBRA","KINGCOBRA",1,0.0833333333333333,60,"no effect"
"ssfOUT_60_12_1_KINGCOBRA.33",-0.0190772165532137,-1.04836193301573,1.01020749990931,"ssf","mf.ss","exp","vonmises",50,"ssfOUT_60_12_1_KINGCOBRA","KINGCOBRA",1,0.0833333333333333,60,"no effect"
"ssfOUT_60_12_1_KINGCOBRA.34",-0.132874289857521,-1.14919488468996,0.883446304974923,"ssf","mf.ss","exp","vonmises",158,"ssfOUT_60_12_1_KINGCOBRA","KINGCOBRA",1,0.0833333333333333,60,"no effect"
"ssfOUT_60_12_1_KINGCOBRA.35",-0.0741086135167031,-1.0882184917854,0.940001264751994,"ssf","mf.ss","exp","vonmises",500,"ssfOUT_60_12_1_KINGCOBRA","KINGCOBRA",1,0.0833333333333333,60,"no effect"
"ssfOUT_60_12_1_KINGCOBRA.36",-0.2264909934135,-1.38476411425642,0.931782127429416,"ssf","mf.ss","exp","unif",5,"ssfOUT_60_12_1_KINGCOBRA","KINGCOBRA",1,0.0833333333333333,60,"no effect"
"ssfOUT_60_12_1_KINGCOBRA.37",-0.451111617465203,-1.52512453591682,0.622901300986411,"ssf","mf.ss","exp","unif",15,"ssfOUT_60_12_1_KINGCOBRA","KINGCOBRA",1,0.0833333333333333,60,"no effect"
"ssfOUT_60_12_1_KINGCOBRA.38",-0.140836361102585,-1.16726656498558,0.885593842780413,"ssf","mf.ss","exp","unif",50,"ssfOUT_60_12_1_KINGCOBRA","KINGCOBRA",1,0.0833333333333333,60,"no effect"
"ssfOUT_60_12_1_KINGCOBRA.39",0.12194225651051,-0.899494741790121,1.14337925481114,"ssf","mf.ss","exp","unif",158,"ssfOUT_60_12_1_KINGCOBRA","KINGCOBRA",1,0.0833333333333333,60,"no effect"
"ssfOUT_60_12_1_KINGCOBRA.40",0.0908073657773631,-0.93536102226874,1.11697575382347,"ssf","mf.ss","exp","unif",500,"ssfOUT_60_12_1_KINGCOBRA","KINGCOBRA",1,0.0833333333333333,60,"no effect"
"ssfOUT_60_12_2_BADGER.1",0.952189082466781,-0.175678244128944,2.08005640906251,"ssf","mf.is","gamma","vonmises",5,"ssfOUT_60_12_2_BADGER","BADGER",2,0.0833333333333333,60,"no effect"
"ssfOUT_60_12_2_BADGER.2",1.34821574007373,0.293390533103912,2.40304094704354,"ssf","mf.is","gamma","vonmises",15,"ssfOUT_60_12_2_BADGER","BADGER",2,0.0833333333333333,60,"preference"
"ssfOUT_60_12_2_BADGER.3",1.65372214336987,0.628512299010533,2.67893198772921,"ssf","mf.is","gamma","vonmises",50,"ssfOUT_60_12_2_BADGER","BADGER",2,0.0833333333333333,60,"preference"
"ssfOUT_60_12_2_BADGER.4",1.53039209342483,0.511004934336724,2.54977925251294,"ssf","mf.is","gamma","vonmises",158,"ssfOUT_60_12_2_BADGER","BADGER",2,0.0833333333333333,60,"preference"
"ssfOUT_60_12_2_BADGER.5",1.48259931715579,0.468263892440056,2.49693474187153,"ssf","mf.is","gamma","vonmises",500,"ssfOUT_60_12_2_BADGER","BADGER",2,0.0833333333333333,60,"preference"
"ssfOUT_60_12_2_BADGER.6",1.59761029490707,0.556307097680592,2.63891349213355,"ssf","mf.is","gamma","unif",5,"ssfOUT_60_12_2_BADGER","BADGER",2,0.0833333333333333,60,"preference"
"ssfOUT_60_12_2_BADGER.7",1.05180756168173,0.00515431129902222,2.09846081206444,"ssf","mf.is","gamma","unif",15,"ssfOUT_60_12_2_BADGER","BADGER",2,0.0833333333333333,60,"preference"
"ssfOUT_60_12_2_BADGER.8",1.53112809995195,0.509044010185815,2.55321218971808,"ssf","mf.is","gamma","unif",50,"ssfOUT_60_12_2_BADGER","BADGER",2,0.0833333333333333,60,"preference"
"ssfOUT_60_12_2_BADGER.9",1.59937842526488,0.582641412523943,2.61611543800581,"ssf","mf.is","gamma","unif",158,"ssfOUT_60_12_2_BADGER","BADGER",2,0.0833333333333333,60,"preference"
"ssfOUT_60_12_2_BADGER.10",1.58595264100366,0.570662311487574,2.60124297051975,"ssf","mf.is","gamma","unif",500,"ssfOUT_60_12_2_BADGER","BADGER",2,0.0833333333333333,60,"preference"
"ssfOUT_60_12_2_BADGER.11",0.989325749833645,-0.119169823242063,2.09782132290935,"ssf","mf.is","exp","vonmises",5,"ssfOUT_60_12_2_BADGER","BADGER",2,0.0833333333333333,60,"no effect"
"ssfOUT_60_12_2_BADGER.12",1.32982739185342,0.269088580315392,2.39056620339145,"ssf","mf.is","exp","vonmises",15,"ssfOUT_60_12_2_BADGER","BADGER",2,0.0833333333333333,60,"preference"
"ssfOUT_60_12_2_BADGER.13",1.41909019084858,0.393944238275206,2.44423614342196,"ssf","mf.is","exp","vonmises",50,"ssfOUT_60_12_2_BADGER","BADGER",2,0.0833333333333333,60,"preference"
"ssfOUT_60_12_2_BADGER.14",1.65793476942422,0.638792510212151,2.67707702863629,"ssf","mf.is","exp","vonmises",158,"ssfOUT_60_12_2_BADGER","BADGER",2,0.0833333333333333,60,"preference"
"ssfOUT_60_12_2_BADGER.15",1.57844573943734,0.563683925841281,2.59320755303341,"ssf","mf.is","exp","vonmises",500,"ssfOUT_60_12_2_BADGER","BADGER",2,0.0833333333333333,60,"preference"
"ssfOUT_60_12_2_BADGER.16",1.66514050460983,0.607419152088074,2.72286185713159,"ssf","mf.is","exp","unif",5,"ssfOUT_60_12_2_BADGER","BADGER",2,0.0833333333333333,60,"preference"
"ssfOUT_60_12_2_BADGER.17",1.44814922187268,0.414343269992874,2.48195517375249,"ssf","mf.is","exp","unif",15,"ssfOUT_60_12_2_BADGER","BADGER",2,0.0833333333333333,60,"preference"
"ssfOUT_60_12_2_BADGER.18",1.51665507126938,0.497179333377772,2.53613080916099,"ssf","mf.is","exp","unif",50,"ssfOUT_60_12_2_BADGER","BADGER",2,0.0833333333333333,60,"preference"
"ssfOUT_60_12_2_BADGER.19",1.60977100818187,0.589087785083775,2.63045423127995,"ssf","mf.is","exp","unif",158,"ssfOUT_60_12_2_BADGER","BADGER",2,0.0833333333333333,60,"preference"
"ssfOUT_60_12_2_BADGER.20",1.60896454743632,0.59335506312347,2.62457403174917,"ssf","mf.is","exp","unif",500,"ssfOUT_60_12_2_BADGER","BADGER",2,0.0833333333333333,60,"preference"
"ssfOUT_60_12_2_BADGER.21",0.788170806858084,-0.276383032533705,1.85272464624987,"ssf","mf.ss","gamma","vonmises",5,"ssfOUT_60_12_2_BADGER","BADGER",2,0.0833333333333333,60,"no effect"
"ssfOUT_60_12_2_BADGER.22",1.2377516283328,0.204792256678407,2.27071099998719,"ssf","mf.ss","gamma","vonmises",15,"ssfOUT_60_12_2_BADGER","BADGER",2,0.0833333333333333,60,"preference"
"ssfOUT_60_12_2_BADGER.23",1.30130254694302,0.283918604131735,2.31868648975431,"ssf","mf.ss","gamma","vonmises",50,"ssfOUT_60_12_2_BADGER","BADGER",2,0.0833333333333333,60,"preference"
"ssfOUT_60_12_2_BADGER.24",1.23148900450284,0.209213391616959,2.25376461738871,"ssf","mf.ss","gamma","vonmises",158,"ssfOUT_60_12_2_BADGER","BADGER",2,0.0833333333333333,60,"preference"
"ssfOUT_60_12_2_BADGER.25",1.27041773484202,0.252645054540528,2.28819041514352,"ssf","mf.ss","gamma","vonmises",500,"ssfOUT_60_12_2_BADGER","BADGER",2,0.0833333333333333,60,"preference"
"ssfOUT_60_12_2_BADGER.26",1.61006280751552,0.573779103473194,2.64634651155784,"ssf","mf.ss","gamma","unif",5,"ssfOUT_60_12_2_BADGER","BADGER",2,0.0833333333333333,60,"preference"
"ssfOUT_60_12_2_BADGER.27",1.17484665902743,0.141639923598267,2.2080533944566,"ssf","mf.ss","gamma","unif",15,"ssfOUT_60_12_2_BADGER","BADGER",2,0.0833333333333333,60,"preference"
"ssfOUT_60_12_2_BADGER.28",1.4275620351891,0.407875352240054,2.44724871813815,"ssf","mf.ss","gamma","unif",50,"ssfOUT_60_12_2_BADGER","BADGER",2,0.0833333333333333,60,"preference"
"ssfOUT_60_12_2_BADGER.29",1.40599800004816,0.391199622648199,2.42079637744812,"ssf","mf.ss","gamma","unif",158,"ssfOUT_60_12_2_BADGER","BADGER",2,0.0833333333333333,60,"preference"
"ssfOUT_60_12_2_BADGER.30",1.40673828399435,0.392414341253962,2.42106222673475,"ssf","mf.ss","gamma","unif",500,"ssfOUT_60_12_2_BADGER","BADGER",2,0.0833333333333333,60,"preference"
"ssfOUT_60_12_2_BADGER.31",1.2210137435947,0.175669280875673,2.26635820631372,"ssf","mf.ss","exp","vonmises",5,"ssfOUT_60_12_2_BADGER","BADGER",2,0.0833333333333333,60,"preference"
"ssfOUT_60_12_2_BADGER.32",1.05770592166573,0.0245839307462428,2.09082791258521,"ssf","mf.ss","exp","vonmises",15,"ssfOUT_60_12_2_BADGER","BADGER",2,0.0833333333333333,60,"preference"
"ssfOUT_60_12_2_BADGER.33",1.19239365880832,0.172580425764884,2.21220689185176,"ssf","mf.ss","exp","vonmises",50,"ssfOUT_60_12_2_BADGER","BADGER",2,0.0833333333333333,60,"preference"
"ssfOUT_60_12_2_BADGER.34",1.2864776699236,0.259646064331876,2.31330927551533,"ssf","mf.ss","exp","vonmises",158,"ssfOUT_60_12_2_BADGER","BADGER",2,0.0833333333333333,60,"preference"
"ssfOUT_60_12_2_BADGER.35",1.28367002692834,0.263981329289249,2.30335872456744,"ssf","mf.ss","exp","vonmises",500,"ssfOUT_60_12_2_BADGER","BADGER",2,0.0833333333333333,60,"preference"
"ssfOUT_60_12_2_BADGER.36",1.55571576137753,0.513740244816658,2.5976912779384,"ssf","mf.ss","exp","unif",5,"ssfOUT_60_12_2_BADGER","BADGER",2,0.0833333333333333,60,"preference"
"ssfOUT_60_12_2_BADGER.37",1.34170396817192,0.315849479426572,2.36755845691726,"ssf","mf.ss","exp","unif",15,"ssfOUT_60_12_2_BADGER","BADGER",2,0.0833333333333333,60,"preference"
"ssfOUT_60_12_2_BADGER.38",1.26306681315686,0.247149053927526,2.2789845723862,"ssf","mf.ss","exp","unif",50,"ssfOUT_60_12_2_BADGER","BADGER",2,0.0833333333333333,60,"preference"
"ssfOUT_60_12_2_BADGER.39",1.42258803887141,0.403293834860798,2.44188224288202,"ssf","mf.ss","exp","unif",158,"ssfOUT_60_12_2_BADGER","BADGER",2,0.0833333333333333,60,"preference"
"ssfOUT_60_12_2_BADGER.40",1.41675012168608,0.401286290504949,2.43221395286721,"ssf","mf.ss","exp","unif",500,"ssfOUT_60_12_2_BADGER","BADGER",2,0.0833333333333333,60,"preference"
"ssfOUT_60_12_2_VULTURE.1",17.0157167091879,-4658.56292687711,4692.59436029548,"ssf","mf.is","gamma","vonmises",5,"ssfOUT_60_12_2_VULTURE","VULTURE",2,0.0833333333333333,60,"no effect"
"ssfOUT_60_12_2_VULTURE.2",16.9176035435059,-3890.4200259854,3924.25523307241,"ssf","mf.is","gamma","vonmises",15,"ssfOUT_60_12_2_VULTURE","VULTURE",2,0.0833333333333333,60,"no effect"
"ssfOUT_60_12_2_VULTURE.3",17.2284391130036,-3327.07584258166,3361.53272080767,"ssf","mf.is","gamma","vonmises",50,"ssfOUT_60_12_2_VULTURE","VULTURE",2,0.0833333333333333,60,"no effect"
"ssfOUT_60_12_2_VULTURE.4",16.0522996419679,-1873.73900778403,1905.84360706796,"ssf","mf.is","gamma","vonmises",158,"ssfOUT_60_12_2_VULTURE","VULTURE",2,0.0833333333333333,60,"no effect"
"ssfOUT_60_12_2_VULTURE.5",16.2434865886175,-1860.03198650554,1892.51895968277,"ssf","mf.is","gamma","vonmises",500,"ssfOUT_60_12_2_VULTURE","VULTURE",2,0.0833333333333333,60,"no effect"
"ssfOUT_60_12_2_VULTURE.6",18.7193986288014,-4703.91059510037,4741.34939235797,"ssf","mf.is","gamma","unif",5,"ssfOUT_60_12_2_VULTURE","VULTURE",2,0.0833333333333333,60,"no effect"
"ssfOUT_60_12_2_VULTURE.7",17.1513037229872,-3023.63615691225,3057.93876435823,"ssf","mf.is","gamma","unif",15,"ssfOUT_60_12_2_VULTURE","VULTURE",2,0.0833333333333333,60,"no effect"
"ssfOUT_60_12_2_VULTURE.8",17.2269108848415,-2969.93834380214,3004.39216557182,"ssf","mf.is","gamma","unif",50,"ssfOUT_60_12_2_VULTURE","VULTURE",2,0.0833333333333333,60,"no effect"
"ssfOUT_60_12_2_VULTURE.9",16.1621389804509,-1833.94584371943,1866.27012168033,"ssf","mf.is","gamma","unif",158,"ssfOUT_60_12_2_VULTURE","VULTURE",2,0.0833333333333333,60,"no effect"
"ssfOUT_60_12_2_VULTURE.10",16.1399873551704,-1791.23170817857,1823.51168288891,"ssf","mf.is","gamma","unif",500,"ssfOUT_60_12_2_VULTURE","VULTURE",2,0.0833333333333333,60,"no effect"
"ssfOUT_60_12_2_VULTURE.11",17.502155841541,-3869.08407208468,3904.08838376776,"ssf","mf.is","exp","vonmises",5,"ssfOUT_60_12_2_VULTURE","VULTURE",2,0.0833333333333333,60,"no effect"
"ssfOUT_60_12_2_VULTURE.12",17.0029884956799,-3219.55400134283,3253.55997833419,"ssf","mf.is","exp","vonmises",15,"ssfOUT_60_12_2_VULTURE","VULTURE",2,0.0833333333333333,60,"no effect"
"ssfOUT_60_12_2_VULTURE.13",17.1776843225345,-3492.22166889755,3526.57703754262,"ssf","mf.is","exp","vonmises",50,"ssfOUT_60_12_2_VULTURE","VULTURE",2,0.0833333333333333,60,"no effect"
"ssfOUT_60_12_2_VULTURE.14",17.1478220694017,-3091.7322572794,3126.0279014182,"ssf","mf.is","exp","vonmises",158,"ssfOUT_60_12_2_VULTURE","VULTURE",2,0.0833333333333333,60,"no effect"
"ssfOUT_60_12_2_VULTURE.15",16.1882675141445,-1896.90944778799,1929.28598281628,"ssf","mf.is","exp","vonmises",500,"ssfOUT_60_12_2_VULTURE","VULTURE",2,0.0833333333333333,60,"no effect"
"ssfOUT_60_12_2_VULTURE.16",18.6435738914005,-4836.71670259306,4874.00385037586,"ssf","mf.is","exp","unif",5,"ssfOUT_60_12_2_VULTURE","VULTURE",2,0.0833333333333333,60,"no effect"
"ssfOUT_60_12_2_VULTURE.17",17.46447521031,-3381.59163750077,3416.52058792139,"ssf","mf.is","exp","unif",15,"ssfOUT_60_12_2_VULTURE","VULTURE",2,0.0833333333333333,60,"no effect"
"ssfOUT_60_12_2_VULTURE.18",17.2739459662069,-3088.55367291907,3123.10156485148,"ssf","mf.is","exp","unif",50,"ssfOUT_60_12_2_VULTURE","VULTURE",2,0.0833333333333333,60,"no effect"
"ssfOUT_60_12_2_VULTURE.19",16.1551340863711,-1813.73367565365,1846.0439438264,"ssf","mf.is","exp","unif",158,"ssfOUT_60_12_2_VULTURE","VULTURE",2,0.0833333333333333,60,"no effect"
"ssfOUT_60_12_2_VULTURE.20",16.1552342384413,-1858.32714982745,1890.63761830434,"ssf","mf.is","exp","unif",500,"ssfOUT_60_12_2_VULTURE","VULTURE",2,0.0833333333333333,60,"no effect"
"ssfOUT_60_12_2_VULTURE.21",17.4117817009722,-4551.61713767209,4586.44070107403,"ssf","mf.ss","gamma","vonmises",5,"ssfOUT_60_12_2_VULTURE","VULTURE",2,0.0833333333333333,60,"no effect"
"ssfOUT_60_12_2_VULTURE.22",17.223056573456,-3621.1548007142,3655.60091386111,"ssf","mf.ss","gamma","vonmises",15,"ssfOUT_60_12_2_VULTURE","VULTURE",2,0.0833333333333333,60,"no effect"
"ssfOUT_60_12_2_VULTURE.23",16.1019869978506,-1954.18341703036,1986.38739102606,"ssf","mf.ss","gamma","vonmises",50,"ssfOUT_60_12_2_VULTURE","VULTURE",2,0.0833333333333333,60,"no effect"
"ssfOUT_60_12_2_VULTURE.24",16.089815112816,-1824.92001325661,1857.09964348224,"ssf","mf.ss","gamma","vonmises",158,"ssfOUT_60_12_2_VULTURE","VULTURE",2,0.0833333333333333,60,"no effect"
"ssfOUT_60_12_2_VULTURE.25",16.0818267988093,-1875.76257243617,1907.92622603379,"ssf","mf.ss","gamma","vonmises",500,"ssfOUT_60_12_2_VULTURE","VULTURE",2,0.0833333333333333,60,"no effect"
"ssfOUT_60_12_2_VULTURE.26",17.4581053325838,-2882.5754560271,2917.49166669227,"ssf","mf.ss","gamma","unif",5,"ssfOUT_60_12_2_VULTURE","VULTURE",2,0.0833333333333333,60,"no effect"
"ssfOUT_60_12_2_VULTURE.27",17.1444478882945,-3017.3256354719,3051.61453124849,"ssf","mf.ss","gamma","unif",15,"ssfOUT_60_12_2_VULTURE","VULTURE",2,0.0833333333333333,60,"no effect"
"ssfOUT_60_12_2_VULTURE.28",17.1078578979357,-2957.19150997438,2991.40722577025,"ssf","mf.ss","gamma","unif",50,"ssfOUT_60_12_2_VULTURE","VULTURE",2,0.0833333333333333,60,"no effect"
"ssfOUT_60_12_2_VULTURE.29",16.1077214863124,-1827.81267247805,1860.02811545067,"ssf","mf.ss","gamma","unif",158,"ssfOUT_60_12_2_VULTURE","VULTURE",2,0.0833333333333333,60,"no effect"
"ssfOUT_60_12_2_VULTURE.30",16.0851472191865,-1787.31367651425,1819.48397095263,"ssf","mf.ss","gamma","unif",500,"ssfOUT_60_12_2_VULTURE","VULTURE",2,0.0833333333333333,60,"no effect"
"ssfOUT_60_12_2_VULTURE.31",17.3867683359628,-4010.47167357839,4045.24521025032,"ssf","mf.ss","exp","vonmises",5,"ssfOUT_60_12_2_VULTURE","VULTURE",2,0.0833333333333333,60,"no effect"
"ssfOUT_60_12_2_VULTURE.32",17.1780400632717,-3056.27152120096,3090.62760132751,"ssf","mf.ss","exp","vonmises",15,"ssfOUT_60_12_2_VULTURE","VULTURE",2,0.0833333333333333,60,"no effect"
"ssfOUT_60_12_2_VULTURE.33",16.1111304740948,-2011.51340064387,2043.73566159206,"ssf","mf.ss","exp","vonmises",50,"ssfOUT_60_12_2_VULTURE","VULTURE",2,0.0833333333333333,60,"no effect"
"ssfOUT_60_12_2_VULTURE.34",16.1146085054901,-1869.37317788476,1901.60239489574,"ssf","mf.ss","exp","vonmises",158,"ssfOUT_60_12_2_VULTURE","VULTURE",2,0.0833333333333333,60,"no effect"
"ssfOUT_60_12_2_VULTURE.35",16.0980474445899,-1884.83168236071,1917.02777724989,"ssf","mf.ss","exp","vonmises",500,"ssfOUT_60_12_2_VULTURE","VULTURE",2,0.0833333333333333,60,"no effect"
"ssfOUT_60_12_2_VULTURE.36",17.4820067895896,-3118.97619195041,3153.94020552959,"ssf","mf.ss","exp","unif",5,"ssfOUT_60_12_2_VULTURE","VULTURE",2,0.0833333333333333,60,"no effect"
"ssfOUT_60_12_2_VULTURE.37",17.1915455920515,-3349.15476339449,3383.53785457859,"ssf","mf.ss","exp","unif",15,"ssfOUT_60_12_2_VULTURE","VULTURE",2,0.0833333333333333,60,"no effect"
"ssfOUT_60_12_2_VULTURE.38",17.1234987809474,-3037.3351299397,3071.5821275016,"ssf","mf.ss","exp","unif",50,"ssfOUT_60_12_2_VULTURE","VULTURE",2,0.0833333333333333,60,"no effect"
"ssfOUT_60_12_2_VULTURE.39",16.0991167247011,-1795.42463533388,1827.62286878328,"ssf","mf.ss","exp","unif",158,"ssfOUT_60_12_2_VULTURE","VULTURE",2,0.0833333333333333,60,"no effect"
"ssfOUT_60_12_2_VULTURE.40",16.1022679346329,-1836.81171883796,1869.01625470723,"ssf","mf.ss","exp","unif",500,"ssfOUT_60_12_2_VULTURE","VULTURE",2,0.0833333333333333,60,"no effect"
"ssfOUT_60_12_2_KINGCOBRA.1",-0.46143052668043,-1.69994175595039,0.77708070258953,"ssf","mf.is","gamma","vonmises",5,"ssfOUT_60_12_2_KINGCOBRA","KINGCOBRA",2,0.0833333333333333,60,"no effect"
"ssfOUT_60_12_2_KINGCOBRA.2",0.370865190412528,-0.753132090803545,1.4948624716286,"ssf","mf.is","gamma","vonmises",15,"ssfOUT_60_12_2_KINGCOBRA","KINGCOBRA",2,0.0833333333333333,60,"no effect"
"ssfOUT_60_12_2_KINGCOBRA.3",0.88742686246741,-0.159480268830184,1.934333993765,"ssf","mf.is","gamma","vonmises",50,"ssfOUT_60_12_2_KINGCOBRA","KINGCOBRA",2,0.0833333333333333,60,"no effect"
"ssfOUT_60_12_2_KINGCOBRA.4",0.702111256865293,-0.344509569608312,1.7487320833389,"ssf","mf.is","gamma","vonmises",158,"ssfOUT_60_12_2_KINGCOBRA","KINGCOBRA",2,0.0833333333333333,60,"no effect"
"ssfOUT_60_12_2_KINGCOBRA.5",0.710395300570696,-0.345781704985835,1.76657230612723,"ssf","mf.is","gamma","vonmises",500,"ssfOUT_60_12_2_KINGCOBRA","KINGCOBRA",2,0.0833333333333333,60,"no effect"
"ssfOUT_60_12_2_KINGCOBRA.6",0.883636080364,-0.239362021751952,2.00663418247995,"ssf","mf.is","gamma","unif",5,"ssfOUT_60_12_2_KINGCOBRA","KINGCOBRA",2,0.0833333333333333,60,"no effect"
"ssfOUT_60_12_2_KINGCOBRA.7",0.756663058342609,-0.296808654545225,1.81013477123044,"ssf","mf.is","gamma","unif",15,"ssfOUT_60_12_2_KINGCOBRA","KINGCOBRA",2,0.0833333333333333,60,"no effect"
"ssfOUT_60_12_2_KINGCOBRA.8",0.540503904195417,-0.505213444903577,1.58622125329441,"ssf","mf.is","gamma","unif",50,"ssfOUT_60_12_2_KINGCOBRA","KINGCOBRA",2,0.0833333333333333,60,"no effect"
"ssfOUT_60_12_2_KINGCOBRA.9",0.690925310219269,-0.373251203386863,1.7551018238254,"ssf","mf.is","gamma","unif",158,"ssfOUT_60_12_2_KINGCOBRA","KINGCOBRA",2,0.0833333333333333,60,"no effect"
"ssfOUT_60_12_2_KINGCOBRA.10",0.622065231507544,-0.421134500700595,1.66526496371568,"ssf","mf.is","gamma","unif",500,"ssfOUT_60_12_2_KINGCOBRA","KINGCOBRA",2,0.0833333333333333,60,"no effect"
"ssfOUT_60_12_2_KINGCOBRA.11",1.18662842430768,-0.00778225474491934,2.38103910336027,"ssf","mf.is","exp","vonmises",5,"ssfOUT_60_12_2_KINGCOBRA","KINGCOBRA",2,0.0833333333333333,60,"no effect"
"ssfOUT_60_12_2_KINGCOBRA.12",0.618649916148907,-0.45401165018401,1.69131148248182,"ssf","mf.is","exp","vonmises",15,"ssfOUT_60_12_2_KINGCOBRA","KINGCOBRA",2,0.0833333333333333,60,"no effect"
"ssfOUT_60_12_2_KINGCOBRA.13",0.408855561061351,-0.629099629089687,1.44681075121239,"ssf","mf.is","exp","vonmises",50,"ssfOUT_60_12_2_KINGCOBRA","KINGCOBRA",2,0.0833333333333333,60,"no effect"
"ssfOUT_60_12_2_KINGCOBRA.14",0.727900642002785,-0.336328056047131,1.7921293400527,"ssf","mf.is","exp","vonmises",158,"ssfOUT_60_12_2_KINGCOBRA","KINGCOBRA",2,0.0833333333333333,60,"no effect"
"ssfOUT_60_12_2_KINGCOBRA.15",0.620380600412428,-0.425952623781844,1.6667138246067,"ssf","mf.is","exp","vonmises",500,"ssfOUT_60_12_2_KINGCOBRA","KINGCOBRA",2,0.0833333333333333,60,"no effect"
"ssfOUT_60_12_2_KINGCOBRA.16",0.325540320773408,-0.847152007925641,1.49823264947246,"ssf","mf.is","exp","unif",5,"ssfOUT_60_12_2_KINGCOBRA","KINGCOBRA",2,0.0833333333333333,60,"no effect"
"ssfOUT_60_12_2_KINGCOBRA.17",0.76676165117759,-0.267942091969896,1.80146539432508,"ssf","mf.is","exp","unif",15,"ssfOUT_60_12_2_KINGCOBRA","KINGCOBRA",2,0.0833333333333333,60,"no effect"
"ssfOUT_60_12_2_KINGCOBRA.18",0.659178910727946,-0.38889768792214,1.70725550937803,"ssf","mf.is","exp","unif",50,"ssfOUT_60_12_2_KINGCOBRA","KINGCOBRA",2,0.0833333333333333,60,"no effect"
"ssfOUT_60_12_2_KINGCOBRA.19",0.822839538435967,-0.261853244708067,1.90753232158,"ssf","mf.is","exp","unif",158,"ssfOUT_60_12_2_KINGCOBRA","KINGCOBRA",2,0.0833333333333333,60,"no effect"
"ssfOUT_60_12_2_KINGCOBRA.20",0.62729040811254,-0.413890082113191,1.66847089833827,"ssf","mf.is","exp","unif",500,"ssfOUT_60_12_2_KINGCOBRA","KINGCOBRA",2,0.0833333333333333,60,"no effect"
"ssfOUT_60_12_2_KINGCOBRA.21",0.24952502670902,-0.893480348684219,1.39253040210226,"ssf","mf.ss","gamma","vonmises",5,"ssfOUT_60_12_2_KINGCOBRA","KINGCOBRA",2,0.0833333333333333,60,"no effect"
"ssfOUT_60_12_2_KINGCOBRA.22",0.850219020048142,-0.20723456480793,1.90767260490421,"ssf","mf.ss","gamma","vonmises",15,"ssfOUT_60_12_2_KINGCOBRA","KINGCOBRA",2,0.0833333333333333,60,"no effect"
"ssfOUT_60_12_2_KINGCOBRA.23",0.824112997862718,-0.210006957356933,1.85823295308237,"ssf","mf.ss","gamma","vonmises",50,"ssfOUT_60_12_2_KINGCOBRA","KINGCOBRA",2,0.0833333333333333,60,"no effect"
"ssfOUT_60_12_2_KINGCOBRA.24",0.626078042269361,-0.412604061598912,1.66476014613763,"ssf","mf.ss","gamma","vonmises",158,"ssfOUT_60_12_2_KINGCOBRA","KINGCOBRA",2,0.0833333333333333,60,"no effect"
"ssfOUT_60_12_2_KINGCOBRA.25",0.710263622742438,-0.337235935790234,1.75776318127511,"ssf","mf.ss","gamma","vonmises",500,"ssfOUT_60_12_2_KINGCOBRA","KINGCOBRA",2,0.0833333333333333,60,"no effect"
"ssfOUT_60_12_2_KINGCOBRA.26",0.761031163733211,-0.379561757749338,1.90162408521576,"ssf","mf.ss","gamma","unif",5,"ssfOUT_60_12_2_KINGCOBRA","KINGCOBRA",2,0.0833333333333333,60,"no effect"
"ssfOUT_60_12_2_KINGCOBRA.27",0.698566369471122,-0.343534969777618,1.74066770871986,"ssf","mf.ss","gamma","unif",15,"ssfOUT_60_12_2_KINGCOBRA","KINGCOBRA",2,0.0833333333333333,60,"no effect"
"ssfOUT_60_12_2_KINGCOBRA.28",0.430764274181601,-0.610066014537543,1.47159456290074,"ssf","mf.ss","gamma","unif",50,"ssfOUT_60_12_2_KINGCOBRA","KINGCOBRA",2,0.0833333333333333,60,"no effect"
"ssfOUT_60_12_2_KINGCOBRA.29",0.69769021451702,-0.35754196463935,1.75292239367339,"ssf","mf.ss","gamma","unif",158,"ssfOUT_60_12_2_KINGCOBRA","KINGCOBRA",2,0.0833333333333333,60,"no effect"
"ssfOUT_60_12_2_KINGCOBRA.30",0.657216511435183,-0.381659465110822,1.69609248798119,"ssf","mf.ss","gamma","unif",500,"ssfOUT_60_12_2_KINGCOBRA","KINGCOBRA",2,0.0833333333333333,60,"no effect"
"ssfOUT_60_12_2_KINGCOBRA.31",1.05987119673177,-0.00265069307582788,2.12239308653937,"ssf","mf.ss","exp","vonmises",5,"ssfOUT_60_12_2_KINGCOBRA","KINGCOBRA",2,0.0833333333333333,60,"no effect"
"ssfOUT_60_12_2_KINGCOBRA.32",0.622070341984982,-0.41772223007172,1.66186291404168,"ssf","mf.ss","exp","vonmises",15,"ssfOUT_60_12_2_KINGCOBRA","KINGCOBRA",2,0.0833333333333333,60,"no effect"
"ssfOUT_60_12_2_KINGCOBRA.33",0.819149223098979,-0.200912057069047,1.83921050326701,"ssf","mf.ss","exp","vonmises",50,"ssfOUT_60_12_2_KINGCOBRA","KINGCOBRA",2,0.0833333333333333,60,"no effect"
"ssfOUT_60_12_2_KINGCOBRA.34",0.76315878979244,-0.252512617932358,1.77883019751724,"ssf","mf.ss","exp","vonmises",158,"ssfOUT_60_12_2_KINGCOBRA","KINGCOBRA",2,0.0833333333333333,60,"no effect"
"ssfOUT_60_12_2_KINGCOBRA.35",0.806349431406462,-0.206134595485402,1.81883345829833,"ssf","mf.ss","exp","vonmises",500,"ssfOUT_60_12_2_KINGCOBRA","KINGCOBRA",2,0.0833333333333333,60,"no effect"
"ssfOUT_60_12_2_KINGCOBRA.36",0.346202801728097,-0.797497275959227,1.48990287941542,"ssf","mf.ss","exp","unif",5,"ssfOUT_60_12_2_KINGCOBRA","KINGCOBRA",2,0.0833333333333333,60,"no effect"
"ssfOUT_60_12_2_KINGCOBRA.37",1.17008426281321,0.144793896663863,2.19537462896255,"ssf","mf.ss","exp","unif",15,"ssfOUT_60_12_2_KINGCOBRA","KINGCOBRA",2,0.0833333333333333,60,"preference"
"ssfOUT_60_12_2_KINGCOBRA.38",0.848122165927946,-0.170202287693018,1.86644661954891,"ssf","mf.ss","exp","unif",50,"ssfOUT_60_12_2_KINGCOBRA","KINGCOBRA",2,0.0833333333333333,60,"no effect"
"ssfOUT_60_12_2_KINGCOBRA.39",0.805048937013189,-0.210017420333908,1.82011529436029,"ssf","mf.ss","exp","unif",158,"ssfOUT_60_12_2_KINGCOBRA","KINGCOBRA",2,0.0833333333333333,60,"no effect"
"ssfOUT_60_12_2_KINGCOBRA.40",0.809535134700098,-0.203124162604142,1.82219443200434,"ssf","mf.ss","exp","unif",500,"ssfOUT_60_12_2_KINGCOBRA","KINGCOBRA",2,0.0833333333333333,60,"no effect"
"ssfOUT_60_12_3_BADGER.1",-0.102429989822148,-0.790909751718755,0.58604977207446,"ssf","mf.is","gamma","vonmises",5,"ssfOUT_60_12_3_BADGER","BADGER",3,0.0833333333333333,60,"no effect"
"ssfOUT_60_12_3_BADGER.2",0.166059253020488,-0.466895617381513,0.799014123422488,"ssf","mf.is","gamma","vonmises",15,"ssfOUT_60_12_3_BADGER","BADGER",3,0.0833333333333333,60,"no effect"
"ssfOUT_60_12_3_BADGER.3",0.153384316117008,-0.454028857941886,0.760797490175902,"ssf","mf.is","gamma","vonmises",50,"ssfOUT_60_12_3_BADGER","BADGER",3,0.0833333333333333,60,"no effect"
"ssfOUT_60_12_3_BADGER.4",0.270871793425762,-0.328360337239401,0.870103924090924,"ssf","mf.is","gamma","vonmises",158,"ssfOUT_60_12_3_BADGER","BADGER",3,0.0833333333333333,60,"no effect"
"ssfOUT_60_12_3_BADGER.5",0.218099868477009,-0.379428286709056,0.815628023663074,"ssf","mf.is","gamma","vonmises",500,"ssfOUT_60_12_3_BADGER","BADGER",3,0.0833333333333333,60,"no effect"
"ssfOUT_60_12_3_BADGER.6",0.154398835088085,-0.501983160236753,0.810780830412924,"ssf","mf.is","gamma","unif",5,"ssfOUT_60_12_3_BADGER","BADGER",3,0.0833333333333333,60,"no effect"
"ssfOUT_60_12_3_BADGER.7",0.132611901630794,-0.49249764870821,0.757721451969798,"ssf","mf.is","gamma","unif",15,"ssfOUT_60_12_3_BADGER","BADGER",3,0.0833333333333333,60,"no effect"
"ssfOUT_60_12_3_BADGER.8",0.419443939495778,-0.182602770229638,1.02149064922119,"ssf","mf.is","gamma","unif",50,"ssfOUT_60_12_3_BADGER","BADGER",3,0.0833333333333333,60,"no effect"
"ssfOUT_60_12_3_BADGER.9",0.281483723651942,-0.314786239539465,0.87775368684335,"ssf","mf.is","gamma","unif",158,"ssfOUT_60_12_3_BADGER","BADGER",3,0.0833333333333333,60,"no effect"
"ssfOUT_60_12_3_BADGER.10",0.228726691553885,-0.367308792390744,0.824762175498514,"ssf","mf.is","gamma","unif",500,"ssfOUT_60_12_3_BADGER","BADGER",3,0.0833333333333333,60,"no effect"
"ssfOUT_60_12_3_BADGER.11",0.921019930054539,0.226215516814307,1.61582434329477,"ssf","mf.is","exp","vonmises",5,"ssfOUT_60_12_3_BADGER","BADGER",3,0.0833333333333333,60,"preference"
"ssfOUT_60_12_3_BADGER.12",0.131126927659605,-0.508019176174369,0.77027303149358,"ssf","mf.is","exp","vonmises",15,"ssfOUT_60_12_3_BADGER","BADGER",3,0.0833333333333333,60,"no effect"
"ssfOUT_60_12_3_BADGER.13",0.369359361326011,-0.238169513690071,0.976888236342093,"ssf","mf.is","exp","vonmises",50,"ssfOUT_60_12_3_BADGER","BADGER",3,0.0833333333333333,60,"no effect"
"ssfOUT_60_12_3_BADGER.14",0.121420518125766,-0.47642931618379,0.719270352435323,"ssf","mf.is","exp","vonmises",158,"ssfOUT_60_12_3_BADGER","BADGER",3,0.0833333333333333,60,"no effect"
"ssfOUT_60_12_3_BADGER.15",0.20584671787894,-0.390118671912042,0.801812107669921,"ssf","mf.is","exp","vonmises",500,"ssfOUT_60_12_3_BADGER","BADGER",3,0.0833333333333333,60,"no effect"
"ssfOUT_60_12_3_BADGER.16",0.0247475902193059,-0.673209970005648,0.72270515044426,"ssf","mf.is","exp","unif",5,"ssfOUT_60_12_3_BADGER","BADGER",3,0.0833333333333333,60,"no effect"
"ssfOUT_60_12_3_BADGER.17",0.295642083771996,-0.32113340656336,0.912417574107351,"ssf","mf.is","exp","unif",15,"ssfOUT_60_12_3_BADGER","BADGER",3,0.0833333333333333,60,"no effect"
"ssfOUT_60_12_3_BADGER.18",0.135792516773679,-0.470250899343631,0.74183593289099,"ssf","mf.is","exp","unif",50,"ssfOUT_60_12_3_BADGER","BADGER",3,0.0833333333333333,60,"no effect"
"ssfOUT_60_12_3_BADGER.19",0.253822587242884,-0.345093891386938,0.852739065872706,"ssf","mf.is","exp","unif",158,"ssfOUT_60_12_3_BADGER","BADGER",3,0.0833333333333333,60,"no effect"
"ssfOUT_60_12_3_BADGER.20",0.228949922916682,-0.367763538599926,0.82566338443329,"ssf","mf.is","exp","unif",500,"ssfOUT_60_12_3_BADGER","BADGER",3,0.0833333333333333,60,"no effect"
"ssfOUT_60_12_3_BADGER.21",-0.0895156401306869,-0.752609244911849,0.573577964650476,"ssf","mf.ss","gamma","vonmises",5,"ssfOUT_60_12_3_BADGER","BADGER",3,0.0833333333333333,60,"no effect"
"ssfOUT_60_12_3_BADGER.22",0.0990536603485431,-0.516289754672659,0.714397075369745,"ssf","mf.ss","gamma","vonmises",15,"ssfOUT_60_12_3_BADGER","BADGER",3,0.0833333333333333,60,"no effect"
"ssfOUT_60_12_3_BADGER.23",0.102884335028461,-0.495837165069426,0.701605835126348,"ssf","mf.ss","gamma","vonmises",50,"ssfOUT_60_12_3_BADGER","BADGER",3,0.0833333333333333,60,"no effect"
"ssfOUT_60_12_3_BADGER.24",0.202993338008984,-0.389872326097448,0.795859002115415,"ssf","mf.ss","gamma","vonmises",158,"ssfOUT_60_12_3_BADGER","BADGER",3,0.0833333333333333,60,"no effect"
"ssfOUT_60_12_3_BADGER.25",0.155629778447861,-0.436873877827262,0.748133434722983,"ssf","mf.ss","gamma","vonmises",500,"ssfOUT_60_12_3_BADGER","BADGER",3,0.0833333333333333,60,"no effect"
"ssfOUT_60_12_3_BADGER.26",0.0886164708704278,-0.556487334896281,0.733720276637136,"ssf","mf.ss","gamma","unif",5,"ssfOUT_60_12_3_BADGER","BADGER",3,0.0833333333333333,60,"no effect"
"ssfOUT_60_12_3_BADGER.27",0.195666261529328,-0.41802313029753,0.809355653356187,"ssf","mf.ss","gamma","unif",15,"ssfOUT_60_12_3_BADGER","BADGER",3,0.0833333333333333,60,"no effect"
"ssfOUT_60_12_3_BADGER.28",0.340332551797513,-0.255828775545307,0.936493879140333,"ssf","mf.ss","gamma","unif",50,"ssfOUT_60_12_3_BADGER","BADGER",3,0.0833333333333333,60,"no effect"
"ssfOUT_60_12_3_BADGER.29",0.252011369782385,-0.341344349194376,0.845367088759146,"ssf","mf.ss","gamma","unif",158,"ssfOUT_60_12_3_BADGER","BADGER",3,0.0833333333333333,60,"no effect"
"ssfOUT_60_12_3_BADGER.30",0.19819872159308,-0.394293740637568,0.790691183823728,"ssf","mf.ss","gamma","unif",500,"ssfOUT_60_12_3_BADGER","BADGER",3,0.0833333333333333,60,"no effect"
"ssfOUT_60_12_3_BADGER.31",0.441245442654899,-0.201382192787228,1.08387307809703,"ssf","mf.ss","exp","vonmises",5,"ssfOUT_60_12_3_BADGER","BADGER",3,0.0833333333333333,60,"no effect"
"ssfOUT_60_12_3_BADGER.32",-0.0622734946760412,-0.67839707843241,0.553850089080328,"ssf","mf.ss","exp","vonmises",15,"ssfOUT_60_12_3_BADGER","BADGER",3,0.0833333333333333,60,"no effect"
"ssfOUT_60_12_3_BADGER.33",0.151344540452499,-0.44877507513384,0.751464156038838,"ssf","mf.ss","exp","vonmises",50,"ssfOUT_60_12_3_BADGER","BADGER",3,0.0833333333333333,60,"no effect"
"ssfOUT_60_12_3_BADGER.34",0.0657069735862302,-0.529871737137191,0.661285684309652,"ssf","mf.ss","exp","vonmises",158,"ssfOUT_60_12_3_BADGER","BADGER",3,0.0833333333333333,60,"no effect"
"ssfOUT_60_12_3_BADGER.35",0.0990178490447187,-0.494824418872231,0.692860116961668,"ssf","mf.ss","exp","vonmises",500,"ssfOUT_60_12_3_BADGER","BADGER",3,0.0833333333333333,60,"no effect"
"ssfOUT_60_12_3_BADGER.36",-0.197438807801348,-0.860828035281285,0.46595041967859,"ssf","mf.ss","exp","unif",5,"ssfOUT_60_12_3_BADGER","BADGER",3,0.0833333333333333,60,"no effect"
"ssfOUT_60_12_3_BADGER.37",0.181942797837708,-0.427443525968301,0.791329121643717,"ssf","mf.ss","exp","unif",15,"ssfOUT_60_12_3_BADGER","BADGER",3,0.0833333333333333,60,"no effect"
"ssfOUT_60_12_3_BADGER.38",0.0520517625015246,-0.549513926711124,0.653617451714173,"ssf","mf.ss","exp","unif",50,"ssfOUT_60_12_3_BADGER","BADGER",3,0.0833333333333333,60,"no effect"
"ssfOUT_60_12_3_BADGER.39",0.132521993258634,-0.464605015144447,0.729649001661715,"ssf","mf.ss","exp","unif",158,"ssfOUT_60_12_3_BADGER","BADGER",3,0.0833333333333333,60,"no effect"
"ssfOUT_60_12_3_BADGER.40",0.101730886396027,-0.492967242770054,0.696429015562107,"ssf","mf.ss","exp","unif",500,"ssfOUT_60_12_3_BADGER","BADGER",3,0.0833333333333333,60,"no effect"
"ssfOUT_60_12_3_VULTURE.1",16.3372015939903,-3548.15671983503,3580.83112302301,"ssf","mf.is","gamma","vonmises",5,"ssfOUT_60_12_3_VULTURE","VULTURE",3,0.0833333333333333,60,"no effect"
"ssfOUT_60_12_3_VULTURE.2",17.0272874486692,-2819.07971457972,2853.13428947706,"ssf","mf.is","gamma","vonmises",15,"ssfOUT_60_12_3_VULTURE","VULTURE",3,0.0833333333333333,60,"no effect"
"ssfOUT_60_12_3_VULTURE.3",16.8184159511035,-2546.73053860835,2580.36737051056,"ssf","mf.is","gamma","vonmises",50,"ssfOUT_60_12_3_VULTURE","VULTURE",3,0.0833333333333333,60,"no effect"
"ssfOUT_60_12_3_VULTURE.4",16.5846464710263,-2544.59222364457,2577.76151658663,"ssf","mf.is","gamma","vonmises",158,"ssfOUT_60_12_3_VULTURE","VULTURE",3,0.0833333333333333,60,"no effect"
"ssfOUT_60_12_3_VULTURE.5",16.6365222959182,-2388.45396532991,2421.72700992175,"ssf","mf.is","gamma","vonmises",500,"ssfOUT_60_12_3_VULTURE","VULTURE",3,0.0833333333333333,60,"no effect"
"ssfOUT_60_12_3_VULTURE.6",17.8532313895854,-3199.3674963154,3235.07395909457,"ssf","mf.is","gamma","unif",5,"ssfOUT_60_12_3_VULTURE","VULTURE",3,0.0833333333333333,60,"no effect"
"ssfOUT_60_12_3_VULTURE.7",17.5527849542998,-3319.7795301495,3354.8851000581,"ssf","mf.is","gamma","unif",15,"ssfOUT_60_12_3_VULTURE","VULTURE",3,0.0833333333333333,60,"no effect"
"ssfOUT_60_12_3_VULTURE.8",16.5319076970946,-2367.75739952333,2400.82121491752,"ssf","mf.is","gamma","unif",50,"ssfOUT_60_12_3_VULTURE","VULTURE",3,0.0833333333333333,60,"no effect"
"ssfOUT_60_12_3_VULTURE.9",16.4393360226105,-2153.83194702207,2186.71061906729,"ssf","mf.is","gamma","unif",158,"ssfOUT_60_12_3_VULTURE","VULTURE",3,0.0833333333333333,60,"no effect"
"ssfOUT_60_12_3_VULTURE.10",16.4710053778279,-2212.25727037741,2245.19928113307,"ssf","mf.is","gamma","unif",500,"ssfOUT_60_12_3_VULTURE","VULTURE",3,0.0833333333333333,60,"no effect"
"ssfOUT_60_12_3_VULTURE.11",17.9078953913044,-5303.52597937845,5339.34177016106,"ssf","mf.is","exp","vonmises",5,"ssfOUT_60_12_3_VULTURE","VULTURE",3,0.0833333333333333,60,"no effect"
"ssfOUT_60_12_3_VULTURE.12",16.6094871085086,-2778.55176599059,2811.77074020761,"ssf","mf.is","exp","vonmises",15,"ssfOUT_60_12_3_VULTURE","VULTURE",3,0.0833333333333333,60,"no effect"
"ssfOUT_60_12_3_VULTURE.13",16.5095412922424,-2603.30305683647,2636.32213942095,"ssf","mf.is","exp","vonmises",50,"ssfOUT_60_12_3_VULTURE","VULTURE",3,0.0833333333333333,60,"no effect"
"ssfOUT_60_12_3_VULTURE.14",16.6045589759497,-2462.43133245787,2495.64045040977,"ssf","mf.is","exp","vonmises",158,"ssfOUT_60_12_3_VULTURE","VULTURE",3,0.0833333333333333,60,"no effect"
"ssfOUT_60_12_3_VULTURE.15",16.6883741614723,-2467.07344130065,2500.4501896236,"ssf","mf.is","exp","vonmises",500,"ssfOUT_60_12_3_VULTURE","VULTURE",3,0.0833333333333333,60,"no effect"
"ssfOUT_60_12_3_VULTURE.16",16.4407519102929,-3114.35585116232,3147.2373549829,"ssf","mf.is","exp","unif",5,"ssfOUT_60_12_3_VULTURE","VULTURE",3,0.0833333333333333,60,"no effect"
"ssfOUT_60_12_3_VULTURE.17",16.6341829969175,-2800.84292453255,2834.11129052638,"ssf","mf.is","exp","unif",15,"ssfOUT_60_12_3_VULTURE","VULTURE",3,0.0833333333333333,60,"no effect"
"ssfOUT_60_12_3_VULTURE.18",16.7217374973807,-2409.76961160769,2443.21308660245,"ssf","mf.is","exp","unif",50,"ssfOUT_60_12_3_VULTURE","VULTURE",3,0.0833333333333333,60,"no effect"
"ssfOUT_60_12_3_VULTURE.19",16.5866224227928,-2297.9642667136,2331.13751155919,"ssf","mf.is","exp","unif",158,"ssfOUT_60_12_3_VULTURE","VULTURE",3,0.0833333333333333,60,"no effect"
"ssfOUT_60_12_3_VULTURE.20",16.6043697158779,-2389.70666805626,2422.91540748801,"ssf","mf.is","exp","unif",500,"ssfOUT_60_12_3_VULTURE","VULTURE",3,0.0833333333333333,60,"no effect"
"ssfOUT_60_12_3_VULTURE.21",16.5100051871135,-3474.45143234775,3507.47144272198,"ssf","mf.ss","gamma","vonmises",5,"ssfOUT_60_12_3_VULTURE","VULTURE",3,0.0833333333333333,60,"no effect"
"ssfOUT_60_12_3_VULTURE.22",16.3663230721135,-2616.84607419674,2649.57872034097,"ssf","mf.ss","gamma","vonmises",15,"ssfOUT_60_12_3_VULTURE","VULTURE",3,0.0833333333333333,60,"no effect"
"ssfOUT_60_12_3_VULTURE.23",16.2500026101224,-2443.36174416258,2475.86174938282,"ssf","mf.ss","gamma","vonmises",50,"ssfOUT_60_12_3_VULTURE","VULTURE",3,0.0833333333333333,60,"no effect"
"ssfOUT_60_12_3_VULTURE.24",16.2161131387495,-2539.12594973304,2571.55817601054,"ssf","mf.ss","gamma","vonmises",158,"ssfOUT_60_12_3_VULTURE","VULTURE",3,0.0833333333333333,60,"no effect"
"ssfOUT_60_12_3_VULTURE.25",16.2114718047038,-2368.79669701813,2401.21964062754,"ssf","mf.ss","gamma","vonmises",500,"ssfOUT_60_12_3_VULTURE","VULTURE",3,0.0833333333333333,60,"no effect"
"ssfOUT_60_12_3_VULTURE.26",17.6563108332313,-3191.29882746634,3226.6114491328,"ssf","mf.ss","gamma","unif",5,"ssfOUT_60_12_3_VULTURE","VULTURE",3,0.0833333333333333,60,"no effect"
"ssfOUT_60_12_3_VULTURE.27",17.3919942972888,-3297.05467110802,3331.8386597026,"ssf","mf.ss","gamma","unif",15,"ssfOUT_60_12_3_VULTURE","VULTURE",3,0.0833333333333333,60,"no effect"
"ssfOUT_60_12_3_VULTURE.28",16.29544595345,-2348.20468538478,2380.79557729168,"ssf","mf.ss","gamma","unif",50,"ssfOUT_60_12_3_VULTURE","VULTURE",3,0.0833333333333333,60,"no effect"
"ssfOUT_60_12_3_VULTURE.29",16.263915930903,-2141.62739982866,2174.15523169046,"ssf","mf.ss","gamma","unif",158,"ssfOUT_60_12_3_VULTURE","VULTURE",3,0.0833333333333333,60,"no effect"
"ssfOUT_60_12_3_VULTURE.30",16.2523121128825,-2206.34162566419,2238.84624988995,"ssf","mf.ss","gamma","unif",500,"ssfOUT_60_12_3_VULTURE","VULTURE",3,0.0833333333333333,60,"no effect"
"ssfOUT_60_12_3_VULTURE.31",16.3834950307247,-2907.90615210213,2940.67314216358,"ssf","mf.ss","exp","vonmises",5,"ssfOUT_60_12_3_VULTURE","VULTURE",3,0.0833333333333333,60,"no effect"
"ssfOUT_60_12_3_VULTURE.32",16.2627881687803,-2878.08745176735,2910.61302810491,"ssf","mf.ss","exp","vonmises",15,"ssfOUT_60_12_3_VULTURE","VULTURE",3,0.0833333333333333,60,"no effect"
"ssfOUT_60_12_3_VULTURE.33",16.1803512219414,-2562.31132825515,2594.67203069904,"ssf","mf.ss","exp","vonmises",50,"ssfOUT_60_12_3_VULTURE","VULTURE",3,0.0833333333333333,60,"no effect"
"ssfOUT_60_12_3_VULTURE.34",16.1934368809075,-2473.56766350997,2505.95453727178,"ssf","mf.ss","exp","vonmises",158,"ssfOUT_60_12_3_VULTURE","VULTURE",3,0.0833333333333333,60,"no effect"
"ssfOUT_60_12_3_VULTURE.35",16.1955288950888,-2433.99503459887,2466.38609238905,"ssf","mf.ss","exp","vonmises",500,"ssfOUT_60_12_3_VULTURE","VULTURE",3,0.0833333333333333,60,"no effect"
"ssfOUT_60_12_3_VULTURE.36",16.3579090092467,-3137.31267685197,3170.02849487046,"ssf","mf.ss","exp","unif",5,"ssfOUT_60_12_3_VULTURE","VULTURE",3,0.0833333333333333,60,"no effect"
"ssfOUT_60_12_3_VULTURE.37",16.2794923408202,-2663.31935990512,2695.87834458676,"ssf","mf.ss","exp","unif",15,"ssfOUT_60_12_3_VULTURE","VULTURE",3,0.0833333333333333,60,"no effect"
"ssfOUT_60_12_3_VULTURE.38",16.2564122377093,-2412.23167391162,2444.74449838704,"ssf","mf.ss","exp","unif",50,"ssfOUT_60_12_3_VULTURE","VULTURE",3,0.0833333333333333,60,"no effect"
"ssfOUT_60_12_3_VULTURE.39",16.2326955693945,-2247.13344452228,2279.59883566107,"ssf","mf.ss","exp","unif",158,"ssfOUT_60_12_3_VULTURE","VULTURE",3,0.0833333333333333,60,"no effect"
"ssfOUT_60_12_3_VULTURE.40",16.2465708688154,-2331.83116303456,2364.32430477219,"ssf","mf.ss","exp","unif",500,"ssfOUT_60_12_3_VULTURE","VULTURE",3,0.0833333333333333,60,"no effect"
"ssfOUT_60_12_3_KINGCOBRA.1",14.3778079915385,-3861.61706251139,3890.37267849446,"ssf","mf.is","gamma","vonmises",5,"ssfOUT_60_12_3_KINGCOBRA","KINGCOBRA",3,0.0833333333333333,60,"no effect"
"ssfOUT_60_12_3_KINGCOBRA.2",15.2793454142297,-3076.94350455402,3107.50219538247,"ssf","mf.is","gamma","vonmises",15,"ssfOUT_60_12_3_KINGCOBRA","KINGCOBRA",3,0.0833333333333333,60,"no effect"
"ssfOUT_60_12_3_KINGCOBRA.3",15.7688088717802,-3265.98902457614,3297.5266423197,"ssf","mf.is","gamma","vonmises",50,"ssfOUT_60_12_3_KINGCOBRA","KINGCOBRA",3,0.0833333333333333,60,"no effect"
"ssfOUT_60_12_3_KINGCOBRA.4",14.54781073213,-1916.81746902548,1945.91309048974,"ssf","mf.is","gamma","vonmises",158,"ssfOUT_60_12_3_KINGCOBRA","KINGCOBRA",3,0.0833333333333333,60,"no effect"
"ssfOUT_60_12_3_KINGCOBRA.5",14.5469598876182,-1996.7509398046,2025.84485957984,"ssf","mf.is","gamma","vonmises",500,"ssfOUT_60_12_3_KINGCOBRA","KINGCOBRA",3,0.0833333333333333,60,"no effect"
"ssfOUT_60_12_3_KINGCOBRA.6",15.6331179737109,-3266.43079890288,3297.6970348503,"ssf","mf.is","gamma","unif",5,"ssfOUT_60_12_3_KINGCOBRA","KINGCOBRA",3,0.0833333333333333,60,"no effect"
"ssfOUT_60_12_3_KINGCOBRA.7",15.7672383682253,-3378.17222717239,3409.70670390884,"ssf","mf.is","gamma","unif",15,"ssfOUT_60_12_3_KINGCOBRA","KINGCOBRA",3,0.0833333333333333,60,"no effect"
"ssfOUT_60_12_3_KINGCOBRA.8",14.494326218494,-2209.17174910995,2238.16040154693,"ssf","mf.is","gamma","unif",50,"ssfOUT_60_12_3_KINGCOBRA","KINGCOBRA",3,0.0833333333333333,60,"no effect"
"ssfOUT_60_12_3_KINGCOBRA.9",15.5321695719644,-2824.92839388738,2855.99273303131,"ssf","mf.is","gamma","unif",158,"ssfOUT_60_12_3_KINGCOBRA","KINGCOBRA",3,0.0833333333333333,60,"no effect"
"ssfOUT_60_12_3_KINGCOBRA.10",14.4838297646,-1829.97512384746,1858.94278337666,"ssf","mf.is","gamma","unif",500,"ssfOUT_60_12_3_KINGCOBRA","KINGCOBRA",3,0.0833333333333333,60,"no effect"
"ssfOUT_60_12_3_KINGCOBRA.11",0.351773163372908,0.0142886289918451,0.689257697753972,"ssf","mf.is","exp","vonmises",5,"ssfOUT_60_12_3_KINGCOBRA","KINGCOBRA",3,0.0833333333333333,60,"preference"
"ssfOUT_60_12_3_KINGCOBRA.12",17.4311641087566,-4370.24732845265,4405.10965667017,"ssf","mf.is","exp","vonmises",15,"ssfOUT_60_12_3_KINGCOBRA","KINGCOBRA",3,0.0833333333333333,60,"no effect"
"ssfOUT_60_12_3_KINGCOBRA.13",15.1499586504302,-3213.05949154673,3243.35940884759,"ssf","mf.is","exp","vonmises",50,"ssfOUT_60_12_3_KINGCOBRA","KINGCOBRA",3,0.0833333333333333,60,"no effect"
"ssfOUT_60_12_3_KINGCOBRA.14",14.8374796296516,-1924.91933493819,1954.59429419749,"ssf","mf.is","exp","vonmises",158,"ssfOUT_60_12_3_KINGCOBRA","KINGCOBRA",3,0.0833333333333333,60,"no effect"
"ssfOUT_60_12_3_KINGCOBRA.15",15.3616636339471,-2488.32961863011,2519.052945898,"ssf","mf.is","exp","vonmises",500,"ssfOUT_60_12_3_KINGCOBRA","KINGCOBRA",3,0.0833333333333333,60,"no effect"
"ssfOUT_60_12_3_KINGCOBRA.16",17.6857687783966,-3724.02834571901,3759.3998832758,"ssf","mf.is","exp","unif",5,"ssfOUT_60_12_3_KINGCOBRA","KINGCOBRA",3,0.0833333333333333,60,"no effect"
"ssfOUT_60_12_3_KINGCOBRA.17",14.1004170476029,-2683.9708197099,2712.17165380511,"ssf","mf.is","exp","unif",15,"ssfOUT_60_12_3_KINGCOBRA","KINGCOBRA",3,0.0833333333333333,60,"no effect"
"ssfOUT_60_12_3_KINGCOBRA.18",15.7294009228165,-3255.90444362792,3287.36324547355,"ssf","mf.is","exp","unif",50,"ssfOUT_60_12_3_KINGCOBRA","KINGCOBRA",3,0.0833333333333333,60,"no effect"
"ssfOUT_60_12_3_KINGCOBRA.19",14.7550892651983,-2834.53502879995,2864.04520733035,"ssf","mf.is","exp","unif",158,"ssfOUT_60_12_3_KINGCOBRA","KINGCOBRA",3,0.0833333333333333,60,"no effect"
"ssfOUT_60_12_3_KINGCOBRA.20",14.6630464767677,-2096.18797448378,2125.51406743732,"ssf","mf.is","exp","unif",500,"ssfOUT_60_12_3_KINGCOBRA","KINGCOBRA",3,0.0833333333333333,60,"no effect"
"ssfOUT_60_12_3_KINGCOBRA.21",15.2929583060127,-3294.44587609411,3325.03179270613,"ssf","mf.ss","gamma","vonmises",5,"ssfOUT_60_12_3_KINGCOBRA","KINGCOBRA",3,0.0833333333333333,60,"no effect"
"ssfOUT_60_12_3_KINGCOBRA.22",14.4134848547715,-2621.18009775272,2650.00706746226,"ssf","mf.ss","gamma","vonmises",15,"ssfOUT_60_12_3_KINGCOBRA","KINGCOBRA",3,0.0833333333333333,60,"no effect"
"ssfOUT_60_12_3_KINGCOBRA.23",15.2674360066852,-3085.85688624805,3116.39175826142,"ssf","mf.ss","gamma","vonmises",50,"ssfOUT_60_12_3_KINGCOBRA","KINGCOBRA",3,0.0833333333333333,60,"no effect"
"ssfOUT_60_12_3_KINGCOBRA.24",14.2004921148446,-1912.64648930351,1941.0474735332,"ssf","mf.ss","gamma","vonmises",158,"ssfOUT_60_12_3_KINGCOBRA","KINGCOBRA",3,0.0833333333333333,60,"no effect"
"ssfOUT_60_12_3_KINGCOBRA.25",14.177418233524,-1987.29680498306,2015.65164145011,"ssf","mf.ss","gamma","vonmises",500,"ssfOUT_60_12_3_KINGCOBRA","KINGCOBRA",3,0.0833333333333333,60,"no effect"
"ssfOUT_60_12_3_KINGCOBRA.26",15.4195467798637,-3316.89244990591,3347.73154346564,"ssf","mf.ss","gamma","unif",5,"ssfOUT_60_12_3_KINGCOBRA","KINGCOBRA",3,0.0833333333333333,60,"no effect"
"ssfOUT_60_12_3_KINGCOBRA.27",15.3015751205048,-3319.44340440881,3350.04655464982,"ssf","mf.ss","gamma","unif",15,"ssfOUT_60_12_3_KINGCOBRA","KINGCOBRA",3,0.0833333333333333,60,"no effect"
"ssfOUT_60_12_3_KINGCOBRA.28",14.2100418263912,-2193.51125567764,2221.93133933043,"ssf","mf.ss","gamma","unif",50,"ssfOUT_60_12_3_KINGCOBRA","KINGCOBRA",3,0.0833333333333333,60,"no effect"
"ssfOUT_60_12_3_KINGCOBRA.29",15.200550458777,-2812.72087243354,2843.12197335109,"ssf","mf.ss","gamma","unif",158,"ssfOUT_60_12_3_KINGCOBRA","KINGCOBRA",3,0.0833333333333333,60,"no effect"
"ssfOUT_60_12_3_KINGCOBRA.30",14.2025206023073,-1814.15825393394,1842.56329513855,"ssf","mf.ss","gamma","unif",500,"ssfOUT_60_12_3_KINGCOBRA","KINGCOBRA",3,0.0833333333333333,60,"no effect"
"ssfOUT_60_12_3_KINGCOBRA.31",0.666398404209979,0.373978827403688,0.95881798101627,"ssf","mf.ss","exp","vonmises",5,"ssfOUT_60_12_3_KINGCOBRA","KINGCOBRA",3,0.0833333333333333,60,"preference"
"ssfOUT_60_12_3_KINGCOBRA.32",14.2800499758024,-2592.03413535991,2620.59423531152,"ssf","mf.ss","exp","vonmises",15,"ssfOUT_60_12_3_KINGCOBRA","KINGCOBRA",3,0.0833333333333333,60,"no effect"
"ssfOUT_60_12_3_KINGCOBRA.33",14.2740183105051,-2214.93912616158,2243.48716278259,"ssf","mf.ss","exp","vonmises",50,"ssfOUT_60_12_3_KINGCOBRA","KINGCOBRA",3,0.0833333333333333,60,"no effect"
"ssfOUT_60_12_3_KINGCOBRA.34",13.1959772839136,-1896.471196386,1922.86315095383,"ssf","mf.ss","exp","vonmises",158,"ssfOUT_60_12_3_KINGCOBRA","KINGCOBRA",3,0.0833333333333333,60,"no effect"
"ssfOUT_60_12_3_KINGCOBRA.35",13.2333016054503,-1716.95899892999,1743.42560214089,"ssf","mf.ss","exp","vonmises",500,"ssfOUT_60_12_3_KINGCOBRA","KINGCOBRA",3,0.0833333333333333,60,"no effect"
"ssfOUT_60_12_3_KINGCOBRA.36",14.6738178615859,-2940.14676284014,2969.49439856332,"ssf","mf.ss","exp","unif",5,"ssfOUT_60_12_3_KINGCOBRA","KINGCOBRA",3,0.0833333333333333,60,"no effect"
"ssfOUT_60_12_3_KINGCOBRA.37",13.3191169439905,-2761.19675730943,2787.83499119741,"ssf","mf.ss","exp","unif",15,"ssfOUT_60_12_3_KINGCOBRA","KINGCOBRA",3,0.0833333333333333,60,"no effect"
"ssfOUT_60_12_3_KINGCOBRA.38",14.2961164935498,-2410.94516220466,2439.53739519176,"ssf","mf.ss","exp","unif",50,"ssfOUT_60_12_3_KINGCOBRA","KINGCOBRA",3,0.0833333333333333,60,"no effect"
"ssfOUT_60_12_3_KINGCOBRA.39",14.2777461499569,-2412.71915916653,2441.27465146645,"ssf","mf.ss","exp","unif",158,"ssfOUT_60_12_3_KINGCOBRA","KINGCOBRA",3,0.0833333333333333,60,"no effect"
"ssfOUT_60_12_3_KINGCOBRA.40",14.2919765884168,-2360.78766178787,2389.37161496471,"ssf","mf.ss","exp","unif",500,"ssfOUT_60_12_3_KINGCOBRA","KINGCOBRA",3,0.0833333333333333,60,"no effect"
"ssfOUT_60_12_4_BADGER.1",18.1990447603832,-4259.29149318739,4295.68958270815,"ssf","mf.is","gamma","vonmises",5,"ssfOUT_60_12_4_BADGER","BADGER",4,0.0833333333333333,60,"no effect"
"ssfOUT_60_12_4_BADGER.2",17.7903884790874,-3479.71351760937,3515.29429456754,"ssf","mf.is","gamma","vonmises",15,"ssfOUT_60_12_4_BADGER","BADGER",4,0.0833333333333333,60,"no effect"
"ssfOUT_60_12_4_BADGER.3",16.8526556736387,-2181.79058493562,2215.4958962829,"ssf","mf.is","gamma","vonmises",50,"ssfOUT_60_12_4_BADGER","BADGER",4,0.0833333333333333,60,"no effect"
"ssfOUT_60_12_4_BADGER.4",17.0909818961756,-2286.79621826046,2320.97818205281,"ssf","mf.is","gamma","vonmises",158,"ssfOUT_60_12_4_BADGER","BADGER",4,0.0833333333333333,60,"no effect"
"ssfOUT_60_12_4_BADGER.5",17.0180757644888,-2070.24534324848,2104.28149477746,"ssf","mf.is","gamma","vonmises",500,"ssfOUT_60_12_4_BADGER","BADGER",4,0.0833333333333333,60,"no effect"
"ssfOUT_60_12_4_BADGER.6",18.1455127309654,-5074.38910982609,5110.68013528802,"ssf","mf.is","gamma","unif",5,"ssfOUT_60_12_4_BADGER","BADGER",4,0.0833333333333333,60,"no effect"
"ssfOUT_60_12_4_BADGER.7",18.0990623443678,-3848.05757250756,3884.2556971963,"ssf","mf.is","gamma","unif",15,"ssfOUT_60_12_4_BADGER","BADGER",4,0.0833333333333333,60,"no effect"
"ssfOUT_60_12_4_BADGER.8",17.8581652662066,-3280.96749902169,3316.6838295541,"ssf","mf.is","gamma","unif",50,"ssfOUT_60_12_4_BADGER","BADGER",4,0.0833333333333333,60,"no effect"
"ssfOUT_60_12_4_BADGER.9",16.994181345516,-2036.30149735257,2070.2898600436,"ssf","mf.is","gamma","unif",158,"ssfOUT_60_12_4_BADGER","BADGER",4,0.0833333333333333,60,"no effect"
"ssfOUT_60_12_4_BADGER.10",16.9671363703042,-2010.27475149023,2044.20902423084,"ssf","mf.is","gamma","unif",500,"ssfOUT_60_12_4_BADGER","BADGER",4,0.0833333333333333,60,"no effect"
"ssfOUT_60_12_4_BADGER.11",17.6248858188251,-5789.24695970318,5824.49673134083,"ssf","mf.is","exp","vonmises",5,"ssfOUT_60_12_4_BADGER","BADGER",4,0.0833333333333333,60,"no effect"
"ssfOUT_60_12_4_BADGER.12",16.9630171657878,-2935.95546554851,2969.88149988009,"ssf","mf.is","exp","vonmises",15,"ssfOUT_60_12_4_BADGER","BADGER",4,0.0833333333333333,60,"no effect"
"ssfOUT_60_12_4_BADGER.13",16.8772063142974,-2313.81929682556,2347.57370945416,"ssf","mf.is","exp","vonmises",50,"ssfOUT_60_12_4_BADGER","BADGER",4,0.0833333333333333,60,"no effect"
"ssfOUT_60_12_4_BADGER.14",17.1530930010494,-2324.1434823464,2358.4496683485,"ssf","mf.is","exp","vonmises",158,"ssfOUT_60_12_4_BADGER","BADGER",4,0.0833333333333333,60,"no effect"
"ssfOUT_60_12_4_BADGER.15",17.0776428398721,-2167.64997680577,2201.80526248551,"ssf","mf.is","exp","vonmises",500,"ssfOUT_60_12_4_BADGER","BADGER",4,0.0833333333333333,60,"no effect"
"ssfOUT_60_12_4_BADGER.16",18.3869643360763,-4295.88163971815,4332.6555683903,"ssf","mf.is","exp","unif",5,"ssfOUT_60_12_4_BADGER","BADGER",4,0.0833333333333333,60,"no effect"
"ssfOUT_60_12_4_BADGER.17",17.0378940482308,-2589.65780807161,2623.73359616807,"ssf","mf.is","exp","unif",15,"ssfOUT_60_12_4_BADGER","BADGER",4,0.0833333333333333,60,"no effect"
"ssfOUT_60_12_4_BADGER.18",17.0298110922117,-2120.5847670317,2154.64438921612,"ssf","mf.is","exp","unif",50,"ssfOUT_60_12_4_BADGER","BADGER",4,0.0833333333333333,60,"no effect"
"ssfOUT_60_12_4_BADGER.19",17.0423077226131,-2084.04871286306,2118.13332830828,"ssf","mf.is","exp","unif",158,"ssfOUT_60_12_4_BADGER","BADGER",4,0.0833333333333333,60,"no effect"
"ssfOUT_60_12_4_BADGER.20",17.0558966881283,-2204.91437122817,2239.02616460442,"ssf","mf.is","exp","unif",500,"ssfOUT_60_12_4_BADGER","BADGER",4,0.0833333333333333,60,"no effect"
"ssfOUT_60_12_4_BADGER.21",17.6053246552776,-4320.06713896976,4355.27778828031,"ssf","mf.ss","gamma","vonmises",5,"ssfOUT_60_12_4_BADGER","BADGER",4,0.0833333333333333,60,"no effect"
"ssfOUT_60_12_4_BADGER.22",17.5301807366803,-3373.91339545217,3408.97375692553,"ssf","mf.ss","gamma","vonmises",15,"ssfOUT_60_12_4_BADGER","BADGER",4,0.0833333333333333,60,"no effect"
"ssfOUT_60_12_4_BADGER.23",16.4867597605872,-2085.55399870767,2118.52751822884,"ssf","mf.ss","gamma","vonmises",50,"ssfOUT_60_12_4_BADGER","BADGER",4,0.0833333333333333,60,"no effect"
"ssfOUT_60_12_4_BADGER.24",16.4490498956242,-2317.19584031319,2350.09394010444,"ssf","mf.ss","gamma","vonmises",158,"ssfOUT_60_12_4_BADGER","BADGER",4,0.0833333333333333,60,"no effect"
"ssfOUT_60_12_4_BADGER.25",16.4497232235687,-2143.94452600642,2176.84397245356,"ssf","mf.ss","gamma","vonmises",500,"ssfOUT_60_12_4_BADGER","BADGER",4,0.0833333333333333,60,"no effect"
"ssfOUT_60_12_4_BADGER.26",17.8288661377805,-4754.33040401328,4789.98813628884,"ssf","mf.ss","gamma","unif",5,"ssfOUT_60_12_4_BADGER","BADGER",4,0.0833333333333333,60,"no effect"
"ssfOUT_60_12_4_BADGER.27",16.5884769384262,-2379.70481161974,2412.88176549659,"ssf","mf.ss","gamma","unif",15,"ssfOUT_60_12_4_BADGER","BADGER",4,0.0833333333333333,60,"no effect"
"ssfOUT_60_12_4_BADGER.28",16.5659496974833,-2005.32323327272,2038.45513266768,"ssf","mf.ss","gamma","unif",50,"ssfOUT_60_12_4_BADGER","BADGER",4,0.0833333333333333,60,"no effect"
"ssfOUT_60_12_4_BADGER.29",16.5667290074612,-2049.72006821944,2082.85352623436,"ssf","mf.ss","gamma","unif",158,"ssfOUT_60_12_4_BADGER","BADGER",4,0.0833333333333333,60,"no effect"
"ssfOUT_60_12_4_BADGER.30",16.5588958274504,-2018.44990969488,2051.56770134978,"ssf","mf.ss","gamma","unif",500,"ssfOUT_60_12_4_BADGER","BADGER",4,0.0833333333333333,60,"no effect"
"ssfOUT_60_12_4_BADGER.31",16.7792673048299,-2934.42783104717,2967.98636565682,"ssf","mf.ss","exp","vonmises",5,"ssfOUT_60_12_4_BADGER","BADGER",4,0.0833333333333333,60,"no effect"
"ssfOUT_60_12_4_BADGER.32",16.510889625171,-2569.06782340841,2602.08960265875,"ssf","mf.ss","exp","vonmises",15,"ssfOUT_60_12_4_BADGER","BADGER",4,0.0833333333333333,60,"no effect"
"ssfOUT_60_12_4_BADGER.33",16.4463172094877,-2382.49047221256,2415.38310663153,"ssf","mf.ss","exp","vonmises",50,"ssfOUT_60_12_4_BADGER","BADGER",4,0.0833333333333333,60,"no effect"
"ssfOUT_60_12_4_BADGER.34",16.4054585542335,-2271.5577987109,2304.36871581936,"ssf","mf.ss","exp","vonmises",158,"ssfOUT_60_12_4_BADGER","BADGER",4,0.0833333333333333,60,"no effect"
"ssfOUT_60_12_4_BADGER.35",16.4108302310605,-2228.83545875181,2261.65711921393,"ssf","mf.ss","exp","vonmises",500,"ssfOUT_60_12_4_BADGER","BADGER",4,0.0833333333333333,60,"no effect"
"ssfOUT_60_12_4_BADGER.36",17.8128696471099,-4186.79981284391,4222.42555213813,"ssf","mf.ss","exp","unif",5,"ssfOUT_60_12_4_BADGER","BADGER",4,0.0833333333333333,60,"no effect"
"ssfOUT_60_12_4_BADGER.37",16.5566373342879,-2539.53618030553,2572.64945497411,"ssf","mf.ss","exp","unif",15,"ssfOUT_60_12_4_BADGER","BADGER",4,0.0833333333333333,60,"no effect"
"ssfOUT_60_12_4_BADGER.38",16.5208558092321,-2117.87522138883,2150.9169330073,"ssf","mf.ss","exp","unif",50,"ssfOUT_60_12_4_BADGER","BADGER",4,0.0833333333333333,60,"no effect"
"ssfOUT_60_12_4_BADGER.39",16.5019435081492,-2083.67677378378,2116.68066080008,"ssf","mf.ss","exp","unif",158,"ssfOUT_60_12_4_BADGER","BADGER",4,0.0833333333333333,60,"no effect"
"ssfOUT_60_12_4_BADGER.40",16.5004750023588,-2194.0804524339,2227.08140243862,"ssf","mf.ss","exp","unif",500,"ssfOUT_60_12_4_BADGER","BADGER",4,0.0833333333333333,60,"no effect"
"ssfOUT_60_12_4_VULTURE.1",-0.171031069531935,-0.844394570273881,0.50233243121001,"ssf","mf.is","gamma","vonmises",5,"ssfOUT_60_12_4_VULTURE","VULTURE",4,0.0833333333333333,60,"no effect"
"ssfOUT_60_12_4_VULTURE.2",0.345521027927042,-0.278306028772077,0.969348084626161,"ssf","mf.is","gamma","vonmises",15,"ssfOUT_60_12_4_VULTURE","VULTURE",4,0.0833333333333333,60,"no effect"
"ssfOUT_60_12_4_VULTURE.3",0.263407727702549,-0.337995896036454,0.864811351441552,"ssf","mf.is","gamma","vonmises",50,"ssfOUT_60_12_4_VULTURE","VULTURE",4,0.0833333333333333,60,"no effect"
"ssfOUT_60_12_4_VULTURE.4",0.256813151903005,-0.339813221059638,0.853439524865647,"ssf","mf.is","gamma","vonmises",158,"ssfOUT_60_12_4_VULTURE","VULTURE",4,0.0833333333333333,60,"no effect"
"ssfOUT_60_12_4_VULTURE.5",0.286885746840543,-0.307645023986727,0.881416517667813,"ssf","mf.is","gamma","vonmises",500,"ssfOUT_60_12_4_VULTURE","VULTURE",4,0.0833333333333333,60,"no effect"
"ssfOUT_60_12_4_VULTURE.6",0.184072060872702,-0.467999211400313,0.836143333145718,"ssf","mf.is","gamma","unif",5,"ssfOUT_60_12_4_VULTURE","VULTURE",4,0.0833333333333333,60,"no effect"
"ssfOUT_60_12_4_VULTURE.7",0.199219169357907,-0.415513622750794,0.813951961466609,"ssf","mf.is","gamma","unif",15,"ssfOUT_60_12_4_VULTURE","VULTURE",4,0.0833333333333333,60,"no effect"
"ssfOUT_60_12_4_VULTURE.8",0.477258034253011,-0.122334757429348,1.07685082593537,"ssf","mf.is","gamma","unif",50,"ssfOUT_60_12_4_VULTURE","VULTURE",4,0.0833333333333333,60,"no effect"
"ssfOUT_60_12_4_VULTURE.9",0.29429537101827,-0.301660357892286,0.890251099928826,"ssf","mf.is","gamma","unif",158,"ssfOUT_60_12_4_VULTURE","VULTURE",4,0.0833333333333333,60,"no effect"
"ssfOUT_60_12_4_VULTURE.10",0.306628074601313,-0.28795065471992,0.901206803922545,"ssf","mf.is","gamma","unif",500,"ssfOUT_60_12_4_VULTURE","VULTURE",4,0.0833333333333333,60,"no effect"
"ssfOUT_60_12_4_VULTURE.11",-0.964051022220105,-1.69413689210871,-0.233965152331499,"ssf","mf.is","exp","vonmises",5,"ssfOUT_60_12_4_VULTURE","VULTURE",4,0.0833333333333333,60,"avoidance"
"ssfOUT_60_12_4_VULTURE.12",0.199554263401708,-0.424891973226042,0.824000500029457,"ssf","mf.is","exp","vonmises",15,"ssfOUT_60_12_4_VULTURE","VULTURE",4,0.0833333333333333,60,"no effect"
"ssfOUT_60_12_4_VULTURE.13",0.201182654935794,-0.399816729137595,0.802182039009182,"ssf","mf.is","exp","vonmises",50,"ssfOUT_60_12_4_VULTURE","VULTURE",4,0.0833333333333333,60,"no effect"
"ssfOUT_60_12_4_VULTURE.14",0.29322889005267,-0.303182808700829,0.88964058880617,"ssf","mf.is","exp","vonmises",158,"ssfOUT_60_12_4_VULTURE","VULTURE",4,0.0833333333333333,60,"no effect"
"ssfOUT_60_12_4_VULTURE.15",0.333100404978003,-0.261952844569851,0.928153654525857,"ssf","mf.is","exp","vonmises",500,"ssfOUT_60_12_4_VULTURE","VULTURE",4,0.0833333333333333,60,"no effect"
"ssfOUT_60_12_4_VULTURE.16",0.26444202160349,-0.396984128280026,0.925868171487006,"ssf","mf.is","exp","unif",5,"ssfOUT_60_12_4_VULTURE","VULTURE",4,0.0833333333333333,60,"no effect"
"ssfOUT_60_12_4_VULTURE.17",0.163469695074733,-0.463495603073674,0.790434993223139,"ssf","mf.is","exp","unif",15,"ssfOUT_60_12_4_VULTURE","VULTURE",4,0.0833333333333333,60,"no effect"
"ssfOUT_60_12_4_VULTURE.18",0.517165216121891,-0.0823056544271319,1.11663608667091,"ssf","mf.is","exp","unif",50,"ssfOUT_60_12_4_VULTURE","VULTURE",4,0.0833333333333333,60,"no effect"
"ssfOUT_60_12_4_VULTURE.19",0.379122203452544,-0.217772357182954,0.976016764088042,"ssf","mf.is","exp","unif",158,"ssfOUT_60_12_4_VULTURE","VULTURE",4,0.0833333333333333,60,"no effect"
"ssfOUT_60_12_4_VULTURE.20",0.339395724133198,-0.255632872555132,0.934424320821529,"ssf","mf.is","exp","unif",500,"ssfOUT_60_12_4_VULTURE","VULTURE",4,0.0833333333333333,60,"no effect"
"ssfOUT_60_12_4_VULTURE.21",0.201546060449451,-0.445461349448798,0.8485534703477,"ssf","mf.ss","gamma","vonmises",5,"ssfOUT_60_12_4_VULTURE","VULTURE",4,0.0833333333333333,60,"no effect"
"ssfOUT_60_12_4_VULTURE.22",0.334088252323032,-0.274392569219584,0.942569073865649,"ssf","mf.ss","gamma","vonmises",15,"ssfOUT_60_12_4_VULTURE","VULTURE",4,0.0833333333333333,60,"no effect"
"ssfOUT_60_12_4_VULTURE.23",0.248193234421407,-0.350141168184487,0.846527637027301,"ssf","mf.ss","gamma","vonmises",50,"ssfOUT_60_12_4_VULTURE","VULTURE",4,0.0833333333333333,60,"no effect"
"ssfOUT_60_12_4_VULTURE.24",0.249651945271418,-0.34423324711119,0.843537137654026,"ssf","mf.ss","gamma","vonmises",158,"ssfOUT_60_12_4_VULTURE","VULTURE",4,0.0833333333333333,60,"no effect"
"ssfOUT_60_12_4_VULTURE.25",0.216452199026667,-0.376761731135831,0.809666129189165,"ssf","mf.ss","gamma","vonmises",500,"ssfOUT_60_12_4_VULTURE","VULTURE",4,0.0833333333333333,60,"no effect"
"ssfOUT_60_12_4_VULTURE.26",0.352707669782185,-0.28839942734323,0.993814766907599,"ssf","mf.ss","gamma","unif",5,"ssfOUT_60_12_4_VULTURE","VULTURE",4,0.0833333333333333,60,"no effect"
"ssfOUT_60_12_4_VULTURE.27",0.192526376480828,-0.418688468204689,0.803741221166344,"ssf","mf.ss","gamma","unif",15,"ssfOUT_60_12_4_VULTURE","VULTURE",4,0.0833333333333333,60,"no effect"
"ssfOUT_60_12_4_VULTURE.28",0.387403576601912,-0.211165446514897,0.98597259971872,"ssf","mf.ss","gamma","unif",50,"ssfOUT_60_12_4_VULTURE","VULTURE",4,0.0833333333333333,60,"no effect"
"ssfOUT_60_12_4_VULTURE.29",0.256402061813944,-0.338301254198132,0.85110537782602,"ssf","mf.ss","gamma","unif",158,"ssfOUT_60_12_4_VULTURE","VULTURE",4,0.0833333333333333,60,"no effect"
"ssfOUT_60_12_4_VULTURE.30",0.258701707203378,-0.334927808694929,0.852331223101685,"ssf","mf.ss","gamma","unif",500,"ssfOUT_60_12_4_VULTURE","VULTURE",4,0.0833333333333333,60,"no effect"
"ssfOUT_60_12_4_VULTURE.31",-0.409695593257061,-1.09879345193041,0.27940226541629,"ssf","mf.ss","exp","vonmises",5,"ssfOUT_60_12_4_VULTURE","VULTURE",4,0.0833333333333333,60,"no effect"
"ssfOUT_60_12_4_VULTURE.32",0.155809494152449,-0.45499327454864,0.766612262853539,"ssf","mf.ss","exp","vonmises",15,"ssfOUT_60_12_4_VULTURE","VULTURE",4,0.0833333333333333,60,"no effect"
"ssfOUT_60_12_4_VULTURE.33",0.17607237759729,-0.423550630487274,0.775695385681855,"ssf","mf.ss","exp","vonmises",50,"ssfOUT_60_12_4_VULTURE","VULTURE",4,0.0833333333333333,60,"no effect"
"ssfOUT_60_12_4_VULTURE.34",0.246325313400204,-0.349955202390875,0.842605829191283,"ssf","mf.ss","exp","vonmises",158,"ssfOUT_60_12_4_VULTURE","VULTURE",4,0.0833333333333333,60,"no effect"
"ssfOUT_60_12_4_VULTURE.35",0.203697028819292,-0.391114799342187,0.79850885698077,"ssf","mf.ss","exp","vonmises",500,"ssfOUT_60_12_4_VULTURE","VULTURE",4,0.0833333333333333,60,"no effect"
"ssfOUT_60_12_4_VULTURE.36",0.312690933345117,-0.329445159773864,0.954827026464098,"ssf","mf.ss","exp","unif",5,"ssfOUT_60_12_4_VULTURE","VULTURE",4,0.0833333333333333,60,"no effect"
"ssfOUT_60_12_4_VULTURE.37",0.163573766823281,-0.449634974918546,0.776782508565107,"ssf","mf.ss","exp","unif",15,"ssfOUT_60_12_4_VULTURE","VULTURE",4,0.0833333333333333,60,"no effect"
"ssfOUT_60_12_4_VULTURE.38",0.364062701582061,-0.2361777085987,0.964303111762822,"ssf","mf.ss","exp","unif",50,"ssfOUT_60_12_4_VULTURE","VULTURE",4,0.0833333333333333,60,"no effect"
"ssfOUT_60_12_4_VULTURE.39",0.303181457478077,-0.293418458278184,0.899781373234339,"ssf","mf.ss","exp","unif",158,"ssfOUT_60_12_4_VULTURE","VULTURE",4,0.0833333333333333,60,"no effect"
"ssfOUT_60_12_4_VULTURE.40",0.243988075177386,-0.35100566150308,0.838981811857852,"ssf","mf.ss","exp","unif",500,"ssfOUT_60_12_4_VULTURE","VULTURE",4,0.0833333333333333,60,"no effect"
"ssfOUT_60_12_4_KINGCOBRA.1",17.0458246751507,-3812.83390262753,3846.92555197783,"ssf","mf.is","gamma","vonmises",5,"ssfOUT_60_12_4_KINGCOBRA","KINGCOBRA",4,0.0833333333333333,60,"no effect"
"ssfOUT_60_12_4_KINGCOBRA.2",17.0661506487779,-3791.05663781505,3825.1889391126,"ssf","mf.is","gamma","vonmises",15,"ssfOUT_60_12_4_KINGCOBRA","KINGCOBRA",4,0.0833333333333333,60,"no effect"
"ssfOUT_60_12_4_KINGCOBRA.3",16.0019577823232,-2336.68071203506,2368.68462759971,"ssf","mf.is","gamma","vonmises",50,"ssfOUT_60_12_4_KINGCOBRA","KINGCOBRA",4,0.0833333333333333,60,"no effect"
"ssfOUT_60_12_4_KINGCOBRA.4",15.9694097572299,-2477.29234264371,2509.23116215817,"ssf","mf.is","gamma","vonmises",158,"ssfOUT_60_12_4_KINGCOBRA","KINGCOBRA",4,0.0833333333333333,60,"no effect"
"ssfOUT_60_12_4_KINGCOBRA.5",15.9592313167121,-2502.79988803808,2534.7183506715,"ssf","mf.is","gamma","vonmises",500,"ssfOUT_60_12_4_KINGCOBRA","KINGCOBRA",4,0.0833333333333333,60,"no effect"
"ssfOUT_60_12_4_KINGCOBRA.6",17.206743634727,-3242.77266653384,3277.18615380329,"ssf","mf.is","gamma","unif",5,"ssfOUT_60_12_4_KINGCOBRA","KINGCOBRA",4,0.0833333333333333,60,"no effect"
"ssfOUT_60_12_4_KINGCOBRA.7",16.0622284094049,-2590.61560432007,2622.74006113887,"ssf","mf.is","gamma","unif",15,"ssfOUT_60_12_4_KINGCOBRA","KINGCOBRA",4,0.0833333333333333,60,"no effect"
"ssfOUT_60_12_4_KINGCOBRA.8",15.9600125067529,-2435.95564566818,2467.87567068169,"ssf","mf.is","gamma","unif",50,"ssfOUT_60_12_4_KINGCOBRA","KINGCOBRA",4,0.0833333333333333,60,"no effect"
"ssfOUT_60_12_4_KINGCOBRA.9",16.0000818570594,-2405.3262192043,2437.32638291842,"ssf","mf.is","gamma","unif",158,"ssfOUT_60_12_4_KINGCOBRA","KINGCOBRA",4,0.0833333333333333,60,"no effect"
"ssfOUT_60_12_4_KINGCOBRA.10",15.9767697832052,-2484.6366361476,2516.59017571401,"ssf","mf.is","gamma","unif",500,"ssfOUT_60_12_4_KINGCOBRA","KINGCOBRA",4,0.0833333333333333,60,"no effect"
"ssfOUT_60_12_4_KINGCOBRA.11",17.103492522076,-4065.41175755443,4099.61874259858,"ssf","mf.is","exp","vonmises",5,"ssfOUT_60_12_4_KINGCOBRA","KINGCOBRA",4,0.0833333333333333,60,"no effect"
"ssfOUT_60_12_4_KINGCOBRA.12",16.6447997305304,-3216.76987296795,3250.05947242901,"ssf","mf.is","exp","vonmises",15,"ssfOUT_60_12_4_KINGCOBRA","KINGCOBRA",4,0.0833333333333333,60,"no effect"
"ssfOUT_60_12_4_KINGCOBRA.13",16.4451302400076,-3244.00431892043,3276.89457940044,"ssf","mf.is","exp","vonmises",50,"ssfOUT_60_12_4_KINGCOBRA","KINGCOBRA",4,0.0833333333333333,60,"no effect"
"ssfOUT_60_12_4_KINGCOBRA.14",15.4212497302451,-2125.06966753507,2155.91216699556,"ssf","mf.is","exp","vonmises",158,"ssfOUT_60_12_4_KINGCOBRA","KINGCOBRA",4,0.0833333333333333,60,"no effect"
"ssfOUT_60_12_4_KINGCOBRA.15",15.5304401327751,-2029.25941185666,2060.32029212221,"ssf","mf.is","exp","vonmises",500,"ssfOUT_60_12_4_KINGCOBRA","KINGCOBRA",4,0.0833333333333333,60,"no effect"
"ssfOUT_60_12_4_KINGCOBRA.16",16.9861932589187,-4467.44707053986,4501.4194570577,"ssf","mf.is","exp","unif",5,"ssfOUT_60_12_4_KINGCOBRA","KINGCOBRA",4,0.0833333333333333,60,"no effect"
"ssfOUT_60_12_4_KINGCOBRA.17",17.0645055914331,-3619.30853649062,3653.43754767348,"ssf","mf.is","exp","unif",15,"ssfOUT_60_12_4_KINGCOBRA","KINGCOBRA",4,0.0833333333333333,60,"no effect"
"ssfOUT_60_12_4_KINGCOBRA.18",16.8494002906292,-2937.72308389956,2971.42188448081,"ssf","mf.is","exp","unif",50,"ssfOUT_60_12_4_KINGCOBRA","KINGCOBRA",4,0.0833333333333333,60,"no effect"
"ssfOUT_60_12_4_KINGCOBRA.19",15.445971767119,-1829.4148699357,1860.30681346994,"ssf","mf.is","exp","unif",158,"ssfOUT_60_12_4_KINGCOBRA","KINGCOBRA",4,0.0833333333333333,60,"no effect"
"ssfOUT_60_12_4_KINGCOBRA.20",15.5822268058176,-2189.78114544932,2220.94559906096,"ssf","mf.is","exp","unif",500,"ssfOUT_60_12_4_KINGCOBRA","KINGCOBRA",4,0.0833333333333333,60,"no effect"
"ssfOUT_60_12_4_KINGCOBRA.21",17.2341957417329,-3872.91000708156,3907.37839856503,"ssf","mf.ss","gamma","vonmises",5,"ssfOUT_60_12_4_KINGCOBRA","KINGCOBRA",4,0.0833333333333333,60,"no effect"
"ssfOUT_60_12_4_KINGCOBRA.22",17.0476513788431,-3729.92547377941,3764.0207765371,"ssf","mf.ss","gamma","vonmises",15,"ssfOUT_60_12_4_KINGCOBRA","KINGCOBRA",4,0.0833333333333333,60,"no effect"
"ssfOUT_60_12_4_KINGCOBRA.23",16.0347835653338,-2306.6881014417,2338.75766857237,"ssf","mf.ss","gamma","vonmises",50,"ssfOUT_60_12_4_KINGCOBRA","KINGCOBRA",4,0.0833333333333333,60,"no effect"
"ssfOUT_60_12_4_KINGCOBRA.24",15.9778262302998,-2465.65146916854,2497.60712162914,"ssf","mf.ss","gamma","vonmises",158,"ssfOUT_60_12_4_KINGCOBRA","KINGCOBRA",4,0.0833333333333333,60,"no effect"
"ssfOUT_60_12_4_KINGCOBRA.25",15.9643652237034,-2494.01753197166,2525.94626241907,"ssf","mf.ss","gamma","vonmises",500,"ssfOUT_60_12_4_KINGCOBRA","KINGCOBRA",4,0.0833333333333333,60,"no effect"
"ssfOUT_60_12_4_KINGCOBRA.26",17.3061651846438,-3217.84216793431,3252.45449830359,"ssf","mf.ss","gamma","unif",5,"ssfOUT_60_12_4_KINGCOBRA","KINGCOBRA",4,0.0833333333333333,60,"no effect"
"ssfOUT_60_12_4_KINGCOBRA.27",16.0236548867382,-2476.873031758,2508.92034153148,"ssf","mf.ss","gamma","unif",15,"ssfOUT_60_12_4_KINGCOBRA","KINGCOBRA",4,0.0833333333333333,60,"no effect"
"ssfOUT_60_12_4_KINGCOBRA.28",15.9754342194479,-2402.07246641193,2434.02333485083,"ssf","mf.ss","gamma","unif",50,"ssfOUT_60_12_4_KINGCOBRA","KINGCOBRA",4,0.0833333333333333,60,"no effect"
"ssfOUT_60_12_4_KINGCOBRA.29",15.9880808491311,-2394.53857892216,2426.51474062042,"ssf","mf.ss","gamma","unif",158,"ssfOUT_60_12_4_KINGCOBRA","KINGCOBRA",4,0.0833333333333333,60,"no effect"
"ssfOUT_60_12_4_KINGCOBRA.30",15.9574783601691,-2473.94374100832,2505.85869772866,"ssf","mf.ss","gamma","unif",500,"ssfOUT_60_12_4_KINGCOBRA","KINGCOBRA",4,0.0833333333333333,60,"no effect"
"ssfOUT_60_12_4_KINGCOBRA.31",17.441380000981,-3774.54859245347,3809.43135245543,"ssf","mf.ss","exp","vonmises",5,"ssfOUT_60_12_4_KINGCOBRA","KINGCOBRA",4,0.0833333333333333,60,"no effect"
"ssfOUT_60_12_4_KINGCOBRA.32",17.0720408414087,-3614.25876762748,3648.4028493103,"ssf","mf.ss","exp","vonmises",15,"ssfOUT_60_12_4_KINGCOBRA","KINGCOBRA",4,0.0833333333333333,60,"no effect"
"ssfOUT_60_12_4_KINGCOBRA.33",16.0022092539467,-2197.4026778931,2229.40709640099,"ssf","mf.ss","exp","vonmises",50,"ssfOUT_60_12_4_KINGCOBRA","KINGCOBRA",4,0.0833333333333333,60,"no effect"
"ssfOUT_60_12_4_KINGCOBRA.34",15.9806996202325,-2261.83717149474,2293.7985707352,"ssf","mf.ss","exp","vonmises",158,"ssfOUT_60_12_4_KINGCOBRA","KINGCOBRA",4,0.0833333333333333,60,"no effect"
"ssfOUT_60_12_4_KINGCOBRA.35",15.9827648183847,-2228.11154261391,2260.07707225068,"ssf","mf.ss","exp","vonmises",500,"ssfOUT_60_12_4_KINGCOBRA","KINGCOBRA",4,0.0833333333333333,60,"no effect"
"ssfOUT_60_12_4_KINGCOBRA.36",17.1777436703376,-4487.7428995132,4522.09838685387,"ssf","mf.ss","exp","unif",5,"ssfOUT_60_12_4_KINGCOBRA","KINGCOBRA",4,0.0833333333333333,60,"no effect"
"ssfOUT_60_12_4_KINGCOBRA.37",17.127561133381,-3525.30925510487,3559.56437737163,"ssf","mf.ss","exp","unif",15,"ssfOUT_60_12_4_KINGCOBRA","KINGCOBRA",4,0.0833333333333333,60,"no effect"
"ssfOUT_60_12_4_KINGCOBRA.38",15.9808064891103,-2396.14975388795,2428.11136686617,"ssf","mf.ss","exp","unif",50,"ssfOUT_60_12_4_KINGCOBRA","KINGCOBRA",4,0.0833333333333333,60,"no effect"
"ssfOUT_60_12_4_KINGCOBRA.39",15.9788417765313,-2203.27124952847,2235.22893308153,"ssf","mf.ss","exp","unif",158,"ssfOUT_60_12_4_KINGCOBRA","KINGCOBRA",4,0.0833333333333333,60,"no effect"
"ssfOUT_60_12_4_KINGCOBRA.40",15.9619627349577,-2236.98988756258,2268.91381303249,"ssf","mf.ss","exp","unif",500,"ssfOUT_60_12_4_KINGCOBRA","KINGCOBRA",4,0.0833333333333333,60,"no effect"
"ssfOUT_60_24_1_BADGER.1",16.6938216104026,-5220.46066120365,5253.84830442446,"ssf","mf.is","gamma","vonmises",5,"ssfOUT_60_24_1_BADGER","BADGER",1,0.0416666666666667,60,"no effect"
"ssfOUT_60_24_1_BADGER.2",15.9752844399037,-4093.19865972114,4125.14922860095,"ssf","mf.is","gamma","vonmises",15,"ssfOUT_60_24_1_BADGER","BADGER",1,0.0416666666666667,60,"no effect"
"ssfOUT_60_24_1_BADGER.3",17.268288826131,-4309.17542235638,4343.71200000864,"ssf","mf.is","gamma","vonmises",50,"ssfOUT_60_24_1_BADGER","BADGER",1,0.0416666666666667,60,"no effect"
"ssfOUT_60_24_1_BADGER.4",16.4251369906486,-3173.53888505459,3206.38915903589,"ssf","mf.is","gamma","vonmises",158,"ssfOUT_60_24_1_BADGER","BADGER",1,0.0416666666666667,60,"no effect"
"ssfOUT_60_24_1_BADGER.5",16.3675774180185,-3184.24399335784,3216.97914819387,"ssf","mf.is","gamma","vonmises",500,"ssfOUT_60_24_1_BADGER","BADGER",1,0.0416666666666667,60,"no effect"
"ssfOUT_60_24_1_BADGER.6",18.2078427473493,-6200.84402553904,6237.25971103374,"ssf","mf.is","gamma","unif",5,"ssfOUT_60_24_1_BADGER","BADGER",1,0.0416666666666667,60,"no effect"
"ssfOUT_60_24_1_BADGER.7",16.3911397619435,-3544.0784789518,3576.86075847569,"ssf","mf.is","gamma","unif",15,"ssfOUT_60_24_1_BADGER","BADGER",1,0.0416666666666667,60,"no effect"
"ssfOUT_60_24_1_BADGER.8",16.998209529385,-4619.68458219941,4653.68100125818,"ssf","mf.is","gamma","unif",50,"ssfOUT_60_24_1_BADGER","BADGER",1,0.0416666666666667,60,"no effect"
"ssfOUT_60_24_1_BADGER.9",16.0667044854518,-2854.75913532499,2886.8925442959,"ssf","mf.is","gamma","unif",158,"ssfOUT_60_24_1_BADGER","BADGER",1,0.0416666666666667,60,"no effect"
"ssfOUT_60_24_1_BADGER.10",16.0451010417419,-2778.45466227225,2810.54486435574,"ssf","mf.is","gamma","unif",500,"ssfOUT_60_24_1_BADGER","BADGER",1,0.0416666666666667,60,"no effect"
"ssfOUT_60_24_1_BADGER.11",15.3047916344151,-7313.66059525175,7344.27017852058,"ssf","mf.is","exp","vonmises",5,"ssfOUT_60_24_1_BADGER","BADGER",1,0.0416666666666667,60,"no effect"
"ssfOUT_60_24_1_BADGER.12",16.1787180607498,-3978.97709935178,4011.33453547328,"ssf","mf.is","exp","vonmises",15,"ssfOUT_60_24_1_BADGER","BADGER",1,0.0416666666666667,60,"no effect"
"ssfOUT_60_24_1_BADGER.13",17.1453106381788,-5220.16342242917,5254.45404370552,"ssf","mf.is","exp","vonmises",50,"ssfOUT_60_24_1_BADGER","BADGER",1,0.0416666666666667,60,"no effect"
"ssfOUT_60_24_1_BADGER.14",16.1579802435362,-3014.94105751367,3047.25701800074,"ssf","mf.is","exp","vonmises",158,"ssfOUT_60_24_1_BADGER","BADGER",1,0.0416666666666667,60,"no effect"
"ssfOUT_60_24_1_BADGER.15",16.2392612835061,-3156.08791423866,3188.56643680567,"ssf","mf.is","exp","vonmises",500,"ssfOUT_60_24_1_BADGER","BADGER",1,0.0416666666666667,60,"no effect"
"ssfOUT_60_24_1_BADGER.16",17.9082831166137,-6624.31604372681,6660.13260996004,"ssf","mf.is","exp","unif",5,"ssfOUT_60_24_1_BADGER","BADGER",1,0.0416666666666667,60,"no effect"
"ssfOUT_60_24_1_BADGER.17",17.3847407406115,-5311.55252479916,5346.32200628038,"ssf","mf.is","exp","unif",15,"ssfOUT_60_24_1_BADGER","BADGER",1,0.0416666666666667,60,"no effect"
"ssfOUT_60_24_1_BADGER.18",16.1475300338349,-2899.86249967026,2932.15755973792,"ssf","mf.is","exp","unif",50,"ssfOUT_60_24_1_BADGER","BADGER",1,0.0416666666666667,60,"no effect"
"ssfOUT_60_24_1_BADGER.19",16.0631625167804,-2832.51495765942,2864.64128269298,"ssf","mf.is","exp","unif",158,"ssfOUT_60_24_1_BADGER","BADGER",1,0.0416666666666667,60,"no effect"
"ssfOUT_60_24_1_BADGER.20",16.0536290423328,-2843.36182647063,2875.46908455529,"ssf","mf.is","exp","unif",500,"ssfOUT_60_24_1_BADGER","BADGER",1,0.0416666666666667,60,"no effect"
"ssfOUT_60_24_1_BADGER.21",17.2535500476626,-4224.38570024395,4258.89280033927,"ssf","mf.ss","gamma","vonmises",5,"ssfOUT_60_24_1_BADGER","BADGER",1,0.0416666666666667,60,"no effect"
"ssfOUT_60_24_1_BADGER.22",16.0406932458902,-4037.51298509766,4069.59437158944,"ssf","mf.ss","gamma","vonmises",15,"ssfOUT_60_24_1_BADGER","BADGER",1,0.0416666666666667,60,"no effect"
"ssfOUT_60_24_1_BADGER.23",17.033525580788,-4241.90383421066,4275.97088537223,"ssf","mf.ss","gamma","vonmises",50,"ssfOUT_60_24_1_BADGER","BADGER",1,0.0416666666666667,60,"no effect"
"ssfOUT_60_24_1_BADGER.24",15.9966062090065,-2858.31814088693,2890.31135330494,"ssf","mf.ss","gamma","vonmises",158,"ssfOUT_60_24_1_BADGER","BADGER",1,0.0416666666666667,60,"no effect"
"ssfOUT_60_24_1_BADGER.25",15.997011976457,-2866.42227767817,2898.41630163108,"ssf","mf.ss","gamma","vonmises",500,"ssfOUT_60_24_1_BADGER","BADGER",1,0.0416666666666667,60,"no effect"
"ssfOUT_60_24_1_BADGER.26",18.2990960963139,-6379.17626690244,6415.77445909507,"ssf","mf.ss","gamma","unif",5,"ssfOUT_60_24_1_BADGER","BADGER",1,0.0416666666666667,60,"no effect"
"ssfOUT_60_24_1_BADGER.27",16.0760631438242,-3505.10767559348,3537.25980188113,"ssf","mf.ss","gamma","unif",15,"ssfOUT_60_24_1_BADGER","BADGER",1,0.0416666666666667,60,"no effect"
"ssfOUT_60_24_1_BADGER.28",16.0119103118025,-2727.45856956437,2759.48239018798,"ssf","mf.ss","gamma","unif",50,"ssfOUT_60_24_1_BADGER","BADGER",1,0.0416666666666667,60,"no effect"
"ssfOUT_60_24_1_BADGER.29",15.9873845990548,-2784.94505150721,2816.91982070532,"ssf","mf.ss","gamma","unif",158,"ssfOUT_60_24_1_BADGER","BADGER",1,0.0416666666666667,60,"no effect"
"ssfOUT_60_24_1_BADGER.30",15.9715648192133,-2731.50577559371,2763.44890523214,"ssf","mf.ss","gamma","unif",500,"ssfOUT_60_24_1_BADGER","BADGER",1,0.0416666666666667,60,"no effect"
"ssfOUT_60_24_1_BADGER.31",17.2860687774096,-6344.47958166319,6379.05171921801,"ssf","mf.ss","exp","vonmises",5,"ssfOUT_60_24_1_BADGER","BADGER",1,0.0416666666666667,60,"no effect"
"ssfOUT_60_24_1_BADGER.32",16.2224060469724,-3320.69691367708,3353.14172577103,"ssf","mf.ss","exp","vonmises",15,"ssfOUT_60_24_1_BADGER","BADGER",1,0.0416666666666667,60,"no effect"
"ssfOUT_60_24_1_BADGER.33",16.039726471955,-3140.380353588,3172.45980653191,"ssf","mf.ss","exp","vonmises",50,"ssfOUT_60_24_1_BADGER","BADGER",1,0.0416666666666667,60,"no effect"
"ssfOUT_60_24_1_BADGER.34",16.0549715498197,-2904.4765380011,2936.58648110074,"ssf","mf.ss","exp","vonmises",158,"ssfOUT_60_24_1_BADGER","BADGER",1,0.0416666666666667,60,"no effect"
"ssfOUT_60_24_1_BADGER.35",16.0437652050434,-2835.52117517808,2867.60870558817,"ssf","mf.ss","exp","vonmises",500,"ssfOUT_60_24_1_BADGER","BADGER",1,0.0416666666666667,60,"no effect"
"ssfOUT_60_24_1_BADGER.36",17.1113270371634,-4816.5078258784,4850.73047995273,"ssf","mf.ss","exp","unif",5,"ssfOUT_60_24_1_BADGER","BADGER",1,0.0416666666666667,60,"no effect"
"ssfOUT_60_24_1_BADGER.37",17.0452231516502,-5174.14871229956,5208.23915860286,"ssf","mf.ss","exp","unif",15,"ssfOUT_60_24_1_BADGER","BADGER",1,0.0416666666666667,60,"no effect"
"ssfOUT_60_24_1_BADGER.38",16.0263889048396,-2824.60509466711,2856.65787247679,"ssf","mf.ss","exp","unif",50,"ssfOUT_60_24_1_BADGER","BADGER",1,0.0416666666666667,60,"no effect"
"ssfOUT_60_24_1_BADGER.39",16.0509432854069,-2781.69448362499,2813.79637019581,"ssf","mf.ss","exp","unif",158,"ssfOUT_60_24_1_BADGER","BADGER",1,0.0416666666666667,60,"no effect"
"ssfOUT_60_24_1_BADGER.40",16.0236967061978,-2767.79876982133,2799.84616323372,"ssf","mf.ss","exp","unif",500,"ssfOUT_60_24_1_BADGER","BADGER",1,0.0416666666666667,60,"no effect"
"ssfOUT_60_24_1_VULTURE.1",19.323465726752,-8137.65677559184,8176.30370704534,"ssf","mf.is","gamma","vonmises",5,"ssfOUT_60_24_1_VULTURE","VULTURE",1,0.0416666666666667,60,"no effect"
"ssfOUT_60_24_1_VULTURE.2",18.5755769812191,-6684.45866413508,6721.60981809751,"ssf","mf.is","gamma","vonmises",15,"ssfOUT_60_24_1_VULTURE","VULTURE",1,0.0416666666666667,60,"no effect"
"ssfOUT_60_24_1_VULTURE.3",17.229959932364,-4521.05182111968,4555.51174098441,"ssf","mf.is","gamma","vonmises",50,"ssfOUT_60_24_1_VULTURE","VULTURE",1,0.0416666666666667,60,"no effect"
"ssfOUT_60_24_1_VULTURE.4",17.4922906425256,-3986.68604773541,4021.67062902046,"ssf","mf.is","gamma","vonmises",158,"ssfOUT_60_24_1_VULTURE","VULTURE",1,0.0416666666666667,60,"no effect"
"ssfOUT_60_24_1_VULTURE.5",16.5043619344045,-2670.46866310513,2703.47738697394,"ssf","mf.is","gamma","vonmises",500,"ssfOUT_60_24_1_VULTURE","VULTURE",1,0.0416666666666667,60,"no effect"
"ssfOUT_60_24_1_VULTURE.6",18.4452436561918,-6413.24502049249,6450.13550780488,"ssf","mf.is","gamma","unif",5,"ssfOUT_60_24_1_VULTURE","VULTURE",1,0.0416666666666667,60,"no effect"
"ssfOUT_60_24_1_VULTURE.7",17.5471183259799,-3675.03154095055,3710.12577760251,"ssf","mf.is","gamma","unif",15,"ssfOUT_60_24_1_VULTURE","VULTURE",1,0.0416666666666667,60,"no effect"
"ssfOUT_60_24_1_VULTURE.8",17.221204672438,-3929.85667749503,3964.29908683991,"ssf","mf.is","gamma","unif",50,"ssfOUT_60_24_1_VULTURE","VULTURE",1,0.0416666666666667,60,"no effect"
"ssfOUT_60_24_1_VULTURE.9",17.3427260964522,-3822.78406876167,3857.46952095457,"ssf","mf.is","gamma","unif",158,"ssfOUT_60_24_1_VULTURE","VULTURE",1,0.0416666666666667,60,"no effect"
"ssfOUT_60_24_1_VULTURE.10",16.298169690272,-2353.59419379569,2386.19053317623,"ssf","mf.is","gamma","unif",500,"ssfOUT_60_24_1_VULTURE","VULTURE",1,0.0416666666666667,60,"no effect"
"ssfOUT_60_24_1_VULTURE.11",16.576524462689,-10508.0039390314,10541.1569879568,"ssf","mf.is","exp","vonmises",5,"ssfOUT_60_24_1_VULTURE","VULTURE",1,0.0416666666666667,60,"no effect"
"ssfOUT_60_24_1_VULTURE.12",18.7363183129092,-6598.25379887206,6635.72643549788,"ssf","mf.is","exp","vonmises",15,"ssfOUT_60_24_1_VULTURE","VULTURE",1,0.0416666666666667,60,"no effect"
"ssfOUT_60_24_1_VULTURE.13",17.7152579191463,-5221.60085160881,5257.0313674471,"ssf","mf.is","exp","vonmises",50,"ssfOUT_60_24_1_VULTURE","VULTURE",1,0.0416666666666667,60,"no effect"
"ssfOUT_60_24_1_VULTURE.14",17.2832085965226,-3790.45314503418,3825.01956222722,"ssf","mf.is","exp","vonmises",158,"ssfOUT_60_24_1_VULTURE","VULTURE",1,0.0416666666666667,60,"no effect"
"ssfOUT_60_24_1_VULTURE.15",17.6368164640379,-4282.62674496504,4317.90037789311,"ssf","mf.is","exp","vonmises",500,"ssfOUT_60_24_1_VULTURE","VULTURE",1,0.0416666666666667,60,"no effect"
"ssfOUT_60_24_1_VULTURE.16",17.5559159737144,-5699.58710347784,5734.69893542527,"ssf","mf.is","exp","unif",5,"ssfOUT_60_24_1_VULTURE","VULTURE",1,0.0416666666666667,60,"no effect"
"ssfOUT_60_24_1_VULTURE.17",18.5308893529502,-6160.70232402679,6197.76410273269,"ssf","mf.is","exp","unif",15,"ssfOUT_60_24_1_VULTURE","VULTURE",1,0.0416666666666667,60,"no effect"
"ssfOUT_60_24_1_VULTURE.18",17.6863847036137,-4203.98341461459,4239.35618402182,"ssf","mf.is","exp","unif",50,"ssfOUT_60_24_1_VULTURE","VULTURE",1,0.0416666666666667,60,"no effect"
"ssfOUT_60_24_1_VULTURE.19",17.4094111218371,-3983.35672944732,4018.175551691,"ssf","mf.is","exp","unif",158,"ssfOUT_60_24_1_VULTURE","VULTURE",1,0.0416666666666667,60,"no effect"
"ssfOUT_60_24_1_VULTURE.20",17.4479410131101,-3933.16003789722,3968.05591992344,"ssf","mf.is","exp","unif",500,"ssfOUT_60_24_1_VULTURE","VULTURE",1,0.0416666666666667,60,"no effect"
"ssfOUT_60_24_1_VULTURE.21",17.43699870006,-4883.3157033997,4918.18970079982,"ssf","mf.ss","gamma","vonmises",5,"ssfOUT_60_24_1_VULTURE","VULTURE",1,0.0416666666666667,60,"no effect"
"ssfOUT_60_24_1_VULTURE.22",17.1431313078152,-3930.70649585807,3964.99275847371,"ssf","mf.ss","gamma","vonmises",15,"ssfOUT_60_24_1_VULTURE","VULTURE",1,0.0416666666666667,60,"no effect"
"ssfOUT_60_24_1_VULTURE.23",17.1405501204707,-4267.89757116122,4302.17867140216,"ssf","mf.ss","gamma","vonmises",50,"ssfOUT_60_24_1_VULTURE","VULTURE",1,0.0416666666666667,60,"no effect"
"ssfOUT_60_24_1_VULTURE.24",17.1270272650808,-3821.98920886644,3856.2432633966,"ssf","mf.ss","gamma","vonmises",158,"ssfOUT_60_24_1_VULTURE","VULTURE",1,0.0416666666666667,60,"no effect"
"ssfOUT_60_24_1_VULTURE.25",16.103068819122,-2494.01889437415,2526.2250320124,"ssf","mf.ss","gamma","vonmises",500,"ssfOUT_60_24_1_VULTURE","VULTURE",1,0.0416666666666667,60,"no effect"
"ssfOUT_60_24_1_VULTURE.26",18.4495700308337,-6388.31493886171,6425.21407892338,"ssf","mf.ss","gamma","unif",5,"ssfOUT_60_24_1_VULTURE","VULTURE",1,0.0416666666666667,60,"no effect"
"ssfOUT_60_24_1_VULTURE.27",17.2960614973432,-3631.5472745053,3666.13939749999,"ssf","mf.ss","gamma","unif",15,"ssfOUT_60_24_1_VULTURE","VULTURE",1,0.0416666666666667,60,"no effect"
"ssfOUT_60_24_1_VULTURE.28",17.1466501177811,-3853.22983388486,3887.52313412043,"ssf","mf.ss","gamma","unif",50,"ssfOUT_60_24_1_VULTURE","VULTURE",1,0.0416666666666667,60,"no effect"
"ssfOUT_60_24_1_VULTURE.29",17.1625175814676,-3750.97309480047,3785.29812996341,"ssf","mf.ss","gamma","unif",158,"ssfOUT_60_24_1_VULTURE","VULTURE",1,0.0416666666666667,60,"no effect"
"ssfOUT_60_24_1_VULTURE.30",16.1383691219386,-2315.98963962921,2348.26637787308,"ssf","mf.ss","gamma","unif",500,"ssfOUT_60_24_1_VULTURE","VULTURE",1,0.0416666666666667,60,"no effect"
"ssfOUT_60_24_1_VULTURE.31",17.3300699282705,-6344.79422801393,6379.45436787047,"ssf","mf.ss","exp","vonmises",5,"ssfOUT_60_24_1_VULTURE","VULTURE",1,0.0416666666666667,60,"no effect"
"ssfOUT_60_24_1_VULTURE.32",17.2297739770601,-4328.14575518536,4362.60530313948,"ssf","mf.ss","exp","vonmises",15,"ssfOUT_60_24_1_VULTURE","VULTURE",1,0.0416666666666667,60,"no effect"
"ssfOUT_60_24_1_VULTURE.33",17.1762292450006,-4567.07425344095,4601.42671193095,"ssf","mf.ss","exp","vonmises",50,"ssfOUT_60_24_1_VULTURE","VULTURE",1,0.0416666666666667,60,"no effect"
"ssfOUT_60_24_1_VULTURE.34",17.1435494273922,-4056.82833852376,4091.11543737854,"ssf","mf.ss","exp","vonmises",158,"ssfOUT_60_24_1_VULTURE","VULTURE",1,0.0416666666666667,60,"no effect"
"ssfOUT_60_24_1_VULTURE.35",16.1242221972409,-2470.49158780455,2502.74003219903,"ssf","mf.ss","exp","vonmises",500,"ssfOUT_60_24_1_VULTURE","VULTURE",1,0.0416666666666667,60,"no effect"
"ssfOUT_60_24_1_VULTURE.36",18.5324833041834,-6245.80375631342,6282.86872292179,"ssf","mf.ss","exp","unif",5,"ssfOUT_60_24_1_VULTURE","VULTURE",1,0.0416666666666667,60,"no effect"
"ssfOUT_60_24_1_VULTURE.37",17.2668703524462,-3520.5359307041,3555.06967140899,"ssf","mf.ss","exp","unif",15,"ssfOUT_60_24_1_VULTURE","VULTURE",1,0.0416666666666667,60,"no effect"
"ssfOUT_60_24_1_VULTURE.38",17.2098211157986,-4063.46723566369,4097.88687789529,"ssf","mf.ss","exp","unif",50,"ssfOUT_60_24_1_VULTURE","VULTURE",1,0.0416666666666667,60,"no effect"
"ssfOUT_60_24_1_VULTURE.39",17.1675467590722,-3911.12462791272,3945.45972143087,"ssf","mf.ss","exp","unif",158,"ssfOUT_60_24_1_VULTURE","VULTURE",1,0.0416666666666667,60,"no effect"
"ssfOUT_60_24_1_VULTURE.40",17.1690439826975,-3803.50872136038,3837.84680932577,"ssf","mf.ss","exp","unif",500,"ssfOUT_60_24_1_VULTURE","VULTURE",1,0.0416666666666667,60,"no effect"
"ssfOUT_60_24_1_KINGCOBRA.1",18.6930879607333,-8276.99450705737,8314.38068297884,"ssf","mf.is","gamma","vonmises",5,"ssfOUT_60_24_1_KINGCOBRA","KINGCOBRA",1,0.0416666666666667,60,"no effect"
"ssfOUT_60_24_1_KINGCOBRA.2",17.1983477206953,-5081.58336328527,5115.98005872666,"ssf","mf.is","gamma","vonmises",15,"ssfOUT_60_24_1_KINGCOBRA","KINGCOBRA",1,0.0416666666666667,60,"no effect"
"ssfOUT_60_24_1_KINGCOBRA.3",15.9509093487975,-3111.47780276077,3143.37962145837,"ssf","mf.is","gamma","vonmises",50,"ssfOUT_60_24_1_KINGCOBRA","KINGCOBRA",1,0.0416666666666667,60,"no effect"
"ssfOUT_60_24_1_KINGCOBRA.4",15.9499644624886,-3332.48566371952,3364.3855926445,"ssf","mf.is","gamma","vonmises",158,"ssfOUT_60_24_1_KINGCOBRA","KINGCOBRA",1,0.0416666666666667,60,"no effect"
"ssfOUT_60_24_1_KINGCOBRA.5",16.1325236990407,-3265.74356093759,3298.00860833567,"ssf","mf.is","gamma","vonmises",500,"ssfOUT_60_24_1_KINGCOBRA","KINGCOBRA",1,0.0416666666666667,60,"no effect"
"ssfOUT_60_24_1_KINGCOBRA.6",15.726383512618,-5198.64241231701,5230.09517934224,"ssf","mf.is","gamma","unif",5,"ssfOUT_60_24_1_KINGCOBRA","KINGCOBRA",1,0.0416666666666667,60,"no effect"
"ssfOUT_60_24_1_KINGCOBRA.7",17.1701372476514,-5553.65092925576,5587.99120375106,"ssf","mf.is","gamma","unif",15,"ssfOUT_60_24_1_KINGCOBRA","KINGCOBRA",1,0.0416666666666667,60,"no effect"
"ssfOUT_60_24_1_KINGCOBRA.8",16.0404562523412,-3078.28323110884,3110.36414361352,"ssf","mf.is","gamma","unif",50,"ssfOUT_60_24_1_KINGCOBRA","KINGCOBRA",1,0.0416666666666667,60,"no effect"
"ssfOUT_60_24_1_KINGCOBRA.9",16.0418919047862,-3438.98378019796,3471.06756400753,"ssf","mf.is","gamma","unif",158,"ssfOUT_60_24_1_KINGCOBRA","KINGCOBRA",1,0.0416666666666667,60,"no effect"
"ssfOUT_60_24_1_KINGCOBRA.10",16.0618475387032,-3342.17290455833,3374.29659963574,"ssf","mf.is","gamma","unif",500,"ssfOUT_60_24_1_KINGCOBRA","KINGCOBRA",1,0.0416666666666667,60,"no effect"
"ssfOUT_60_24_1_KINGCOBRA.11",17.4774868298831,-5372.4111309839,5407.36610464367,"ssf","mf.is","exp","vonmises",5,"ssfOUT_60_24_1_KINGCOBRA","KINGCOBRA",1,0.0416666666666667,60,"no effect"
"ssfOUT_60_24_1_KINGCOBRA.12",16.9006980692437,-6172.96176870759,6206.76316484608,"ssf","mf.is","exp","vonmises",15,"ssfOUT_60_24_1_KINGCOBRA","KINGCOBRA",1,0.0416666666666667,60,"no effect"
"ssfOUT_60_24_1_KINGCOBRA.13",15.9416139133459,-3366.31667212224,3398.19989994893,"ssf","mf.is","exp","vonmises",50,"ssfOUT_60_24_1_KINGCOBRA","KINGCOBRA",1,0.0416666666666667,60,"no effect"
"ssfOUT_60_24_1_KINGCOBRA.14",15.9358541681338,-3919.17409059181,3951.04579892808,"ssf","mf.is","exp","vonmises",158,"ssfOUT_60_24_1_KINGCOBRA","KINGCOBRA",1,0.0416666666666667,60,"no effect"
"ssfOUT_60_24_1_KINGCOBRA.15",16.0955816569921,-3563.60955565603,3595.80071897002,"ssf","mf.is","exp","vonmises",500,"ssfOUT_60_24_1_KINGCOBRA","KINGCOBRA",1,0.0416666666666667,60,"no effect"
"ssfOUT_60_24_1_KINGCOBRA.16",17.9900603020488,-6930.51015637909,6966.49027698319,"ssf","mf.is","exp","unif",5,"ssfOUT_60_24_1_KINGCOBRA","KINGCOBRA",1,0.0416666666666667,60,"no effect"
"ssfOUT_60_24_1_KINGCOBRA.17",16.4506880290192,-3518.5819272513,3551.48330330934,"ssf","mf.is","exp","unif",15,"ssfOUT_60_24_1_KINGCOBRA","KINGCOBRA",1,0.0416666666666667,60,"no effect"
"ssfOUT_60_24_1_KINGCOBRA.18",16.063248799046,-3035.85613700201,3067.9826346001,"ssf","mf.is","exp","unif",50,"ssfOUT_60_24_1_KINGCOBRA","KINGCOBRA",1,0.0416666666666667,60,"no effect"
"ssfOUT_60_24_1_KINGCOBRA.19",16.1492706210273,-3388.12352468588,3420.42206592794,"ssf","mf.is","exp","unif",158,"ssfOUT_60_24_1_KINGCOBRA","KINGCOBRA",1,0.0416666666666667,60,"no effect"
"ssfOUT_60_24_1_KINGCOBRA.20",15.9810043120758,-3264.99046385408,3296.95247247823,"ssf","mf.is","exp","unif",500,"ssfOUT_60_24_1_KINGCOBRA","KINGCOBRA",1,0.0416666666666667,60,"no effect"
"ssfOUT_60_24_1_KINGCOBRA.21",17.355852518129,-6344.23714954961,6378.94885458586,"ssf","mf.ss","gamma","vonmises",5,"ssfOUT_60_24_1_KINGCOBRA","KINGCOBRA",1,0.0416666666666667,60,"no effect"
"ssfOUT_60_24_1_KINGCOBRA.22",17.1109777911085,-5199.8793715897,5234.10132717192,"ssf","mf.ss","gamma","vonmises",15,"ssfOUT_60_24_1_KINGCOBRA","KINGCOBRA",1,0.0416666666666667,60,"no effect"
"ssfOUT_60_24_1_KINGCOBRA.23",16.0325376431326,-3275.90160513833,3307.96668042459,"ssf","mf.ss","gamma","vonmises",50,"ssfOUT_60_24_1_KINGCOBRA","KINGCOBRA",1,0.0416666666666667,60,"no effect"
"ssfOUT_60_24_1_KINGCOBRA.24",16.0525179386282,-3070.7244596841,3102.82949556136,"ssf","mf.ss","gamma","vonmises",158,"ssfOUT_60_24_1_KINGCOBRA","KINGCOBRA",1,0.0416666666666667,60,"no effect"
"ssfOUT_60_24_1_KINGCOBRA.25",16.0399590590082,-3071.05811509795,3103.13803321597,"ssf","mf.ss","gamma","vonmises",500,"ssfOUT_60_24_1_KINGCOBRA","KINGCOBRA",1,0.0416666666666667,60,"no effect"
"ssfOUT_60_24_1_KINGCOBRA.26",15.2537658460564,-4667.91573464136,4698.42326633348,"ssf","mf.ss","gamma","unif",5,"ssfOUT_60_24_1_KINGCOBRA","KINGCOBRA",1,0.0416666666666667,60,"no effect"
"ssfOUT_60_24_1_KINGCOBRA.27",16.1018112836527,-3354.53772503807,3386.74134760538,"ssf","mf.ss","gamma","unif",15,"ssfOUT_60_24_1_KINGCOBRA","KINGCOBRA",1,0.0416666666666667,60,"no effect"
"ssfOUT_60_24_1_KINGCOBRA.28",16.0639620081176,-2973.58289595651,3005.71081997275,"ssf","mf.ss","gamma","unif",50,"ssfOUT_60_24_1_KINGCOBRA","KINGCOBRA",1,0.0416666666666667,60,"no effect"
"ssfOUT_60_24_1_KINGCOBRA.29",16.0292049878778,-3346.87230308708,3378.93071306283,"ssf","mf.ss","gamma","unif",158,"ssfOUT_60_24_1_KINGCOBRA","KINGCOBRA",1,0.0416666666666667,60,"no effect"
"ssfOUT_60_24_1_KINGCOBRA.30",16.0112552394199,-3255.96084186151,3287.98335234035,"ssf","mf.ss","gamma","unif",500,"ssfOUT_60_24_1_KINGCOBRA","KINGCOBRA",1,0.0416666666666667,60,"no effect"
"ssfOUT_60_24_1_KINGCOBRA.31",16.2912278222681,-4439.19883085149,4471.78128649602,"ssf","mf.ss","exp","vonmises",5,"ssfOUT_60_24_1_KINGCOBRA","KINGCOBRA",1,0.0416666666666667,60,"no effect"
"ssfOUT_60_24_1_KINGCOBRA.32",16.0958175903343,-3843.16194865083,3875.3535838315,"ssf","mf.ss","exp","vonmises",15,"ssfOUT_60_24_1_KINGCOBRA","KINGCOBRA",1,0.0416666666666667,60,"no effect"
"ssfOUT_60_24_1_KINGCOBRA.33",16.0806115175686,-2990.77500654531,3022.93622958044,"ssf","mf.ss","exp","vonmises",50,"ssfOUT_60_24_1_KINGCOBRA","KINGCOBRA",1,0.0416666666666667,60,"no effect"
"ssfOUT_60_24_1_KINGCOBRA.34",16.0140470941042,-3442.50607399784,3474.53416818605,"ssf","mf.ss","exp","vonmises",158,"ssfOUT_60_24_1_KINGCOBRA","KINGCOBRA",1,0.0416666666666667,60,"no effect"
"ssfOUT_60_24_1_KINGCOBRA.35",16.035001416507,-3268.90395085565,3300.97395368866,"ssf","mf.ss","exp","vonmises",500,"ssfOUT_60_24_1_KINGCOBRA","KINGCOBRA",1,0.0416666666666667,60,"no effect"
"ssfOUT_60_24_1_KINGCOBRA.36",17.3046147895976,-6344.6041958225,6379.2134254017,"ssf","mf.ss","exp","unif",5,"ssfOUT_60_24_1_KINGCOBRA","KINGCOBRA",1,0.0416666666666667,60,"no effect"
"ssfOUT_60_24_1_KINGCOBRA.37",16.0995101256832,-3354.54795111083,3386.7469713622,"ssf","mf.ss","exp","unif",15,"ssfOUT_60_24_1_KINGCOBRA","KINGCOBRA",1,0.0416666666666667,60,"no effect"
"ssfOUT_60_24_1_KINGCOBRA.38",16.0500489499821,-2987.69358559737,3019.79368349733,"ssf","mf.ss","exp","unif",50,"ssfOUT_60_24_1_KINGCOBRA","KINGCOBRA",1,0.0416666666666667,60,"no effect"
"ssfOUT_60_24_1_KINGCOBRA.39",16.0292757020167,-3315.61355567488,3347.67210707891,"ssf","mf.ss","exp","unif",158,"ssfOUT_60_24_1_KINGCOBRA","KINGCOBRA",1,0.0416666666666667,60,"no effect"
"ssfOUT_60_24_1_KINGCOBRA.40",16.0371439877907,-3181.19463394621,3213.26892192179,"ssf","mf.ss","exp","unif",500,"ssfOUT_60_24_1_KINGCOBRA","KINGCOBRA",1,0.0416666666666667,60,"no effect"
"ssfOUT_60_24_2_BADGER.1",-0.589030465453218,-1.22600261672486,0.0479416858184282,"ssf","mf.is","gamma","vonmises",5,"ssfOUT_60_24_2_BADGER","BADGER",2,0.0416666666666667,60,"no effect"
"ssfOUT_60_24_2_BADGER.2",-0.950171583826029,-1.54564271461858,-0.354700453033481,"ssf","mf.is","gamma","vonmises",15,"ssfOUT_60_24_2_BADGER","BADGER",2,0.0416666666666667,60,"avoidance"
"ssfOUT_60_24_2_BADGER.3",-0.936005711056418,-1.49322899290444,-0.378782429208391,"ssf","mf.is","gamma","vonmises",50,"ssfOUT_60_24_2_BADGER","BADGER",2,0.0416666666666667,60,"avoidance"
"ssfOUT_60_24_2_BADGER.4",-0.592928697087505,-1.14504369384783,-0.0408137003271836,"ssf","mf.is","gamma","vonmises",158,"ssfOUT_60_24_2_BADGER","BADGER",2,0.0416666666666667,60,"avoidance"
"ssfOUT_60_24_2_BADGER.5",-0.769985930131362,-1.31843924528005,-0.22153261498267,"ssf","mf.is","gamma","vonmises",500,"ssfOUT_60_24_2_BADGER","BADGER",2,0.0416666666666667,60,"avoidance"
"ssfOUT_60_24_2_BADGER.6",-1.03527094471096,-1.73625387091472,-0.334288018507206,"ssf","mf.is","gamma","unif",5,"ssfOUT_60_24_2_BADGER","BADGER",2,0.0416666666666667,60,"avoidance"
"ssfOUT_60_24_2_BADGER.7",-0.834840814315494,-1.40543012961807,-0.264251499012921,"ssf","mf.is","gamma","unif",15,"ssfOUT_60_24_2_BADGER","BADGER",2,0.0416666666666667,60,"avoidance"
"ssfOUT_60_24_2_BADGER.8",-0.837672407088212,-1.39229889241363,-0.283045921762796,"ssf","mf.is","gamma","unif",50,"ssfOUT_60_24_2_BADGER","BADGER",2,0.0416666666666667,60,"avoidance"
"ssfOUT_60_24_2_BADGER.9",-0.688538203624354,-1.23867469786975,-0.138401709378959,"ssf","mf.is","gamma","unif",158,"ssfOUT_60_24_2_BADGER","BADGER",2,0.0416666666666667,60,"avoidance"
"ssfOUT_60_24_2_BADGER.10",-0.713684278509344,-1.26096299574113,-0.166405561277559,"ssf","mf.is","gamma","unif",500,"ssfOUT_60_24_2_BADGER","BADGER",2,0.0416666666666667,60,"avoidance"
"ssfOUT_60_24_2_BADGER.11",-0.421041450571671,-1.07715584455943,0.235072943416089,"ssf","mf.is","exp","vonmises",5,"ssfOUT_60_24_2_BADGER","BADGER",2,0.0416666666666667,60,"no effect"
"ssfOUT_60_24_2_BADGER.12",-1.02068420219216,-1.64722751000304,-0.394140894381278,"ssf","mf.is","exp","vonmises",15,"ssfOUT_60_24_2_BADGER","BADGER",2,0.0416666666666667,60,"avoidance"
"ssfOUT_60_24_2_BADGER.13",-0.726606419910174,-1.29240994527876,-0.160802894541587,"ssf","mf.is","exp","vonmises",50,"ssfOUT_60_24_2_BADGER","BADGER",2,0.0416666666666667,60,"avoidance"
"ssfOUT_60_24_2_BADGER.14",-0.70313494415551,-1.25650142589301,-0.149768462418008,"ssf","mf.is","exp","vonmises",158,"ssfOUT_60_24_2_BADGER","BADGER",2,0.0416666666666667,60,"avoidance"
"ssfOUT_60_24_2_BADGER.15",-0.643643638951953,-1.19179986336274,-0.09548741454117,"ssf","mf.is","exp","vonmises",500,"ssfOUT_60_24_2_BADGER","BADGER",2,0.0416666666666667,60,"avoidance"
"ssfOUT_60_24_2_BADGER.16",-0.471046084061058,-1.09627793147841,0.15418576335629,"ssf","mf.is","exp","unif",5,"ssfOUT_60_24_2_BADGER","BADGER",2,0.0416666666666667,60,"no effect"
"ssfOUT_60_24_2_BADGER.17",-0.73831112006552,-1.33286147199222,-0.143760768138818,"ssf","mf.is","exp","unif",15,"ssfOUT_60_24_2_BADGER","BADGER",2,0.0416666666666667,60,"avoidance"
"ssfOUT_60_24_2_BADGER.18",-0.77728897231043,-1.33627841034478,-0.218299534276076,"ssf","mf.is","exp","unif",50,"ssfOUT_60_24_2_BADGER","BADGER",2,0.0416666666666667,60,"avoidance"
"ssfOUT_60_24_2_BADGER.19",-0.681063739239549,-1.2340274057149,-0.128100072764195,"ssf","mf.is","exp","unif",158,"ssfOUT_60_24_2_BADGER","BADGER",2,0.0416666666666667,60,"avoidance"
"ssfOUT_60_24_2_BADGER.20",-0.700985516089688,-1.24941122350627,-0.152559808673109,"ssf","mf.is","exp","unif",500,"ssfOUT_60_24_2_BADGER","BADGER",2,0.0416666666666667,60,"avoidance"
"ssfOUT_60_24_2_BADGER.21",-0.417700917555717,-1.01579512319752,0.180393288086091,"ssf","mf.ss","gamma","vonmises",5,"ssfOUT_60_24_2_BADGER","BADGER",2,0.0416666666666667,60,"no effect"
"ssfOUT_60_24_2_BADGER.22",-0.895317338162041,-1.46839968464963,-0.32223499167445,"ssf","mf.ss","gamma","vonmises",15,"ssfOUT_60_24_2_BADGER","BADGER",2,0.0416666666666667,60,"avoidance"
"ssfOUT_60_24_2_BADGER.23",-0.934137101333447,-1.48949124998213,-0.37878295268476,"ssf","mf.ss","gamma","vonmises",50,"ssfOUT_60_24_2_BADGER","BADGER",2,0.0416666666666667,60,"avoidance"
"ssfOUT_60_24_2_BADGER.24",-0.642587703330868,-1.18784435377441,-0.0973310528873255,"ssf","mf.ss","gamma","vonmises",158,"ssfOUT_60_24_2_BADGER","BADGER",2,0.0416666666666667,60,"avoidance"
"ssfOUT_60_24_2_BADGER.25",-0.786771541751297,-1.33151061739751,-0.242032466105086,"ssf","mf.ss","gamma","vonmises",500,"ssfOUT_60_24_2_BADGER","BADGER",2,0.0416666666666667,60,"avoidance"
"ssfOUT_60_24_2_BADGER.26",-0.865901291158086,-1.52557055572077,-0.206232026595405,"ssf","mf.ss","gamma","unif",5,"ssfOUT_60_24_2_BADGER","BADGER",2,0.0416666666666667,60,"avoidance"
"ssfOUT_60_24_2_BADGER.27",-0.735499524150041,-1.30011237244723,-0.170886675852853,"ssf","mf.ss","gamma","unif",15,"ssfOUT_60_24_2_BADGER","BADGER",2,0.0416666666666667,60,"avoidance"
"ssfOUT_60_24_2_BADGER.28",-0.75765166808394,-1.30764128124028,-0.207662054927596,"ssf","mf.ss","gamma","unif",50,"ssfOUT_60_24_2_BADGER","BADGER",2,0.0416666666666667,60,"avoidance"
"ssfOUT_60_24_2_BADGER.29",-0.6815007003185,-1.2278559380522,-0.135145462584798,"ssf","mf.ss","gamma","unif",158,"ssfOUT_60_24_2_BADGER","BADGER",2,0.0416666666666667,60,"avoidance"
"ssfOUT_60_24_2_BADGER.30",-0.689916183712129,-1.23364173622108,-0.146190631203178,"ssf","mf.ss","gamma","unif",500,"ssfOUT_60_24_2_BADGER","BADGER",2,0.0416666666666667,60,"avoidance"
"ssfOUT_60_24_2_BADGER.31",-0.252186475304954,-0.856573475529969,0.352200524920061,"ssf","mf.ss","exp","vonmises",5,"ssfOUT_60_24_2_BADGER","BADGER",2,0.0416666666666667,60,"no effect"
"ssfOUT_60_24_2_BADGER.32",-0.87170404387756,-1.46139522438233,-0.282012863372786,"ssf","mf.ss","exp","vonmises",15,"ssfOUT_60_24_2_BADGER","BADGER",2,0.0416666666666667,60,"avoidance"
"ssfOUT_60_24_2_BADGER.33",-0.64680620890523,-1.20903300630475,-0.0845794115057154,"ssf","mf.ss","exp","vonmises",50,"ssfOUT_60_24_2_BADGER","BADGER",2,0.0416666666666667,60,"avoidance"
"ssfOUT_60_24_2_BADGER.34",-0.589985441217901,-1.14740789555214,-0.0325629868836652,"ssf","mf.ss","exp","vonmises",158,"ssfOUT_60_24_2_BADGER","BADGER",2,0.0416666666666667,60,"avoidance"
"ssfOUT_60_24_2_BADGER.35",-0.605290967843403,-1.15683202516829,-0.053749910518511,"ssf","mf.ss","exp","vonmises",500,"ssfOUT_60_24_2_BADGER","BADGER",2,0.0416666666666667,60,"avoidance"
"ssfOUT_60_24_2_BADGER.36",-0.418080129672095,-1.01327474057861,0.177114481234417,"ssf","mf.ss","exp","unif",5,"ssfOUT_60_24_2_BADGER","BADGER",2,0.0416666666666667,60,"no effect"
"ssfOUT_60_24_2_BADGER.37",-0.644847004483255,-1.22679519054993,-0.062898818416581,"ssf","mf.ss","exp","unif",15,"ssfOUT_60_24_2_BADGER","BADGER",2,0.0416666666666667,60,"avoidance"
"ssfOUT_60_24_2_BADGER.38",-0.666332184004098,-1.22207610060351,-0.11058826740469,"ssf","mf.ss","exp","unif",50,"ssfOUT_60_24_2_BADGER","BADGER",2,0.0416666666666667,60,"avoidance"
"ssfOUT_60_24_2_BADGER.39",-0.651229897237507,-1.20329839812266,-0.0991613963523563,"ssf","mf.ss","exp","unif",158,"ssfOUT_60_24_2_BADGER","BADGER",2,0.0416666666666667,60,"avoidance"
"ssfOUT_60_24_2_BADGER.40",-0.605585526696396,-1.15750382156436,-0.0536672318284347,"ssf","mf.ss","exp","unif",500,"ssfOUT_60_24_2_BADGER","BADGER",2,0.0416666666666667,60,"avoidance"
"ssfOUT_60_24_2_VULTURE.1",0.789198144089757,-0.110334638725677,1.68873092690519,"ssf","mf.is","gamma","vonmises",5,"ssfOUT_60_24_2_VULTURE","VULTURE",2,0.0416666666666667,60,"no effect"
"ssfOUT_60_24_2_VULTURE.2",0.139692746185286,-0.658304624436629,0.937690116807201,"ssf","mf.is","gamma","vonmises",15,"ssfOUT_60_24_2_VULTURE","VULTURE",2,0.0416666666666667,60,"no effect"
"ssfOUT_60_24_2_VULTURE.3",-0.229713153288616,-1.01631513144623,0.556888824868995,"ssf","mf.is","gamma","vonmises",50,"ssfOUT_60_24_2_VULTURE","VULTURE",2,0.0416666666666667,60,"no effect"
"ssfOUT_60_24_2_VULTURE.4",0.0935410644453873,-0.651472834188919,0.838554963079693,"ssf","mf.is","gamma","vonmises",158,"ssfOUT_60_24_2_VULTURE","VULTURE",2,0.0416666666666667,60,"no effect"
"ssfOUT_60_24_2_VULTURE.5",0.144954201355395,-0.595197052835336,0.885105455546127,"ssf","mf.is","gamma","vonmises",500,"ssfOUT_60_24_2_VULTURE","VULTURE",2,0.0416666666666667,60,"no effect"
"ssfOUT_60_24_2_VULTURE.6",-0.672864576156801,-1.59608450777275,0.250355355459149,"ssf","mf.is","gamma","unif",5,"ssfOUT_60_24_2_VULTURE","VULTURE",2,0.0416666666666667,60,"no effect"
"ssfOUT_60_24_2_VULTURE.7",-0.0633212784044728,-0.847822350738774,0.721179793929828,"ssf","mf.is","gamma","unif",15,"ssfOUT_60_24_2_VULTURE","VULTURE",2,0.0416666666666667,60,"no effect"
"ssfOUT_60_24_2_VULTURE.8",0.247288594591122,-0.498075386454395,0.992652575636639,"ssf","mf.is","gamma","unif",50,"ssfOUT_60_24_2_VULTURE","VULTURE",2,0.0416666666666667,60,"no effect"
"ssfOUT_60_24_2_VULTURE.9",-0.130368905906197,-0.870462368037735,0.609724556225341,"ssf","mf.is","gamma","unif",158,"ssfOUT_60_24_2_VULTURE","VULTURE",2,0.0416666666666667,60,"no effect"
"ssfOUT_60_24_2_VULTURE.10",0.0472289016129876,-0.691719766349503,0.786177569575478,"ssf","mf.is","gamma","unif",500,"ssfOUT_60_24_2_VULTURE","VULTURE",2,0.0416666666666667,60,"no effect"
"ssfOUT_60_24_2_VULTURE.11",-0.0432674029331811,-1.06408871075642,0.977553904890062,"ssf","mf.is","exp","vonmises",5,"ssfOUT_60_24_2_VULTURE","VULTURE",2,0.0416666666666667,60,"no effect"
"ssfOUT_60_24_2_VULTURE.12",-1.08130925821657,-2.03515098597836,-0.12746753045479,"ssf","mf.is","exp","vonmises",15,"ssfOUT_60_24_2_VULTURE","VULTURE",2,0.0416666666666667,60,"avoidance"
"ssfOUT_60_24_2_VULTURE.13",0.528619940407075,-0.245183087247838,1.30242296806199,"ssf","mf.is","exp","vonmises",50,"ssfOUT_60_24_2_VULTURE","VULTURE",2,0.0416666666666667,60,"no effect"
"ssfOUT_60_24_2_VULTURE.14",0.206158913169329,-0.537466978552132,0.949784804890791,"ssf","mf.is","exp","vonmises",158,"ssfOUT_60_24_2_VULTURE","VULTURE",2,0.0416666666666667,60,"no effect"
"ssfOUT_60_24_2_VULTURE.15",-0.140645934103295,-0.88202611306936,0.60073424486277,"ssf","mf.is","exp","vonmises",500,"ssfOUT_60_24_2_VULTURE","VULTURE",2,0.0416666666666667,60,"no effect"
"ssfOUT_60_24_2_VULTURE.16",0.710207591216948,-0.274270070785124,1.69468525321902,"ssf","mf.is","exp","unif",5,"ssfOUT_60_24_2_VULTURE","VULTURE",2,0.0416666666666667,60,"no effect"
"ssfOUT_60_24_2_VULTURE.17",-0.242226669664758,-1.02539508012589,0.540941740796376,"ssf","mf.is","exp","unif",15,"ssfOUT_60_24_2_VULTURE","VULTURE",2,0.0416666666666667,60,"no effect"
"ssfOUT_60_24_2_VULTURE.18",0.138444660997128,-0.615639301208425,0.892528623202681,"ssf","mf.is","exp","unif",50,"ssfOUT_60_24_2_VULTURE","VULTURE",2,0.0416666666666667,60,"no effect"
"ssfOUT_60_24_2_VULTURE.19",0.065167225695229,-0.676385445530008,0.806719896920466,"ssf","mf.is","exp","unif",158,"ssfOUT_60_24_2_VULTURE","VULTURE",2,0.0416666666666667,60,"no effect"
"ssfOUT_60_24_2_VULTURE.20",0.0739164644933294,-0.665790350593347,0.813623279580006,"ssf","mf.is","exp","unif",500,"ssfOUT_60_24_2_VULTURE","VULTURE",2,0.0416666666666667,60,"no effect"
"ssfOUT_60_24_2_VULTURE.21",0.149321537854608,-0.651833589628976,0.950476665338192,"ssf","mf.ss","gamma","vonmises",5,"ssfOUT_60_24_2_VULTURE","VULTURE",2,0.0416666666666667,60,"no effect"
"ssfOUT_60_24_2_VULTURE.22",-0.159519937655688,-0.918437485007159,0.599397609695783,"ssf","mf.ss","gamma","vonmises",15,"ssfOUT_60_24_2_VULTURE","VULTURE",2,0.0416666666666667,60,"no effect"
"ssfOUT_60_24_2_VULTURE.23",-0.21982215515152,-0.967061553605907,0.527417243302866,"ssf","mf.ss","gamma","vonmises",50,"ssfOUT_60_24_2_VULTURE","VULTURE",2,0.0416666666666667,60,"no effect"
"ssfOUT_60_24_2_VULTURE.24",-0.165142370335738,-0.903136601307755,0.572851860636279,"ssf","mf.ss","gamma","vonmises",158,"ssfOUT_60_24_2_VULTURE","VULTURE",2,0.0416666666666667,60,"no effect"
"ssfOUT_60_24_2_VULTURE.25",-0.170194815235203,-0.90491482823132,0.564525197760914,"ssf","mf.ss","gamma","vonmises",500,"ssfOUT_60_24_2_VULTURE","VULTURE",2,0.0416666666666667,60,"no effect"
"ssfOUT_60_24_2_VULTURE.26",-0.73709554418913,-1.59299068605634,0.118799597678083,"ssf","mf.ss","gamma","unif",5,"ssfOUT_60_24_2_VULTURE","VULTURE",2,0.0416666666666667,60,"no effect"
"ssfOUT_60_24_2_VULTURE.27",-0.135647690926953,-0.898536386552699,0.627241004698793,"ssf","mf.ss","gamma","unif",15,"ssfOUT_60_24_2_VULTURE","VULTURE",2,0.0416666666666667,60,"no effect"
"ssfOUT_60_24_2_VULTURE.28",0.169290898890086,-0.570582023289863,0.909163821070035,"ssf","mf.ss","gamma","unif",50,"ssfOUT_60_24_2_VULTURE","VULTURE",2,0.0416666666666667,60,"no effect"
"ssfOUT_60_24_2_VULTURE.29",-0.176868431529297,-0.912996669533425,0.559259806474832,"ssf","mf.ss","gamma","unif",158,"ssfOUT_60_24_2_VULTURE","VULTURE",2,0.0416666666666667,60,"no effect"
"ssfOUT_60_24_2_VULTURE.30",-0.052247337196477,-0.787193130481602,0.682698456088648,"ssf","mf.ss","gamma","unif",500,"ssfOUT_60_24_2_VULTURE","VULTURE",2,0.0416666666666667,60,"no effect"
"ssfOUT_60_24_2_VULTURE.31",0.397862213115217,-0.388571462332556,1.18429588856299,"ssf","mf.ss","exp","vonmises",5,"ssfOUT_60_24_2_VULTURE","VULTURE",2,0.0416666666666667,60,"no effect"
"ssfOUT_60_24_2_VULTURE.32",-0.609011496215427,-1.3991622489955,0.181139256564647,"ssf","mf.ss","exp","vonmises",15,"ssfOUT_60_24_2_VULTURE","VULTURE",2,0.0416666666666667,60,"no effect"
"ssfOUT_60_24_2_VULTURE.33",-0.0309014419782738,-0.783139221369633,0.721336337413085,"ssf","mf.ss","exp","vonmises",50,"ssfOUT_60_24_2_VULTURE","VULTURE",2,0.0416666666666667,60,"no effect"
"ssfOUT_60_24_2_VULTURE.34",-0.0710952159292128,-0.815057045454574,0.672866613596148,"ssf","mf.ss","exp","vonmises",158,"ssfOUT_60_24_2_VULTURE","VULTURE",2,0.0416666666666667,60,"no effect"
"ssfOUT_60_24_2_VULTURE.35",-0.225992059392487,-0.96902686564967,0.517042746864696,"ssf","mf.ss","exp","vonmises",500,"ssfOUT_60_24_2_VULTURE","VULTURE",2,0.0416666666666667,60,"no effect"
"ssfOUT_60_24_2_VULTURE.36",-0.514051846385791,-1.35189987831849,0.323796185546904,"ssf","mf.ss","exp","unif",5,"ssfOUT_60_24_2_VULTURE","VULTURE",2,0.0416666666666667,60,"no effect"
"ssfOUT_60_24_2_VULTURE.37",-0.154843247326661,-0.924956380092534,0.615269885439211,"ssf","mf.ss","exp","unif",15,"ssfOUT_60_24_2_VULTURE","VULTURE",2,0.0416666666666667,60,"no effect"
"ssfOUT_60_24_2_VULTURE.38",-0.0155273151178356,-0.766123739580079,0.735069109344408,"ssf","mf.ss","exp","unif",50,"ssfOUT_60_24_2_VULTURE","VULTURE",2,0.0416666666666667,60,"no effect"
"ssfOUT_60_24_2_VULTURE.39",0.0433855891152614,-0.699965033350146,0.786736211580668,"ssf","mf.ss","exp","unif",158,"ssfOUT_60_24_2_VULTURE","VULTURE",2,0.0416666666666667,60,"no effect"
"ssfOUT_60_24_2_VULTURE.40",-0.031037936075948,-0.771818512750233,0.709742640598337,"ssf","mf.ss","exp","unif",500,"ssfOUT_60_24_2_VULTURE","VULTURE",2,0.0416666666666667,60,"no effect"
"ssfOUT_60_24_2_KINGCOBRA.1",15.8771172904002,-4871.46879150914,4903.22302608994,"ssf","mf.is","gamma","vonmises",5,"ssfOUT_60_24_2_KINGCOBRA","KINGCOBRA",2,0.0416666666666667,60,"no effect"
"ssfOUT_60_24_2_KINGCOBRA.2",17.1262597677389,-5623.44509154328,5657.69761107876,"ssf","mf.is","gamma","vonmises",15,"ssfOUT_60_24_2_KINGCOBRA","KINGCOBRA",2,0.0416666666666667,60,"no effect"
"ssfOUT_60_24_2_KINGCOBRA.3",16.0767694248188,-3157.40523889229,3189.55877774193,"ssf","mf.is","gamma","vonmises",50,"ssfOUT_60_24_2_KINGCOBRA","KINGCOBRA",2,0.0416666666666667,60,"no effect"
"ssfOUT_60_24_2_KINGCOBRA.4",16.1673121453822,-2974.97879650544,3007.3134207962,"ssf","mf.is","gamma","vonmises",158,"ssfOUT_60_24_2_KINGCOBRA","KINGCOBRA",2,0.0416666666666667,60,"no effect"
"ssfOUT_60_24_2_KINGCOBRA.5",15.9835903128946,-2987.66099855592,3019.62817918171,"ssf","mf.is","gamma","vonmises",500,"ssfOUT_60_24_2_KINGCOBRA","KINGCOBRA",2,0.0416666666666667,60,"no effect"
"ssfOUT_60_24_2_KINGCOBRA.6",17.2559364476251,-4723.67505244172,4758.18692533697,"ssf","mf.is","gamma","unif",5,"ssfOUT_60_24_2_KINGCOBRA","KINGCOBRA",2,0.0416666666666667,60,"no effect"
"ssfOUT_60_24_2_KINGCOBRA.7",17.1461260631916,-4707.83882908802,4742.1310812144,"ssf","mf.is","gamma","unif",15,"ssfOUT_60_24_2_KINGCOBRA","KINGCOBRA",2,0.0416666666666667,60,"no effect"
"ssfOUT_60_24_2_KINGCOBRA.8",16.1179547551519,-2895.27816297892,2927.51407248923,"ssf","mf.is","gamma","unif",50,"ssfOUT_60_24_2_KINGCOBRA","KINGCOBRA",2,0.0416666666666667,60,"no effect"
"ssfOUT_60_24_2_KINGCOBRA.9",16.0733960296482,-3010.31475972233,3042.46155178162,"ssf","mf.is","gamma","unif",158,"ssfOUT_60_24_2_KINGCOBRA","KINGCOBRA",2,0.0416666666666667,60,"no effect"
"ssfOUT_60_24_2_KINGCOBRA.10",16.044641378255,-2808.51343264519,2840.6027154017,"ssf","mf.is","gamma","unif",500,"ssfOUT_60_24_2_KINGCOBRA","KINGCOBRA",2,0.0416666666666667,60,"no effect"
"ssfOUT_60_24_2_KINGCOBRA.11",18.8435164892609,-7070.99134729342,7108.67838027194,"ssf","mf.is","exp","vonmises",5,"ssfOUT_60_24_2_KINGCOBRA","KINGCOBRA",2,0.0416666666666667,60,"no effect"
"ssfOUT_60_24_2_KINGCOBRA.12",16.6837957747418,-5392.03450074136,5425.40209229084,"ssf","mf.is","exp","vonmises",15,"ssfOUT_60_24_2_KINGCOBRA","KINGCOBRA",2,0.0416666666666667,60,"no effect"
"ssfOUT_60_24_2_KINGCOBRA.13",16.0908745022993,-3399.87058532159,3432.05233432619,"ssf","mf.is","exp","vonmises",50,"ssfOUT_60_24_2_KINGCOBRA","KINGCOBRA",2,0.0416666666666667,60,"no effect"
"ssfOUT_60_24_2_KINGCOBRA.14",16.2045193392812,-3145.2935265663,3177.70256524486,"ssf","mf.is","exp","vonmises",158,"ssfOUT_60_24_2_KINGCOBRA","KINGCOBRA",2,0.0416666666666667,60,"no effect"
"ssfOUT_60_24_2_KINGCOBRA.15",16.1739407462307,-3063.87137380523,3096.2192552977,"ssf","mf.is","exp","vonmises",500,"ssfOUT_60_24_2_KINGCOBRA","KINGCOBRA",2,0.0416666666666667,60,"no effect"
"ssfOUT_60_24_2_KINGCOBRA.16",17.3974235154293,-5209.34212186369,5244.13696889455,"ssf","mf.is","exp","unif",5,"ssfOUT_60_24_2_KINGCOBRA","KINGCOBRA",2,0.0416666666666667,60,"no effect"
"ssfOUT_60_24_2_KINGCOBRA.17",16.4121217141626,-3627.18688071777,3660.01112414609,"ssf","mf.is","exp","unif",15,"ssfOUT_60_24_2_KINGCOBRA","KINGCOBRA",2,0.0416666666666667,60,"no effect"
"ssfOUT_60_24_2_KINGCOBRA.18",16.1649938540471,-3001.64596998956,3033.97595769765,"ssf","mf.is","exp","unif",50,"ssfOUT_60_24_2_KINGCOBRA","KINGCOBRA",2,0.0416666666666667,60,"no effect"
"ssfOUT_60_24_2_KINGCOBRA.19",16.0992914227392,-2927.56670338328,2959.76528622876,"ssf","mf.is","exp","unif",158,"ssfOUT_60_24_2_KINGCOBRA","KINGCOBRA",2,0.0416666666666667,60,"no effect"
"ssfOUT_60_24_2_KINGCOBRA.20",16.1014055812598,-3050.3799130896,3082.58272425212,"ssf","mf.is","exp","unif",500,"ssfOUT_60_24_2_KINGCOBRA","KINGCOBRA",2,0.0416666666666667,60,"no effect"
"ssfOUT_60_24_2_KINGCOBRA.21",16.2832539067754,-4439.23045070825,4471.7969585218,"ssf","mf.ss","gamma","vonmises",5,"ssfOUT_60_24_2_KINGCOBRA","KINGCOBRA",2,0.0416666666666667,60,"no effect"
"ssfOUT_60_24_2_KINGCOBRA.22",16.0434033581443,-3382.15968184159,3414.24648855787,"ssf","mf.ss","gamma","vonmises",15,"ssfOUT_60_24_2_KINGCOBRA","KINGCOBRA",2,0.0416666666666667,60,"no effect"
"ssfOUT_60_24_2_KINGCOBRA.23",15.9817221874563,-3191.46087771728,3223.42432209219,"ssf","mf.ss","gamma","vonmises",50,"ssfOUT_60_24_2_KINGCOBRA","KINGCOBRA",2,0.0416666666666667,60,"no effect"
"ssfOUT_60_24_2_KINGCOBRA.24",15.9259566404568,-2962.7216641901,2994.57357747101,"ssf","mf.ss","gamma","vonmises",158,"ssfOUT_60_24_2_KINGCOBRA","KINGCOBRA",2,0.0416666666666667,60,"no effect"
"ssfOUT_60_24_2_KINGCOBRA.25",15.9340513329877,-2995.64295149024,3027.51105415622,"ssf","mf.ss","gamma","vonmises",500,"ssfOUT_60_24_2_KINGCOBRA","KINGCOBRA",2,0.0416666666666667,60,"no effect"
"ssfOUT_60_24_2_KINGCOBRA.26",17.1504688152352,-4797.97611367032,4832.2770513008,"ssf","mf.ss","gamma","unif",5,"ssfOUT_60_24_2_KINGCOBRA","KINGCOBRA",2,0.0416666666666667,60,"no effect"
"ssfOUT_60_24_2_KINGCOBRA.27",17.0881331630397,-4751.0785224977,4785.25478882378,"ssf","mf.ss","gamma","unif",15,"ssfOUT_60_24_2_KINGCOBRA","KINGCOBRA",2,0.0416666666666667,60,"no effect"
"ssfOUT_60_24_2_KINGCOBRA.28",15.9496895097678,-2875.33832906362,2907.23770808316,"ssf","mf.ss","gamma","unif",50,"ssfOUT_60_24_2_KINGCOBRA","KINGCOBRA",2,0.0416666666666667,60,"no effect"
"ssfOUT_60_24_2_KINGCOBRA.29",15.9339301013467,-2988.21118799937,3020.07904820207,"ssf","mf.ss","gamma","unif",158,"ssfOUT_60_24_2_KINGCOBRA","KINGCOBRA",2,0.0416666666666667,60,"no effect"
"ssfOUT_60_24_2_KINGCOBRA.30",15.9361569912558,-2780.52888478056,2812.40119876307,"ssf","mf.ss","gamma","unif",500,"ssfOUT_60_24_2_KINGCOBRA","KINGCOBRA",2,0.0416666666666667,60,"no effect"
"ssfOUT_60_24_2_KINGCOBRA.31",17.4600289746303,-4729.1566622734,4764.07672022266,"ssf","mf.ss","exp","vonmises",5,"ssfOUT_60_24_2_KINGCOBRA","KINGCOBRA",2,0.0416666666666667,60,"no effect"
"ssfOUT_60_24_2_KINGCOBRA.32",17.0682104885816,-5222.77391989121,5256.91034086837,"ssf","mf.ss","exp","vonmises",15,"ssfOUT_60_24_2_KINGCOBRA","KINGCOBRA",2,0.0416666666666667,60,"no effect"
"ssfOUT_60_24_2_KINGCOBRA.33",15.9787992743299,-3309.6492810838,3341.60687963246,"ssf","mf.ss","exp","vonmises",50,"ssfOUT_60_24_2_KINGCOBRA","KINGCOBRA",2,0.0416666666666667,60,"no effect"
"ssfOUT_60_24_2_KINGCOBRA.34",15.948570584447,-3136.27994456608,3168.17708573497,"ssf","mf.ss","exp","vonmises",158,"ssfOUT_60_24_2_KINGCOBRA","KINGCOBRA",2,0.0416666666666667,60,"no effect"
"ssfOUT_60_24_2_KINGCOBRA.35",15.949190236035,-2992.45182291407,3024.35020338614,"ssf","mf.ss","exp","vonmises",500,"ssfOUT_60_24_2_KINGCOBRA","KINGCOBRA",2,0.0416666666666667,60,"no effect"
"ssfOUT_60_24_2_KINGCOBRA.36",17.136256693166,-5191.09005047766,5225.36256386399,"ssf","mf.ss","exp","unif",5,"ssfOUT_60_24_2_KINGCOBRA","KINGCOBRA",2,0.0416666666666667,60,"no effect"
"ssfOUT_60_24_2_KINGCOBRA.37",16.0813161648595,-3531.33749055981,3563.50012288952,"ssf","mf.ss","exp","unif",15,"ssfOUT_60_24_2_KINGCOBRA","KINGCOBRA",2,0.0416666666666667,60,"no effect"
"ssfOUT_60_24_2_KINGCOBRA.38",15.962031940359,-2898.63491455468,2930.5589784354,"ssf","mf.ss","exp","unif",50,"ssfOUT_60_24_2_KINGCOBRA","KINGCOBRA",2,0.0416666666666667,60,"no effect"
"ssfOUT_60_24_2_KINGCOBRA.39",15.9648592840564,-2838.23209461219,2870.16181318031,"ssf","mf.ss","exp","unif",158,"ssfOUT_60_24_2_KINGCOBRA","KINGCOBRA",2,0.0416666666666667,60,"no effect"
"ssfOUT_60_24_2_KINGCOBRA.40",15.9503044071532,-2954.16789472952,2986.06850354383,"ssf","mf.ss","exp","unif",500,"ssfOUT_60_24_2_KINGCOBRA","KINGCOBRA",2,0.0416666666666667,60,"no effect"
"ssfOUT_60_24_3_BADGER.1",0.320423269616981,-1.36698907575551,2.00783561498948,"ssf","mf.is","gamma","vonmises",5,"ssfOUT_60_24_3_BADGER","BADGER",3,0.0416666666666667,60,"no effect"
"ssfOUT_60_24_3_BADGER.2",0.537498137564105,-0.52278846858795,1.59778474371616,"ssf","mf.is","gamma","vonmises",15,"ssfOUT_60_24_3_BADGER","BADGER",3,0.0416666666666667,60,"no effect"
"ssfOUT_60_24_3_BADGER.3",0.62391912990364,-0.413727829275596,1.66156608908287,"ssf","mf.is","gamma","vonmises",50,"ssfOUT_60_24_3_BADGER","BADGER",3,0.0416666666666667,60,"no effect"
"ssfOUT_60_24_3_BADGER.4",0.533982951949308,-0.494522863112397,1.56248876701101,"ssf","mf.is","gamma","vonmises",158,"ssfOUT_60_24_3_BADGER","BADGER",3,0.0416666666666667,60,"no effect"
"ssfOUT_60_24_3_BADGER.5",0.33932009255549,-0.685593133907772,1.36423331901875,"ssf","mf.is","gamma","vonmises",500,"ssfOUT_60_24_3_BADGER","BADGER",3,0.0416666666666667,60,"no effect"
"ssfOUT_60_24_3_BADGER.6",0.523401378769921,-0.558672396416072,1.60547515395591,"ssf","mf.is","gamma","unif",5,"ssfOUT_60_24_3_BADGER","BADGER",3,0.0416666666666667,60,"no effect"
"ssfOUT_60_24_3_BADGER.7",0.499595329175767,-0.553464443051075,1.55265510140261,"ssf","mf.is","gamma","unif",15,"ssfOUT_60_24_3_BADGER","BADGER",3,0.0416666666666667,60,"no effect"
"ssfOUT_60_24_3_BADGER.8",0.716172337710356,-0.317508084147364,1.74985275956808,"ssf","mf.is","gamma","unif",50,"ssfOUT_60_24_3_BADGER","BADGER",3,0.0416666666666667,60,"no effect"
"ssfOUT_60_24_3_BADGER.9",0.503073791992946,-0.522983502999833,1.52913108698572,"ssf","mf.is","gamma","unif",158,"ssfOUT_60_24_3_BADGER","BADGER",3,0.0416666666666667,60,"no effect"
"ssfOUT_60_24_3_BADGER.10",0.541769918588244,-0.483080689381536,1.56662052655802,"ssf","mf.is","gamma","unif",500,"ssfOUT_60_24_3_BADGER","BADGER",3,0.0416666666666667,60,"no effect"
"ssfOUT_60_24_3_BADGER.11",0.31282228224183,-0.998095845215222,1.62374040969888,"ssf","mf.is","exp","vonmises",5,"ssfOUT_60_24_3_BADGER","BADGER",3,0.0416666666666667,60,"no effect"
"ssfOUT_60_24_3_BADGER.12",1.33825036244717,0.235626249540063,2.44087447535428,"ssf","mf.is","exp","vonmises",15,"ssfOUT_60_24_3_BADGER","BADGER",3,0.0416666666666667,60,"preference"
"ssfOUT_60_24_3_BADGER.13",0.162349597940455,-0.891359424583055,1.21605862046396,"ssf","mf.is","exp","vonmises",50,"ssfOUT_60_24_3_BADGER","BADGER",3,0.0416666666666667,60,"no effect"
"ssfOUT_60_24_3_BADGER.14",0.633697614196964,-0.398609717110481,1.66600494550441,"ssf","mf.is","exp","vonmises",158,"ssfOUT_60_24_3_BADGER","BADGER",3,0.0416666666666667,60,"no effect"
"ssfOUT_60_24_3_BADGER.15",0.340443763162952,-0.685129612677833,1.36601713900374,"ssf","mf.is","exp","vonmises",500,"ssfOUT_60_24_3_BADGER","BADGER",3,0.0416666666666667,60,"no effect"
"ssfOUT_60_24_3_BADGER.16",0.226864816006705,-0.923880087337841,1.37760971935125,"ssf","mf.is","exp","unif",5,"ssfOUT_60_24_3_BADGER","BADGER",3,0.0416666666666667,60,"no effect"
"ssfOUT_60_24_3_BADGER.17",1.03970772274174,-0.00972396384086593,2.08913940932435,"ssf","mf.is","exp","unif",15,"ssfOUT_60_24_3_BADGER","BADGER",3,0.0416666666666667,60,"no effect"
"ssfOUT_60_24_3_BADGER.18",0.516554905180268,-0.520802513979801,1.55391232434034,"ssf","mf.is","exp","unif",50,"ssfOUT_60_24_3_BADGER","BADGER",3,0.0416666666666667,60,"no effect"
"ssfOUT_60_24_3_BADGER.19",0.443326191895047,-0.586297118047822,1.47294950183792,"ssf","mf.is","exp","unif",158,"ssfOUT_60_24_3_BADGER","BADGER",3,0.0416666666666667,60,"no effect"
"ssfOUT_60_24_3_BADGER.20",0.419370499486654,-0.606422682316263,1.44516368128957,"ssf","mf.is","exp","unif",500,"ssfOUT_60_24_3_BADGER","BADGER",3,0.0416666666666667,60,"no effect"
"ssfOUT_60_24_3_BADGER.21",-1.31366125999221,-2.24786641760148,-0.37945610238295,"ssf","mf.ss","gamma","vonmises",5,"ssfOUT_60_24_3_BADGER","BADGER",3,0.0416666666666667,60,"avoidance"
"ssfOUT_60_24_3_BADGER.22",-0.154860880359963,-0.913340869144245,0.603619108424318,"ssf","mf.ss","gamma","vonmises",15,"ssfOUT_60_24_3_BADGER","BADGER",3,0.0416666666666667,60,"no effect"
"ssfOUT_60_24_3_BADGER.23",-0.189951065004597,-0.933154591250247,0.553252461241053,"ssf","mf.ss","gamma","vonmises",50,"ssfOUT_60_24_3_BADGER","BADGER",3,0.0416666666666667,60,"no effect"
"ssfOUT_60_24_3_BADGER.24",-0.280033622877513,-1.01814505790211,0.45807781214708,"ssf","mf.ss","gamma","vonmises",158,"ssfOUT_60_24_3_BADGER","BADGER",3,0.0416666666666667,60,"no effect"
"ssfOUT_60_24_3_BADGER.25",-0.304675730417446,-1.04347694959558,0.434125488760688,"ssf","mf.ss","gamma","vonmises",500,"ssfOUT_60_24_3_BADGER","BADGER",3,0.0416666666666667,60,"no effect"
"ssfOUT_60_24_3_BADGER.26",-0.282480562721472,-1.08536059023658,0.520399464793635,"ssf","mf.ss","gamma","unif",5,"ssfOUT_60_24_3_BADGER","BADGER",3,0.0416666666666667,60,"no effect"
"ssfOUT_60_24_3_BADGER.27",-0.147057682583482,-0.910536507095158,0.616421141928194,"ssf","mf.ss","gamma","unif",15,"ssfOUT_60_24_3_BADGER","BADGER",3,0.0416666666666667,60,"no effect"
"ssfOUT_60_24_3_BADGER.28",-0.0523268897058565,-0.797586051594301,0.692932272182588,"ssf","mf.ss","gamma","unif",50,"ssfOUT_60_24_3_BADGER","BADGER",3,0.0416666666666667,60,"no effect"
"ssfOUT_60_24_3_BADGER.29",-0.266976586710797,-1.00595276734482,0.471999593923226,"ssf","mf.ss","gamma","unif",158,"ssfOUT_60_24_3_BADGER","BADGER",3,0.0416666666666667,60,"no effect"
"ssfOUT_60_24_3_BADGER.30",-0.230816888420937,-0.969492755575397,0.507858978733523,"ssf","mf.ss","gamma","unif",500,"ssfOUT_60_24_3_BADGER","BADGER",3,0.0416666666666667,60,"no effect"
"ssfOUT_60_24_3_BADGER.31",-0.324403209436335,-1.13759409410127,0.488787675228597,"ssf","mf.ss","exp","vonmises",5,"ssfOUT_60_24_3_BADGER","BADGER",3,0.0416666666666667,60,"no effect"
"ssfOUT_60_24_3_BADGER.32",-0.0285005199985974,-0.786776258238777,0.729775218241582,"ssf","mf.ss","exp","vonmises",15,"ssfOUT_60_24_3_BADGER","BADGER",3,0.0416666666666667,60,"no effect"
"ssfOUT_60_24_3_BADGER.33",-0.510395693685408,-1.26971596626683,0.248924578896016,"ssf","mf.ss","exp","vonmises",50,"ssfOUT_60_24_3_BADGER","BADGER",3,0.0416666666666667,60,"no effect"
"ssfOUT_60_24_3_BADGER.34",-0.265271432579768,-1.00987281778828,0.479329952628745,"ssf","mf.ss","exp","vonmises",158,"ssfOUT_60_24_3_BADGER","BADGER",3,0.0416666666666667,60,"no effect"
"ssfOUT_60_24_3_BADGER.35",-0.243630866680958,-0.98611151255278,0.498849779190864,"ssf","mf.ss","exp","vonmises",500,"ssfOUT_60_24_3_BADGER","BADGER",3,0.0416666666666667,60,"no effect"
"ssfOUT_60_24_3_BADGER.36",-0.757308475779536,-1.61138245630586,0.0967655047467897,"ssf","mf.ss","exp","unif",5,"ssfOUT_60_24_3_BADGER","BADGER",3,0.0416666666666667,60,"no effect"
"ssfOUT_60_24_3_BADGER.37",-0.0927681360814046,-0.856925961319995,0.671389689157186,"ssf","mf.ss","exp","unif",15,"ssfOUT_60_24_3_BADGER","BADGER",3,0.0416666666666667,60,"no effect"
"ssfOUT_60_24_3_BADGER.38",-0.2815455090685,-1.0298864471393,0.466795429002296,"ssf","mf.ss","exp","unif",50,"ssfOUT_60_24_3_BADGER","BADGER",3,0.0416666666666667,60,"no effect"
"ssfOUT_60_24_3_BADGER.39",-0.31436112025648,-1.06277866458213,0.434056424069173,"ssf","mf.ss","exp","unif",158,"ssfOUT_60_24_3_BADGER","BADGER",3,0.0416666666666667,60,"no effect"
"ssfOUT_60_24_3_BADGER.40",-0.346036975778362,-1.08986596930851,0.397792017751787,"ssf","mf.ss","exp","unif",500,"ssfOUT_60_24_3_BADGER","BADGER",3,0.0416666666666667,60,"no effect"
"ssfOUT_60_24_3_VULTURE.1",0.373930747362486,-0.601592258381572,1.34945375310654,"ssf","mf.is","gamma","vonmises",5,"ssfOUT_60_24_3_VULTURE","VULTURE",3,0.0416666666666667,60,"no effect"
"ssfOUT_60_24_3_VULTURE.2",0.0686243418378815,-0.762653048295521,0.899901731971284,"ssf","mf.is","gamma","vonmises",15,"ssfOUT_60_24_3_VULTURE","VULTURE",3,0.0416666666666667,60,"no effect"
"ssfOUT_60_24_3_VULTURE.3",0.214843846306511,-0.537667429234534,0.967355121847556,"ssf","mf.is","gamma","vonmises",50,"ssfOUT_60_24_3_VULTURE","VULTURE",3,0.0416666666666667,60,"no effect"
"ssfOUT_60_24_3_VULTURE.4",0.227028248512548,-0.512133146566607,0.966189643591704,"ssf","mf.is","gamma","vonmises",158,"ssfOUT_60_24_3_VULTURE","VULTURE",3,0.0416666666666667,60,"no effect"
"ssfOUT_60_24_3_VULTURE.5",0.114898922468488,-0.619700028837231,0.849497873774207,"ssf","mf.is","gamma","vonmises",500,"ssfOUT_60_24_3_VULTURE","VULTURE",3,0.0416666666666667,60,"no effect"
"ssfOUT_60_24_3_VULTURE.6",0.476913316144143,-0.328130539888667,1.28195717217695,"ssf","mf.is","gamma","unif",5,"ssfOUT_60_24_3_VULTURE","VULTURE",3,0.0416666666666667,60,"no effect"
"ssfOUT_60_24_3_VULTURE.7",0.0715051600785451,-0.689759117973159,0.832769438130249,"ssf","mf.is","gamma","unif",15,"ssfOUT_60_24_3_VULTURE","VULTURE",3,0.0416666666666667,60,"no effect"
"ssfOUT_60_24_3_VULTURE.8",0.292133522077628,-0.451089881865786,1.03535692602104,"ssf","mf.is","gamma","unif",50,"ssfOUT_60_24_3_VULTURE","VULTURE",3,0.0416666666666667,60,"no effect"
"ssfOUT_60_24_3_VULTURE.9",0.0802617116609667,-0.655972063024336,0.816495486346269,"ssf","mf.is","gamma","unif",158,"ssfOUT_60_24_3_VULTURE","VULTURE",3,0.0416666666666667,60,"no effect"
"ssfOUT_60_24_3_VULTURE.10",0.154557700825124,-0.577966583168831,0.88708198481908,"ssf","mf.is","gamma","unif",500,"ssfOUT_60_24_3_VULTURE","VULTURE",3,0.0416666666666667,60,"no effect"
"ssfOUT_60_24_3_VULTURE.11",-0.943429125634834,-2.10835634282255,0.221498091552879,"ssf","mf.is","exp","vonmises",5,"ssfOUT_60_24_3_VULTURE","VULTURE",3,0.0416666666666667,60,"no effect"
"ssfOUT_60_24_3_VULTURE.12",-0.501043302890514,-1.34390664131793,0.341820035536906,"ssf","mf.is","exp","vonmises",15,"ssfOUT_60_24_3_VULTURE","VULTURE",3,0.0416666666666667,60,"no effect"
"ssfOUT_60_24_3_VULTURE.13",0.263006419399098,-0.516965656972409,1.0429784957706,"ssf","mf.is","exp","vonmises",50,"ssfOUT_60_24_3_VULTURE","VULTURE",3,0.0416666666666667,60,"no effect"
"ssfOUT_60_24_3_VULTURE.14",0.0840697927390274,-0.662273334414718,0.830412919892773,"ssf","mf.is","exp","vonmises",158,"ssfOUT_60_24_3_VULTURE","VULTURE",3,0.0416666666666667,60,"no effect"
"ssfOUT_60_24_3_VULTURE.15",0.341020607461777,-0.394161670959578,1.07620288588313,"ssf","mf.is","exp","vonmises",500,"ssfOUT_60_24_3_VULTURE","VULTURE",3,0.0416666666666667,60,"no effect"
"ssfOUT_60_24_3_VULTURE.16",0.442958492320179,-0.402344535802152,1.28826152044251,"ssf","mf.is","exp","unif",5,"ssfOUT_60_24_3_VULTURE","VULTURE",3,0.0416666666666667,60,"no effect"
"ssfOUT_60_24_3_VULTURE.17",0.139161347573808,-0.634006805713453,0.91232950086107,"ssf","mf.is","exp","unif",15,"ssfOUT_60_24_3_VULTURE","VULTURE",3,0.0416666666666667,60,"no effect"
"ssfOUT_60_24_3_VULTURE.18",0.247978496669276,-0.501789164836908,0.997746158175459,"ssf","mf.is","exp","unif",50,"ssfOUT_60_24_3_VULTURE","VULTURE",3,0.0416666666666667,60,"no effect"
"ssfOUT_60_24_3_VULTURE.19",0.0713345905356819,-0.666243108725448,0.808912289796812,"ssf","mf.is","exp","unif",158,"ssfOUT_60_24_3_VULTURE","VULTURE",3,0.0416666666666667,60,"no effect"
"ssfOUT_60_24_3_VULTURE.20",0.199707054637324,-0.535340160124536,0.934754269399185,"ssf","mf.is","exp","unif",500,"ssfOUT_60_24_3_VULTURE","VULTURE",3,0.0416666666666667,60,"no effect"
"ssfOUT_60_24_3_VULTURE.21",0.130885400998831,-0.657327092613705,0.919097894611368,"ssf","mf.ss","gamma","vonmises",5,"ssfOUT_60_24_3_VULTURE","VULTURE",3,0.0416666666666667,60,"no effect"
"ssfOUT_60_24_3_VULTURE.22",0.194865715694186,-0.570864188450289,0.960595619838662,"ssf","mf.ss","gamma","vonmises",15,"ssfOUT_60_24_3_VULTURE","VULTURE",3,0.0416666666666667,60,"no effect"
"ssfOUT_60_24_3_VULTURE.23",0.0757841258010118,-0.663870796197905,0.815439047799929,"ssf","mf.ss","gamma","vonmises",50,"ssfOUT_60_24_3_VULTURE","VULTURE",3,0.0416666666666667,60,"no effect"
"ssfOUT_60_24_3_VULTURE.24",-0.0357698232788964,-0.768844045249341,0.697304398691548,"ssf","mf.ss","gamma","vonmises",158,"ssfOUT_60_24_3_VULTURE","VULTURE",3,0.0416666666666667,60,"no effect"
"ssfOUT_60_24_3_VULTURE.25",-0.0760324973468301,-0.807253581099372,0.655188586405712,"ssf","mf.ss","gamma","vonmises",500,"ssfOUT_60_24_3_VULTURE","VULTURE",3,0.0416666666666667,60,"no effect"
"ssfOUT_60_24_3_VULTURE.26",0.726325149257893,-0.0578875494517705,1.51053784796756,"ssf","mf.ss","gamma","unif",5,"ssfOUT_60_24_3_VULTURE","VULTURE",3,0.0416666666666667,60,"no effect"
"ssfOUT_60_24_3_VULTURE.27",0.245450157763836,-0.505065019331248,0.99596533485892,"ssf","mf.ss","gamma","unif",15,"ssfOUT_60_24_3_VULTURE","VULTURE",3,0.0416666666666667,60,"no effect"
"ssfOUT_60_24_3_VULTURE.28",0.264668192494394,-0.470035740868516,0.999372125857304,"ssf","mf.ss","gamma","unif",50,"ssfOUT_60_24_3_VULTURE","VULTURE",3,0.0416666666666667,60,"no effect"
"ssfOUT_60_24_3_VULTURE.29",0.0885484770380865,-0.644231526319177,0.82132848039535,"ssf","mf.ss","gamma","unif",158,"ssfOUT_60_24_3_VULTURE","VULTURE",3,0.0416666666666667,60,"no effect"
"ssfOUT_60_24_3_VULTURE.30",0.0957831464741887,-0.634598549862746,0.826164842811124,"ssf","mf.ss","gamma","unif",500,"ssfOUT_60_24_3_VULTURE","VULTURE",3,0.0416666666666667,60,"no effect"
"ssfOUT_60_24_3_VULTURE.31",-0.046403354722681,-0.869909176244171,0.777102466798809,"ssf","mf.ss","exp","vonmises",5,"ssfOUT_60_24_3_VULTURE","VULTURE",3,0.0416666666666667,60,"no effect"
"ssfOUT_60_24_3_VULTURE.32",-0.288240231923537,-1.06276134078333,0.486280876936258,"ssf","mf.ss","exp","vonmises",15,"ssfOUT_60_24_3_VULTURE","VULTURE",3,0.0416666666666667,60,"no effect"
"ssfOUT_60_24_3_VULTURE.33",-0.215933190448584,-0.960332688245768,0.5284663073486,"ssf","mf.ss","exp","vonmises",50,"ssfOUT_60_24_3_VULTURE","VULTURE",3,0.0416666666666667,60,"no effect"
"ssfOUT_60_24_3_VULTURE.34",-0.256675831633519,-0.992681369234886,0.479329705967848,"ssf","mf.ss","exp","vonmises",158,"ssfOUT_60_24_3_VULTURE","VULTURE",3,0.0416666666666667,60,"no effect"
"ssfOUT_60_24_3_VULTURE.35",-0.0348574359410598,-0.767740662267565,0.698025790385446,"ssf","mf.ss","exp","vonmises",500,"ssfOUT_60_24_3_VULTURE","VULTURE",3,0.0416666666666667,60,"no effect"
"ssfOUT_60_24_3_VULTURE.36",0.437027816856832,-0.34292839306428,1.21698402677794,"ssf","mf.ss","exp","unif",5,"ssfOUT_60_24_3_VULTURE","VULTURE",3,0.0416666666666667,60,"no effect"
"ssfOUT_60_24_3_VULTURE.37",0.0168846091438756,-0.734764554327158,0.76853377261491,"ssf","mf.ss","exp","unif",15,"ssfOUT_60_24_3_VULTURE","VULTURE",3,0.0416666666666667,60,"no effect"
"ssfOUT_60_24_3_VULTURE.38",0.151641996592207,-0.588035671019399,0.891319664203812,"ssf","mf.ss","exp","unif",50,"ssfOUT_60_24_3_VULTURE","VULTURE",3,0.0416666666666667,60,"no effect"
"ssfOUT_60_24_3_VULTURE.39",-0.0118648017824397,-0.747796025788981,0.724066422224102,"ssf","mf.ss","exp","unif",158,"ssfOUT_60_24_3_VULTURE","VULTURE",3,0.0416666666666667,60,"no effect"
"ssfOUT_60_24_3_VULTURE.40",0.0776838361651311,-0.657617577850896,0.812985250181159,"ssf","mf.ss","exp","unif",500,"ssfOUT_60_24_3_VULTURE","VULTURE",3,0.0416666666666667,60,"no effect"
"ssfOUT_60_24_3_KINGCOBRA.1",-0.969658692033714,-2.4658092164232,0.526491832355773,"ssf","mf.is","gamma","vonmises",5,"ssfOUT_60_24_3_KINGCOBRA","KINGCOBRA",3,0.0416666666666667,60,"no effect"
"ssfOUT_60_24_3_KINGCOBRA.2",-0.995127429355287,-2.18771578900094,0.197460930290365,"ssf","mf.is","gamma","vonmises",15,"ssfOUT_60_24_3_KINGCOBRA","KINGCOBRA",3,0.0416666666666667,60,"no effect"
"ssfOUT_60_24_3_KINGCOBRA.3",-1.31272215269257,-2.43286083296209,-0.192583472423043,"ssf","mf.is","gamma","vonmises",50,"ssfOUT_60_24_3_KINGCOBRA","KINGCOBRA",3,0.0416666666666667,60,"avoidance"
"ssfOUT_60_24_3_KINGCOBRA.4",-0.32109778519187,-1.36142034688385,0.719224776500109,"ssf","mf.is","gamma","vonmises",158,"ssfOUT_60_24_3_KINGCOBRA","KINGCOBRA",3,0.0416666666666667,60,"no effect"
"ssfOUT_60_24_3_KINGCOBRA.5",-0.577271442751647,-1.60993447467234,0.455391589169041,"ssf","mf.is","gamma","vonmises",500,"ssfOUT_60_24_3_KINGCOBRA","KINGCOBRA",3,0.0416666666666667,60,"no effect"
"ssfOUT_60_24_3_KINGCOBRA.6",-0.277671664059535,-1.45135632359016,0.896012995471093,"ssf","mf.is","gamma","unif",5,"ssfOUT_60_24_3_KINGCOBRA","KINGCOBRA",3,0.0416666666666667,60,"no effect"
"ssfOUT_60_24_3_KINGCOBRA.7",0.313932501067118,-0.752677243745094,1.38054224587933,"ssf","mf.is","gamma","unif",15,"ssfOUT_60_24_3_KINGCOBRA","KINGCOBRA",3,0.0416666666666667,60,"no effect"
"ssfOUT_60_24_3_KINGCOBRA.8",-1.20651496201677,-2.26640453318406,-0.146625390849491,"ssf","mf.is","gamma","unif",50,"ssfOUT_60_24_3_KINGCOBRA","KINGCOBRA",3,0.0416666666666667,60,"avoidance"
"ssfOUT_60_24_3_KINGCOBRA.9",-0.267128143449072,-1.30391552605218,0.769659239154034,"ssf","mf.is","gamma","unif",158,"ssfOUT_60_24_3_KINGCOBRA","KINGCOBRA",3,0.0416666666666667,60,"no effect"
"ssfOUT_60_24_3_KINGCOBRA.10",-0.375070262684692,-1.40324000337141,0.653099478002023,"ssf","mf.is","gamma","unif",500,"ssfOUT_60_24_3_KINGCOBRA","KINGCOBRA",3,0.0416666666666667,60,"no effect"
"ssfOUT_60_24_3_KINGCOBRA.11",-0.130985885306263,-1.39056917119264,1.12859740058012,"ssf","mf.is","exp","vonmises",5,"ssfOUT_60_24_3_KINGCOBRA","KINGCOBRA",3,0.0416666666666667,60,"no effect"
"ssfOUT_60_24_3_KINGCOBRA.12",-1.71452498881045,-3.10852854474111,-0.320521432879787,"ssf","mf.is","exp","vonmises",15,"ssfOUT_60_24_3_KINGCOBRA","KINGCOBRA",3,0.0416666666666667,60,"avoidance"
"ssfOUT_60_24_3_KINGCOBRA.13",-0.334409817538386,-1.39516147801714,0.726341842940371,"ssf","mf.is","exp","vonmises",50,"ssfOUT_60_24_3_KINGCOBRA","KINGCOBRA",3,0.0416666666666667,60,"no effect"
"ssfOUT_60_24_3_KINGCOBRA.14",-0.151564273021895,-1.19003665291601,0.88690810687222,"ssf","mf.is","exp","vonmises",158,"ssfOUT_60_24_3_KINGCOBRA","KINGCOBRA",3,0.0416666666666667,60,"no effect"
"ssfOUT_60_24_3_KINGCOBRA.15",-0.415943915866927,-1.44835632518853,0.616468493454673,"ssf","mf.is","exp","vonmises",500,"ssfOUT_60_24_3_KINGCOBRA","KINGCOBRA",3,0.0416666666666667,60,"no effect"
"ssfOUT_60_24_3_KINGCOBRA.16",-0.793712217690399,-1.98960843939083,0.40218400401003,"ssf","mf.is","exp","unif",5,"ssfOUT_60_24_3_KINGCOBRA","KINGCOBRA",3,0.0416666666666667,60,"no effect"
"ssfOUT_60_24_3_KINGCOBRA.17",-1.02742888011377,-2.1402878092593,0.0854300490317657,"ssf","mf.is","exp","unif",15,"ssfOUT_60_24_3_KINGCOBRA","KINGCOBRA",3,0.0416666666666667,60,"no effect"
"ssfOUT_60_24_3_KINGCOBRA.18",-0.381979437628302,-1.42983891644172,0.665880041185116,"ssf","mf.is","exp","unif",50,"ssfOUT_60_24_3_KINGCOBRA","KINGCOBRA",3,0.0416666666666667,60,"no effect"
"ssfOUT_60_24_3_KINGCOBRA.19",-0.496910841018069,-1.53604446324079,0.542222781204648,"ssf","mf.is","exp","unif",158,"ssfOUT_60_24_3_KINGCOBRA","KINGCOBRA",3,0.0416666666666667,60,"no effect"
"ssfOUT_60_24_3_KINGCOBRA.20",-0.350976982777546,-1.38473979469603,0.682785829140941,"ssf","mf.is","exp","unif",500,"ssfOUT_60_24_3_KINGCOBRA","KINGCOBRA",3,0.0416666666666667,60,"no effect"
"ssfOUT_60_24_3_KINGCOBRA.21",-0.822047807250225,-2.05028376333902,0.406188148838564,"ssf","mf.ss","gamma","vonmises",5,"ssfOUT_60_24_3_KINGCOBRA","KINGCOBRA",3,0.0416666666666667,60,"no effect"
"ssfOUT_60_24_3_KINGCOBRA.22",-0.667643269549326,-1.74094511306076,0.405658573962109,"ssf","mf.ss","gamma","vonmises",15,"ssfOUT_60_24_3_KINGCOBRA","KINGCOBRA",3,0.0416666666666667,60,"no effect"
"ssfOUT_60_24_3_KINGCOBRA.23",-1.08768169559457,-2.13720009512964,-0.0381632960594984,"ssf","mf.ss","gamma","vonmises",50,"ssfOUT_60_24_3_KINGCOBRA","KINGCOBRA",3,0.0416666666666667,60,"avoidance"
"ssfOUT_60_24_3_KINGCOBRA.24",-0.591154729176737,-1.61304619193193,0.430736733578458,"ssf","mf.ss","gamma","vonmises",158,"ssfOUT_60_24_3_KINGCOBRA","KINGCOBRA",3,0.0416666666666667,60,"no effect"
"ssfOUT_60_24_3_KINGCOBRA.25",-0.887068716693624,-1.90470822000022,0.130570786612973,"ssf","mf.ss","gamma","vonmises",500,"ssfOUT_60_24_3_KINGCOBRA","KINGCOBRA",3,0.0416666666666667,60,"no effect"
"ssfOUT_60_24_3_KINGCOBRA.26",-0.419841146989604,-1.57897699211697,0.73929469813776,"ssf","mf.ss","gamma","unif",5,"ssfOUT_60_24_3_KINGCOBRA","KINGCOBRA",3,0.0416666666666667,60,"no effect"
"ssfOUT_60_24_3_KINGCOBRA.27",0.0926165262649498,-0.958030285388504,1.1432633379184,"ssf","mf.ss","gamma","unif",15,"ssfOUT_60_24_3_KINGCOBRA","KINGCOBRA",3,0.0416666666666667,60,"no effect"
"ssfOUT_60_24_3_KINGCOBRA.28",-1.17490361898074,-2.21388932202053,-0.135917915940962,"ssf","mf.ss","gamma","unif",50,"ssfOUT_60_24_3_KINGCOBRA","KINGCOBRA",3,0.0416666666666667,60,"avoidance"
"ssfOUT_60_24_3_KINGCOBRA.29",-0.537497213677802,-1.5606525559683,0.485658128612699,"ssf","mf.ss","gamma","unif",158,"ssfOUT_60_24_3_KINGCOBRA","KINGCOBRA",3,0.0416666666666667,60,"no effect"
"ssfOUT_60_24_3_KINGCOBRA.30",-0.539519292711092,-1.5573020456424,0.478263460220219,"ssf","mf.ss","gamma","unif",500,"ssfOUT_60_24_3_KINGCOBRA","KINGCOBRA",3,0.0416666666666667,60,"no effect"
"ssfOUT_60_24_3_KINGCOBRA.31",0.387256929839844,-0.704360531860064,1.47887439153975,"ssf","mf.ss","exp","vonmises",5,"ssfOUT_60_24_3_KINGCOBRA","KINGCOBRA",3,0.0416666666666667,60,"no effect"
"ssfOUT_60_24_3_KINGCOBRA.32",-1.45505865550732,-2.61413329276617,-0.295984018248478,"ssf","mf.ss","exp","vonmises",15,"ssfOUT_60_24_3_KINGCOBRA","KINGCOBRA",3,0.0416666666666667,60,"avoidance"
"ssfOUT_60_24_3_KINGCOBRA.33",-0.59184779256954,-1.62624844813755,0.442552862998465,"ssf","mf.ss","exp","vonmises",50,"ssfOUT_60_24_3_KINGCOBRA","KINGCOBRA",3,0.0416666666666667,60,"no effect"
"ssfOUT_60_24_3_KINGCOBRA.34",-0.486171126299104,-1.50668471865892,0.534342466060711,"ssf","mf.ss","exp","vonmises",158,"ssfOUT_60_24_3_KINGCOBRA","KINGCOBRA",3,0.0416666666666667,60,"no effect"
"ssfOUT_60_24_3_KINGCOBRA.35",-0.716388562668766,-1.73506424245809,0.302287117120559,"ssf","mf.ss","exp","vonmises",500,"ssfOUT_60_24_3_KINGCOBRA","KINGCOBRA",3,0.0416666666666667,60,"no effect"
"ssfOUT_60_24_3_KINGCOBRA.36",0.0935966361059892,-1.01018825486551,1.19738152707749,"ssf","mf.ss","exp","unif",5,"ssfOUT_60_24_3_KINGCOBRA","KINGCOBRA",3,0.0416666666666667,60,"no effect"
"ssfOUT_60_24_3_KINGCOBRA.37",-0.765648615952025,-1.85250187570885,0.321204643804804,"ssf","mf.ss","exp","unif",15,"ssfOUT_60_24_3_KINGCOBRA","KINGCOBRA",3,0.0416666666666667,60,"no effect"
"ssfOUT_60_24_3_KINGCOBRA.38",-0.503697681857201,-1.53102856027738,0.523633196562973,"ssf","mf.ss","exp","unif",50,"ssfOUT_60_24_3_KINGCOBRA","KINGCOBRA",3,0.0416666666666667,60,"no effect"
"ssfOUT_60_24_3_KINGCOBRA.39",-0.591235327164889,-1.6144469814083,0.431976327078522,"ssf","mf.ss","exp","unif",158,"ssfOUT_60_24_3_KINGCOBRA","KINGCOBRA",3,0.0416666666666667,60,"no effect"
"ssfOUT_60_24_3_KINGCOBRA.40",-0.497323797234378,-1.51500928581822,0.520361691349466,"ssf","mf.ss","exp","unif",500,"ssfOUT_60_24_3_KINGCOBRA","KINGCOBRA",3,0.0416666666666667,60,"no effect"
"ssfOUT_60_24_4_BADGER.1",-1.71205443459085,-2.85913657176069,-0.564972297421002,"ssf","mf.is","gamma","vonmises",5,"ssfOUT_60_24_4_BADGER","BADGER",4,0.0416666666666667,60,"avoidance"
"ssfOUT_60_24_4_BADGER.2",-0.870695277804507,-1.65842579658968,-0.0829647590193356,"ssf","mf.is","gamma","vonmises",15,"ssfOUT_60_24_4_BADGER","BADGER",4,0.0416666666666667,60,"avoidance"
"ssfOUT_60_24_4_BADGER.3",-1.08577486354356,-1.77091062057295,-0.400639106514178,"ssf","mf.is","gamma","vonmises",50,"ssfOUT_60_24_4_BADGER","BADGER",4,0.0416666666666667,60,"avoidance"
"ssfOUT_60_24_4_BADGER.4",-1.3129092836826,-1.95874488225154,-0.667073685113667,"ssf","mf.is","gamma","vonmises",158,"ssfOUT_60_24_4_BADGER","BADGER",4,0.0416666666666667,60,"avoidance"
"ssfOUT_60_24_4_BADGER.5",-1.08088118376964,-1.71297636534328,-0.448786002196002,"ssf","mf.is","gamma","vonmises",500,"ssfOUT_60_24_4_BADGER","BADGER",4,0.0416666666666667,60,"avoidance"
"ssfOUT_60_24_4_BADGER.6",-0.818815562682558,-1.56584817735431,-0.0717829480108074,"ssf","mf.is","gamma","unif",5,"ssfOUT_60_24_4_BADGER","BADGER",4,0.0416666666666667,60,"avoidance"
"ssfOUT_60_24_4_BADGER.7",-0.956188810752298,-1.62050963520543,-0.291867986299161,"ssf","mf.is","gamma","unif",15,"ssfOUT_60_24_4_BADGER","BADGER",4,0.0416666666666667,60,"avoidance"
"ssfOUT_60_24_4_BADGER.8",-1.11488319051311,-1.76126807097914,-0.468498310047072,"ssf","mf.is","gamma","unif",50,"ssfOUT_60_24_4_BADGER","BADGER",4,0.0416666666666667,60,"avoidance"
"ssfOUT_60_24_4_BADGER.9",-1.12133099612426,-1.75515746463046,-0.487504527618071,"ssf","mf.is","gamma","unif",158,"ssfOUT_60_24_4_BADGER","BADGER",4,0.0416666666666667,60,"avoidance"
"ssfOUT_60_24_4_BADGER.10",-1.17626580963309,-1.80708199847959,-0.545449620786589,"ssf","mf.is","gamma","unif",500,"ssfOUT_60_24_4_BADGER","BADGER",4,0.0416666666666667,60,"avoidance"
"ssfOUT_60_24_4_BADGER.11",-2.08518996638874,-3.14367955205741,-1.02670038072006,"ssf","mf.is","exp","vonmises",5,"ssfOUT_60_24_4_BADGER","BADGER",4,0.0416666666666667,60,"avoidance"
"ssfOUT_60_24_4_BADGER.12",-0.799732194519794,-1.52389628856598,-0.0755681004736042,"ssf","mf.is","exp","vonmises",15,"ssfOUT_60_24_4_BADGER","BADGER",4,0.0416666666666667,60,"avoidance"
"ssfOUT_60_24_4_BADGER.13",-1.36348582779409,-2.05342964536765,-0.673542010220528,"ssf","mf.is","exp","vonmises",50,"ssfOUT_60_24_4_BADGER","BADGER",4,0.0416666666666667,60,"avoidance"
"ssfOUT_60_24_4_BADGER.14",-1.42587877344098,-2.06927258686622,-0.782484960015754,"ssf","mf.is","exp","vonmises",158,"ssfOUT_60_24_4_BADGER","BADGER",4,0.0416666666666667,60,"avoidance"
"ssfOUT_60_24_4_BADGER.15",-1.10648879763826,-1.73973123066887,-0.473246364607652,"ssf","mf.is","exp","vonmises",500,"ssfOUT_60_24_4_BADGER","BADGER",4,0.0416666666666667,60,"avoidance"
"ssfOUT_60_24_4_BADGER.16",-2.74680640694971,-3.78150180492252,-1.7121110089769,"ssf","mf.is","exp","unif",5,"ssfOUT_60_24_4_BADGER","BADGER",4,0.0416666666666667,60,"avoidance"
"ssfOUT_60_24_4_BADGER.17",-1.28681840710452,-1.98928529419344,-0.584351520015598,"ssf","mf.is","exp","unif",15,"ssfOUT_60_24_4_BADGER","BADGER",4,0.0416666666666667,60,"avoidance"
"ssfOUT_60_24_4_BADGER.18",-1.11931729466404,-1.76397992319496,-0.474654666133116,"ssf","mf.is","exp","unif",50,"ssfOUT_60_24_4_BADGER","BADGER",4,0.0416666666666667,60,"avoidance"
"ssfOUT_60_24_4_BADGER.19",-1.08989260421397,-1.72508633410468,-0.454698874323252,"ssf","mf.is","exp","unif",158,"ssfOUT_60_24_4_BADGER","BADGER",4,0.0416666666666667,60,"avoidance"
"ssfOUT_60_24_4_BADGER.20",-1.0882537943562,-1.7179282957545,-0.4585792929579,"ssf","mf.is","exp","unif",500,"ssfOUT_60_24_4_BADGER","BADGER",4,0.0416666666666667,60,"avoidance"
"ssfOUT_60_24_4_BADGER.21",-1.30194357982166,-2.06445394053145,-0.539433219111859,"ssf","mf.ss","gamma","vonmises",5,"ssfOUT_60_24_4_BADGER","BADGER",4,0.0416666666666667,60,"avoidance"
"ssfOUT_60_24_4_BADGER.22",-0.845964065570777,-1.50411493250547,-0.187813198636084,"ssf","mf.ss","gamma","vonmises",15,"ssfOUT_60_24_4_BADGER","BADGER",4,0.0416666666666667,60,"avoidance"
"ssfOUT_60_24_4_BADGER.23",-0.914213934466045,-1.54735900298065,-0.281068865951445,"ssf","mf.ss","gamma","vonmises",50,"ssfOUT_60_24_4_BADGER","BADGER",4,0.0416666666666667,60,"avoidance"
"ssfOUT_60_24_4_BADGER.24",-0.94470294697314,-1.57054956589553,-0.31885632805075,"ssf","mf.ss","gamma","vonmises",158,"ssfOUT_60_24_4_BADGER","BADGER",4,0.0416666666666667,60,"avoidance"
"ssfOUT_60_24_4_BADGER.25",-0.943740043478165,-1.56817070688141,-0.319309380074919,"ssf","mf.ss","gamma","vonmises",500,"ssfOUT_60_24_4_BADGER","BADGER",4,0.0416666666666667,60,"avoidance"
"ssfOUT_60_24_4_BADGER.26",-0.473596920301872,-1.16216334240505,0.214969501801309,"ssf","mf.ss","gamma","unif",5,"ssfOUT_60_24_4_BADGER","BADGER",4,0.0416666666666667,60,"no effect"
"ssfOUT_60_24_4_BADGER.27",-1.08626097270789,-1.74236350474258,-0.43015844067321,"ssf","mf.ss","gamma","unif",15,"ssfOUT_60_24_4_BADGER","BADGER",4,0.0416666666666667,60,"avoidance"
"ssfOUT_60_24_4_BADGER.28",-1.17905069263797,-1.81498326718138,-0.543118118094558,"ssf","mf.ss","gamma","unif",50,"ssfOUT_60_24_4_BADGER","BADGER",4,0.0416666666666667,60,"avoidance"
"ssfOUT_60_24_4_BADGER.29",-1.02382192247505,-1.6512823396975,-0.396361505252609,"ssf","mf.ss","gamma","unif",158,"ssfOUT_60_24_4_BADGER","BADGER",4,0.0416666666666667,60,"avoidance"
"ssfOUT_60_24_4_BADGER.30",-1.09145624350397,-1.71553522637762,-0.467377260630314,"ssf","mf.ss","gamma","unif",500,"ssfOUT_60_24_4_BADGER","BADGER",4,0.0416666666666667,60,"avoidance"
"ssfOUT_60_24_4_BADGER.31",-1.53094299424388,-2.38716939668782,-0.674716591799933,"ssf","mf.ss","exp","vonmises",5,"ssfOUT_60_24_4_BADGER","BADGER",4,0.0416666666666667,60,"avoidance"
"ssfOUT_60_24_4_BADGER.32",-0.550379677505407,-1.19674546860444,0.0959861135936251,"ssf","mf.ss","exp","vonmises",15,"ssfOUT_60_24_4_BADGER","BADGER",4,0.0416666666666667,60,"no effect"
"ssfOUT_60_24_4_BADGER.33",-0.885912905958689,-1.52427305019652,-0.247552761720859,"ssf","mf.ss","exp","vonmises",50,"ssfOUT_60_24_4_BADGER","BADGER",4,0.0416666666666667,60,"avoidance"
"ssfOUT_60_24_4_BADGER.34",-0.966712967644385,-1.59928081860756,-0.334145116681208,"ssf","mf.ss","exp","vonmises",158,"ssfOUT_60_24_4_BADGER","BADGER",4,0.0416666666666667,60,"avoidance"
"ssfOUT_60_24_4_BADGER.35",-0.934151132609389,-1.56360184923206,-0.304700415986718,"ssf","mf.ss","exp","vonmises",500,"ssfOUT_60_24_4_BADGER","BADGER",4,0.0416666666666667,60,"avoidance"
"ssfOUT_60_24_4_BADGER.36",-1.44177745691967,-2.2561066812042,-0.627448232635135,"ssf","mf.ss","exp","unif",5,"ssfOUT_60_24_4_BADGER","BADGER",4,0.0416666666666667,60,"avoidance"
"ssfOUT_60_24_4_BADGER.37",-1.02952133005489,-1.68747771888549,-0.37156494122429,"ssf","mf.ss","exp","unif",15,"ssfOUT_60_24_4_BADGER","BADGER",4,0.0416666666666667,60,"avoidance"
"ssfOUT_60_24_4_BADGER.38",-0.792122132255747,-1.42809750326523,-0.156146761246263,"ssf","mf.ss","exp","unif",50,"ssfOUT_60_24_4_BADGER","BADGER",4,0.0416666666666667,60,"avoidance"
"ssfOUT_60_24_4_BADGER.39",-0.851871354070697,-1.48211167539354,-0.221631032747854,"ssf","mf.ss","exp","unif",158,"ssfOUT_60_24_4_BADGER","BADGER",4,0.0416666666666667,60,"avoidance"
"ssfOUT_60_24_4_BADGER.40",-0.846377041015667,-1.47632428090439,-0.216429801126941,"ssf","mf.ss","exp","unif",500,"ssfOUT_60_24_4_BADGER","BADGER",4,0.0416666666666667,60,"avoidance"
"ssfOUT_60_24_4_VULTURE.1",-0.215104729819644,-1.4799774717191,1.04976801207981,"ssf","mf.is","gamma","vonmises",5,"ssfOUT_60_24_4_VULTURE","VULTURE",4,0.0416666666666667,60,"no effect"
"ssfOUT_60_24_4_VULTURE.2",0.191746068017299,-0.968326358573687,1.35181849460828,"ssf","mf.is","gamma","vonmises",15,"ssfOUT_60_24_4_VULTURE","VULTURE",4,0.0416666666666667,60,"no effect"
"ssfOUT_60_24_4_VULTURE.3",0.122605598486337,-0.936868626698331,1.182079823671,"ssf","mf.is","gamma","vonmises",50,"ssfOUT_60_24_4_VULTURE","VULTURE",4,0.0416666666666667,60,"no effect"
"ssfOUT_60_24_4_VULTURE.4",0.670235787257125,-0.360099198681925,1.70057077319617,"ssf","mf.is","gamma","vonmises",158,"ssfOUT_60_24_4_VULTURE","VULTURE",4,0.0416666666666667,60,"no effect"
"ssfOUT_60_24_4_VULTURE.5",0.754645636839416,-0.269427201651438,1.77871847533027,"ssf","mf.is","gamma","vonmises",500,"ssfOUT_60_24_4_VULTURE","VULTURE",4,0.0416666666666667,60,"no effect"
"ssfOUT_60_24_4_VULTURE.6",1.13028569285636,0.0364394386535252,2.2241319470592,"ssf","mf.is","gamma","unif",5,"ssfOUT_60_24_4_VULTURE","VULTURE",4,0.0416666666666667,60,"preference"
"ssfOUT_60_24_4_VULTURE.7",0.721174986134673,-0.329204747569637,1.77155471983898,"ssf","mf.is","gamma","unif",15,"ssfOUT_60_24_4_VULTURE","VULTURE",4,0.0416666666666667,60,"no effect"
"ssfOUT_60_24_4_VULTURE.8",0.767984490451112,-0.26295834471926,1.79892732562148,"ssf","mf.is","gamma","unif",50,"ssfOUT_60_24_4_VULTURE","VULTURE",4,0.0416666666666667,60,"no effect"
"ssfOUT_60_24_4_VULTURE.9",0.690010629966551,-0.334573030857276,1.71459429079038,"ssf","mf.is","gamma","unif",158,"ssfOUT_60_24_4_VULTURE","VULTURE",4,0.0416666666666667,60,"no effect"
"ssfOUT_60_24_4_VULTURE.10",0.694336460576188,-0.329069674739543,1.71774259589192,"ssf","mf.is","gamma","unif",500,"ssfOUT_60_24_4_VULTURE","VULTURE",4,0.0416666666666667,60,"no effect"
"ssfOUT_60_24_4_VULTURE.11",-1.13526516815799,-2.44023736251084,0.16970702619485,"ssf","mf.is","exp","vonmises",5,"ssfOUT_60_24_4_VULTURE","VULTURE",4,0.0416666666666667,60,"no effect"
"ssfOUT_60_24_4_VULTURE.12",-0.160734201580065,-1.25615563498138,0.934687231821246,"ssf","mf.is","exp","vonmises",15,"ssfOUT_60_24_4_VULTURE","VULTURE",4,0.0416666666666667,60,"no effect"
"ssfOUT_60_24_4_VULTURE.13",0.16650408596812,-0.884632564376102,1.21764073631234,"ssf","mf.is","exp","vonmises",50,"ssfOUT_60_24_4_VULTURE","VULTURE",4,0.0416666666666667,60,"no effect"
"ssfOUT_60_24_4_VULTURE.14",0.885473378791429,-0.145854429086185,1.91680118666904,"ssf","mf.is","exp","vonmises",158,"ssfOUT_60_24_4_VULTURE","VULTURE",4,0.0416666666666667,60,"no effect"
"ssfOUT_60_24_4_VULTURE.15",0.676064009652624,-0.348791920585125,1.70091993989037,"ssf","mf.is","exp","vonmises",500,"ssfOUT_60_24_4_VULTURE","VULTURE",4,0.0416666666666667,60,"no effect"
"ssfOUT_60_24_4_VULTURE.16",1.19020412597867,0.0512776697552515,2.32913058220209,"ssf","mf.is","exp","unif",5,"ssfOUT_60_24_4_VULTURE","VULTURE",4,0.0416666666666667,60,"preference"
"ssfOUT_60_24_4_VULTURE.17",0.922199840761565,-0.158293023809944,2.00269270533307,"ssf","mf.is","exp","unif",15,"ssfOUT_60_24_4_VULTURE","VULTURE",4,0.0416666666666667,60,"no effect"
"ssfOUT_60_24_4_VULTURE.18",0.749221933012908,-0.286365921002599,1.78480978702842,"ssf","mf.is","exp","unif",50,"ssfOUT_60_24_4_VULTURE","VULTURE",4,0.0416666666666667,60,"no effect"
"ssfOUT_60_24_4_VULTURE.19",0.810114513991566,-0.216098053227889,1.83632708121102,"ssf","mf.is","exp","unif",158,"ssfOUT_60_24_4_VULTURE","VULTURE",4,0.0416666666666667,60,"no effect"
"ssfOUT_60_24_4_VULTURE.20",0.760882246766485,-0.263338467851161,1.78510296138413,"ssf","mf.is","exp","unif",500,"ssfOUT_60_24_4_VULTURE","VULTURE",4,0.0416666666666667,60,"no effect"
"ssfOUT_60_24_4_VULTURE.21",0.953120461765424,-0.104680763124391,2.01092168665524,"ssf","mf.ss","gamma","vonmises",5,"ssfOUT_60_24_4_VULTURE","VULTURE",4,0.0416666666666667,60,"no effect"
"ssfOUT_60_24_4_VULTURE.22",0.714728137668126,-0.331157075513627,1.76061335084988,"ssf","mf.ss","gamma","vonmises",15,"ssfOUT_60_24_4_VULTURE","VULTURE",4,0.0416666666666667,60,"no effect"
"ssfOUT_60_24_4_VULTURE.23",0.447154656695322,-0.580544734245812,1.47485404763646,"ssf","mf.ss","gamma","vonmises",50,"ssfOUT_60_24_4_VULTURE","VULTURE",4,0.0416666666666667,60,"no effect"
"ssfOUT_60_24_4_VULTURE.24",0.579676694779255,-0.443353122452782,1.60270651201129,"ssf","mf.ss","gamma","vonmises",158,"ssfOUT_60_24_4_VULTURE","VULTURE",4,0.0416666666666667,60,"no effect"
"ssfOUT_60_24_4_VULTURE.25",0.596360791380327,-0.425629315644666,1.61835089840532,"ssf","mf.ss","gamma","vonmises",500,"ssfOUT_60_24_4_VULTURE","VULTURE",4,0.0416666666666667,60,"no effect"
"ssfOUT_60_24_4_VULTURE.26",0.732486786293932,-0.330553037163306,1.79552660975117,"ssf","mf.ss","gamma","unif",5,"ssfOUT_60_24_4_VULTURE","VULTURE",4,0.0416666666666667,60,"no effect"
"ssfOUT_60_24_4_VULTURE.27",0.666194465249083,-0.373202135682698,1.70559106618086,"ssf","mf.ss","gamma","unif",15,"ssfOUT_60_24_4_VULTURE","VULTURE",4,0.0416666666666667,60,"no effect"
"ssfOUT_60_24_4_VULTURE.28",0.575869364391952,-0.4501552383803,1.6018939671642,"ssf","mf.ss","gamma","unif",50,"ssfOUT_60_24_4_VULTURE","VULTURE",4,0.0416666666666667,60,"no effect"
"ssfOUT_60_24_4_VULTURE.29",0.582944744838916,-0.439655900391712,1.60554539006954,"ssf","mf.ss","gamma","unif",158,"ssfOUT_60_24_4_VULTURE","VULTURE",4,0.0416666666666667,60,"no effect"
"ssfOUT_60_24_4_VULTURE.30",0.62705993256706,-0.394708297947588,1.64882816308171,"ssf","mf.ss","gamma","unif",500,"ssfOUT_60_24_4_VULTURE","VULTURE",4,0.0416666666666667,60,"no effect"
"ssfOUT_60_24_4_VULTURE.31",0.579539723128788,-0.489148033670509,1.64822747992808,"ssf","mf.ss","exp","vonmises",5,"ssfOUT_60_24_4_VULTURE","VULTURE",4,0.0416666666666667,60,"no effect"
"ssfOUT_60_24_4_VULTURE.32",0.384977690240755,-0.658123281344282,1.42807866182579,"ssf","mf.ss","exp","vonmises",15,"ssfOUT_60_24_4_VULTURE","VULTURE",4,0.0416666666666667,60,"no effect"
"ssfOUT_60_24_4_VULTURE.33",0.461744309899498,-0.568434303608695,1.49192292340769,"ssf","mf.ss","exp","vonmises",50,"ssfOUT_60_24_4_VULTURE","VULTURE",4,0.0416666666666667,60,"no effect"
"ssfOUT_60_24_4_VULTURE.34",0.549536809401712,-0.475109304915112,1.57418292371854,"ssf","mf.ss","exp","vonmises",158,"ssfOUT_60_24_4_VULTURE","VULTURE",4,0.0416666666666667,60,"no effect"
"ssfOUT_60_24_4_VULTURE.35",0.531634107318758,-0.492331154370185,1.5555993690077,"ssf","mf.ss","exp","vonmises",500,"ssfOUT_60_24_4_VULTURE","VULTURE",4,0.0416666666666667,60,"no effect"
"ssfOUT_60_24_4_VULTURE.36",0.34947880170674,-0.735907931917481,1.43486553533096,"ssf","mf.ss","exp","unif",5,"ssfOUT_60_24_4_VULTURE","VULTURE",4,0.0416666666666667,60,"no effect"
"ssfOUT_60_24_4_VULTURE.37",0.601693840920671,-0.443261924733089,1.64664960657443,"ssf","mf.ss","exp","unif",15,"ssfOUT_60_24_4_VULTURE","VULTURE",4,0.0416666666666667,60,"no effect"
"ssfOUT_60_24_4_VULTURE.38",0.769112632893382,-0.261499567926071,1.79972483371284,"ssf","mf.ss","exp","unif",50,"ssfOUT_60_24_4_VULTURE","VULTURE",4,0.0416666666666667,60,"no effect"
"ssfOUT_60_24_4_VULTURE.39",0.652300069348877,-0.37209968138282,1.67669982008057,"ssf","mf.ss","exp","unif",158,"ssfOUT_60_24_4_VULTURE","VULTURE",4,0.0416666666666667,60,"no effect"
"ssfOUT_60_24_4_VULTURE.40",0.606351768709079,-0.416761022490752,1.62946455990891,"ssf","mf.ss","exp","unif",500,"ssfOUT_60_24_4_VULTURE","VULTURE",4,0.0416666666666667,60,"no effect"
"ssfOUT_60_24_4_KINGCOBRA.1",16.8191097286083,-5825.74037454625,5859.37859400346,"ssf","mf.is","gamma","vonmises",5,"ssfOUT_60_24_4_KINGCOBRA","KINGCOBRA",4,0.0416666666666667,60,"no effect"
"ssfOUT_60_24_4_KINGCOBRA.2",17.3514898745181,-4588.99673756237,4623.6997173114,"ssf","mf.is","gamma","vonmises",15,"ssfOUT_60_24_4_KINGCOBRA","KINGCOBRA",4,0.0416666666666667,60,"no effect"
"ssfOUT_60_24_4_KINGCOBRA.3",16.0238200076633,-3239.71934061297,3271.7669806283,"ssf","mf.is","gamma","vonmises",50,"ssfOUT_60_24_4_KINGCOBRA","KINGCOBRA",4,0.0416666666666667,60,"no effect"
"ssfOUT_60_24_4_KINGCOBRA.4",16.1205278609163,-2726.26753832913,2758.50859405096,"ssf","mf.is","gamma","vonmises",158,"ssfOUT_60_24_4_KINGCOBRA","KINGCOBRA",4,0.0416666666666667,60,"no effect"
"ssfOUT_60_24_4_KINGCOBRA.5",16.1222013142303,-2687.0079583335,2719.25236096196,"ssf","mf.is","gamma","vonmises",500,"ssfOUT_60_24_4_KINGCOBRA","KINGCOBRA",4,0.0416666666666667,60,"no effect"
"ssfOUT_60_24_4_KINGCOBRA.6",16.8747177500881,-5887.51789004205,5921.26732554223,"ssf","mf.is","gamma","unif",5,"ssfOUT_60_24_4_KINGCOBRA","KINGCOBRA",4,0.0416666666666667,60,"no effect"
"ssfOUT_60_24_4_KINGCOBRA.7",17.2370532128532,-4582.84751189366,4617.32161831936,"ssf","mf.is","gamma","unif",15,"ssfOUT_60_24_4_KINGCOBRA","KINGCOBRA",4,0.0416666666666667,60,"no effect"
"ssfOUT_60_24_4_KINGCOBRA.8",17.2505536025372,-4491.60187982207,4526.10298702714,"ssf","mf.is","gamma","unif",50,"ssfOUT_60_24_4_KINGCOBRA","KINGCOBRA",4,0.0416666666666667,60,"no effect"
"ssfOUT_60_24_4_KINGCOBRA.9",16.0681653290066,-2877.07599221773,2909.21232287574,"ssf","mf.is","gamma","unif",158,"ssfOUT_60_24_4_KINGCOBRA","KINGCOBRA",4,0.0416666666666667,60,"no effect"
"ssfOUT_60_24_4_KINGCOBRA.10",16.0793684595822,-2758.25338340688,2790.41212032604,"ssf","mf.is","gamma","unif",500,"ssfOUT_60_24_4_KINGCOBRA","KINGCOBRA",4,0.0416666666666667,60,"no effect"
"ssfOUT_60_24_4_KINGCOBRA.11",15.5822308769587,-6021.47281183377,6052.63727358769,"ssf","mf.is","exp","vonmises",5,"ssfOUT_60_24_4_KINGCOBRA","KINGCOBRA",4,0.0416666666666667,60,"no effect"
"ssfOUT_60_24_4_KINGCOBRA.12",17.3068801140587,-4120.62396882653,4155.23772905465,"ssf","mf.is","exp","vonmises",15,"ssfOUT_60_24_4_KINGCOBRA","KINGCOBRA",4,0.0416666666666667,60,"no effect"
"ssfOUT_60_24_4_KINGCOBRA.13",16.2202388839588,-3252.08090929045,3284.52138705837,"ssf","mf.is","exp","vonmises",50,"ssfOUT_60_24_4_KINGCOBRA","KINGCOBRA",4,0.0416666666666667,60,"no effect"
"ssfOUT_60_24_4_KINGCOBRA.14",16.1243552228913,-2812.44616977808,2844.69488022386,"ssf","mf.is","exp","vonmises",158,"ssfOUT_60_24_4_KINGCOBRA","KINGCOBRA",4,0.0416666666666667,60,"no effect"
"ssfOUT_60_24_4_KINGCOBRA.15",16.1346987502506,-2852.41076705364,2884.68016455414,"ssf","mf.is","exp","vonmises",500,"ssfOUT_60_24_4_KINGCOBRA","KINGCOBRA",4,0.0416666666666667,60,"no effect"
"ssfOUT_60_24_4_KINGCOBRA.16",17.7668814564578,-5525.39554318117,5560.92930609409,"ssf","mf.is","exp","unif",5,"ssfOUT_60_24_4_KINGCOBRA","KINGCOBRA",4,0.0416666666666667,60,"no effect"
"ssfOUT_60_24_4_KINGCOBRA.17",17.363702994908,-4776.5346693201,4811.26207530991,"ssf","mf.is","exp","unif",15,"ssfOUT_60_24_4_KINGCOBRA","KINGCOBRA",4,0.0416666666666667,60,"no effect"
"ssfOUT_60_24_4_KINGCOBRA.18",17.0689355954866,-4607.02712774035,4641.16499893132,"ssf","mf.is","exp","unif",50,"ssfOUT_60_24_4_KINGCOBRA","KINGCOBRA",4,0.0416666666666667,60,"no effect"
"ssfOUT_60_24_4_KINGCOBRA.19",16.1250593136896,-2638.19298523072,2670.4431038581,"ssf","mf.is","exp","unif",158,"ssfOUT_60_24_4_KINGCOBRA","KINGCOBRA",4,0.0416666666666667,60,"no effect"
"ssfOUT_60_24_4_KINGCOBRA.20",16.092253355066,-2747.99997768735,2780.18448439748,"ssf","mf.is","exp","unif",500,"ssfOUT_60_24_4_KINGCOBRA","KINGCOBRA",4,0.0416666666666667,60,"no effect"
"ssfOUT_60_24_4_KINGCOBRA.21",16.3048509743052,-5441.23354107594,5473.84324302454,"ssf","mf.ss","gamma","vonmises",5,"ssfOUT_60_24_4_KINGCOBRA","KINGCOBRA",4,0.0416666666666667,60,"no effect"
"ssfOUT_60_24_4_KINGCOBRA.22",17.1749451529574,-5199.04048559988,5233.39037590579,"ssf","mf.ss","gamma","vonmises",15,"ssfOUT_60_24_4_KINGCOBRA","KINGCOBRA",4,0.0416666666666667,60,"no effect"
"ssfOUT_60_24_4_KINGCOBRA.23",16.0523746399506,-3190.13285809231,3222.23760737221,"ssf","mf.ss","gamma","vonmises",50,"ssfOUT_60_24_4_KINGCOBRA","KINGCOBRA",4,0.0416666666666667,60,"no effect"
"ssfOUT_60_24_4_KINGCOBRA.24",16.0467963576712,-2751.22885507022,2783.32244778557,"ssf","mf.ss","gamma","vonmises",158,"ssfOUT_60_24_4_KINGCOBRA","KINGCOBRA",4,0.0416666666666667,60,"no effect"
"ssfOUT_60_24_4_KINGCOBRA.25",16.0262522992223,-2693.52645857613,2725.57896317458,"ssf","mf.ss","gamma","vonmises",500,"ssfOUT_60_24_4_KINGCOBRA","KINGCOBRA",4,0.0416666666666667,60,"no effect"
"ssfOUT_60_24_4_KINGCOBRA.26",17.3579011778115,-5828.78108179148,5863.4968841471,"ssf","mf.ss","gamma","unif",5,"ssfOUT_60_24_4_KINGCOBRA","KINGCOBRA",4,0.0416666666666667,60,"no effect"
"ssfOUT_60_24_4_KINGCOBRA.27",17.1106149704651,-4598.98285312756,4633.20408306849,"ssf","mf.ss","gamma","unif",15,"ssfOUT_60_24_4_KINGCOBRA","KINGCOBRA",4,0.0416666666666667,60,"no effect"
"ssfOUT_60_24_4_KINGCOBRA.28",17.1152060638675,-4516.87941192496,4551.10982405269,"ssf","mf.ss","gamma","unif",50,"ssfOUT_60_24_4_KINGCOBRA","KINGCOBRA",4,0.0416666666666667,60,"no effect"
"ssfOUT_60_24_4_KINGCOBRA.29",16.0537955989774,-2842.96031291718,2875.06790411513,"ssf","mf.ss","gamma","unif",158,"ssfOUT_60_24_4_KINGCOBRA","KINGCOBRA",4,0.0416666666666667,60,"no effect"
"ssfOUT_60_24_4_KINGCOBRA.30",16.0317058311885,-2732.68747144993,2764.7508831123,"ssf","mf.ss","gamma","unif",500,"ssfOUT_60_24_4_KINGCOBRA","KINGCOBRA",4,0.0416666666666667,60,"no effect"
"ssfOUT_60_24_4_KINGCOBRA.31",16.4030907953864,-5445.69921278741,5478.50539437819,"ssf","mf.ss","exp","vonmises",5,"ssfOUT_60_24_4_KINGCOBRA","KINGCOBRA",4,0.0416666666666667,60,"no effect"
"ssfOUT_60_24_4_KINGCOBRA.32",17.1286688646876,-4100.38765095552,4134.64498868489,"ssf","mf.ss","exp","vonmises",15,"ssfOUT_60_24_4_KINGCOBRA","KINGCOBRA",4,0.0416666666666667,60,"no effect"
"ssfOUT_60_24_4_KINGCOBRA.33",16.0515329473989,-3190.96203449517,3223.06510038996,"ssf","mf.ss","exp","vonmises",50,"ssfOUT_60_24_4_KINGCOBRA","KINGCOBRA",4,0.0416666666666667,60,"no effect"
"ssfOUT_60_24_4_KINGCOBRA.34",16.0332298489471,-2830.62145562186,2862.68791531975,"ssf","mf.ss","exp","vonmises",158,"ssfOUT_60_24_4_KINGCOBRA","KINGCOBRA",4,0.0416666666666667,60,"no effect"
"ssfOUT_60_24_4_KINGCOBRA.35",16.0264709295469,-2859.09388163865,2891.14682349775,"ssf","mf.ss","exp","vonmises",500,"ssfOUT_60_24_4_KINGCOBRA","KINGCOBRA",4,0.0416666666666667,60,"no effect"
"ssfOUT_60_24_4_KINGCOBRA.36",17.2991793685716,-5672.79486638672,5707.39322512387,"ssf","mf.ss","exp","unif",5,"ssfOUT_60_24_4_KINGCOBRA","KINGCOBRA",4,0.0416666666666667,60,"no effect"
"ssfOUT_60_24_4_KINGCOBRA.37",17.1361000683976,-4854.2399273939,4888.51212753069,"ssf","mf.ss","exp","unif",15,"ssfOUT_60_24_4_KINGCOBRA","KINGCOBRA",4,0.0416666666666667,60,"no effect"
"ssfOUT_60_24_4_KINGCOBRA.38",16.0804201045041,-2762.63819826945,2794.79903847846,"ssf","mf.ss","exp","unif",50,"ssfOUT_60_24_4_KINGCOBRA","KINGCOBRA",4,0.0416666666666667,60,"no effect"
"ssfOUT_60_24_4_KINGCOBRA.39",16.0566333883921,-2636.52215361769,2668.63542039448,"ssf","mf.ss","exp","unif",158,"ssfOUT_60_24_4_KINGCOBRA","KINGCOBRA",4,0.0416666666666667,60,"no effect"
"ssfOUT_60_24_4_KINGCOBRA.40",16.0375155814504,-2718.88558168998,2750.96061285288,"ssf","mf.ss","exp","unif",500,"ssfOUT_60_24_4_KINGCOBRA","KINGCOBRA",4,0.0416666666666667,60,"no effect"
"ssfOUT_120_0.5_1_BADGER.1",0.276187324537045,0.086050456086794,0.466324192987295,"ssf","mf.is","gamma","vonmises",5,"ssfOUT_120_0.5_1_BADGER","BADGER",1,2,120,"preference"
"ssfOUT_120_0.5_1_BADGER.2",0.361048148672894,0.181112557525264,0.540983739820523,"ssf","mf.is","gamma","vonmises",15,"ssfOUT_120_0.5_1_BADGER","BADGER",1,2,120,"preference"
"ssfOUT_120_0.5_1_BADGER.3",0.258056031601372,0.0802560962269089,0.435855966975836,"ssf","mf.is","gamma","vonmises",50,"ssfOUT_120_0.5_1_BADGER","BADGER",1,2,120,"preference"
"ssfOUT_120_0.5_1_BADGER.4",0.287027525411396,0.110836336153817,0.463218714668974,"ssf","mf.is","gamma","vonmises",158,"ssfOUT_120_0.5_1_BADGER","BADGER",1,2,120,"preference"
"ssfOUT_120_0.5_1_BADGER.5",0.284126732880511,0.107870708160528,0.460382757600494,"ssf","mf.is","gamma","vonmises",500,"ssfOUT_120_0.5_1_BADGER","BADGER",1,2,120,"preference"
"ssfOUT_120_0.5_1_BADGER.6",0.307971941546938,0.121771883874098,0.494171999219777,"ssf","mf.is","gamma","unif",5,"ssfOUT_120_0.5_1_BADGER","BADGER",1,2,120,"preference"
"ssfOUT_120_0.5_1_BADGER.7",0.378437283180185,0.196271498580046,0.560603067780323,"ssf","mf.is","gamma","unif",15,"ssfOUT_120_0.5_1_BADGER","BADGER",1,2,120,"preference"
"ssfOUT_120_0.5_1_BADGER.8",0.246358679868307,0.0693651474699608,0.423352212266654,"ssf","mf.is","gamma","unif",50,"ssfOUT_120_0.5_1_BADGER","BADGER",1,2,120,"preference"
"ssfOUT_120_0.5_1_BADGER.9",0.287251585570531,0.110796171573862,0.4637069995672,"ssf","mf.is","gamma","unif",158,"ssfOUT_120_0.5_1_BADGER","BADGER",1,2,120,"preference"
"ssfOUT_120_0.5_1_BADGER.10",0.273735419273146,0.0978386871364739,0.449632151409819,"ssf","mf.is","gamma","unif",500,"ssfOUT_120_0.5_1_BADGER","BADGER",1,2,120,"preference"
"ssfOUT_120_0.5_1_BADGER.11",0.286588930275831,0.09654018122278,0.476637679328881,"ssf","mf.is","exp","vonmises",5,"ssfOUT_120_0.5_1_BADGER","BADGER",1,2,120,"preference"
"ssfOUT_120_0.5_1_BADGER.12",0.264080510830322,0.0826283386258678,0.445532683034777,"ssf","mf.is","exp","vonmises",15,"ssfOUT_120_0.5_1_BADGER","BADGER",1,2,120,"preference"
"ssfOUT_120_0.5_1_BADGER.13",0.309080780404609,0.131266124476234,0.486895436332984,"ssf","mf.is","exp","vonmises",50,"ssfOUT_120_0.5_1_BADGER","BADGER",1,2,120,"preference"
"ssfOUT_120_0.5_1_BADGER.14",0.307620808340933,0.131115907683864,0.484125708998003,"ssf","mf.is","exp","vonmises",158,"ssfOUT_120_0.5_1_BADGER","BADGER",1,2,120,"preference"
"ssfOUT_120_0.5_1_BADGER.15",0.268125249755572,0.0922932073406265,0.443957292170518,"ssf","mf.is","exp","vonmises",500,"ssfOUT_120_0.5_1_BADGER","BADGER",1,2,120,"preference"
"ssfOUT_120_0.5_1_BADGER.16",0.240430863319342,0.0500586876128051,0.430803039025879,"ssf","mf.is","exp","unif",5,"ssfOUT_120_0.5_1_BADGER","BADGER",1,2,120,"preference"
"ssfOUT_120_0.5_1_BADGER.17",0.280467215433302,0.101263297212303,0.459671133654302,"ssf","mf.is","exp","unif",15,"ssfOUT_120_0.5_1_BADGER","BADGER",1,2,120,"preference"
"ssfOUT_120_0.5_1_BADGER.18",0.286784361035028,0.108492947862682,0.465075774207374,"ssf","mf.is","exp","unif",50,"ssfOUT_120_0.5_1_BADGER","BADGER",1,2,120,"preference"
"ssfOUT_120_0.5_1_BADGER.19",0.270779124846735,0.0947469837250013,0.446811265968469,"ssf","mf.is","exp","unif",158,"ssfOUT_120_0.5_1_BADGER","BADGER",1,2,120,"preference"
"ssfOUT_120_0.5_1_BADGER.20",0.270917684547931,0.0947743783093581,0.447060990786504,"ssf","mf.is","exp","unif",500,"ssfOUT_120_0.5_1_BADGER","BADGER",1,2,120,"preference"
"ssfOUT_120_0.5_1_BADGER.21",0.273055679389151,0.0829080091375024,0.4632033496408,"ssf","mf.ss","gamma","vonmises",5,"ssfOUT_120_0.5_1_BADGER","BADGER",1,2,120,"preference"
"ssfOUT_120_0.5_1_BADGER.22",0.358508398752294,0.178557076568573,0.538459720936015,"ssf","mf.ss","gamma","vonmises",15,"ssfOUT_120_0.5_1_BADGER","BADGER",1,2,120,"preference"
"ssfOUT_120_0.5_1_BADGER.23",0.25757269172937,0.0797767821812186,0.435368601277521,"ssf","mf.ss","gamma","vonmises",50,"ssfOUT_120_0.5_1_BADGER","BADGER",1,2,120,"preference"
"ssfOUT_120_0.5_1_BADGER.24",0.286982112757397,0.110849335233727,0.463114890281068,"ssf","mf.ss","gamma","vonmises",158,"ssfOUT_120_0.5_1_BADGER","BADGER",1,2,120,"preference"
"ssfOUT_120_0.5_1_BADGER.25",0.283990200314871,0.10777054592336,0.460209854706383,"ssf","mf.ss","gamma","vonmises",500,"ssfOUT_120_0.5_1_BADGER","BADGER",1,2,120,"preference"
"ssfOUT_120_0.5_1_BADGER.26",0.312180717938058,0.12591272821997,0.498448707656146,"ssf","mf.ss","gamma","unif",5,"ssfOUT_120_0.5_1_BADGER","BADGER",1,2,120,"preference"
"ssfOUT_120_0.5_1_BADGER.27",0.376599627196131,0.194473739176106,0.558725515216156,"ssf","mf.ss","gamma","unif",15,"ssfOUT_120_0.5_1_BADGER","BADGER",1,2,120,"preference"
"ssfOUT_120_0.5_1_BADGER.28",0.24903305475414,0.0721965633420898,0.42586954616619,"ssf","mf.ss","gamma","unif",50,"ssfOUT_120_0.5_1_BADGER","BADGER",1,2,120,"preference"
"ssfOUT_120_0.5_1_BADGER.29",0.293046719122611,0.11663527999397,0.469458158251252,"ssf","mf.ss","gamma","unif",158,"ssfOUT_120_0.5_1_BADGER","BADGER",1,2,120,"preference"
"ssfOUT_120_0.5_1_BADGER.30",0.280697446399467,0.104835651081165,0.456559241717769,"ssf","mf.ss","gamma","unif",500,"ssfOUT_120_0.5_1_BADGER","BADGER",1,2,120,"preference"
"ssfOUT_120_0.5_1_BADGER.31",0.289109435778563,0.100763838781052,0.477455032776075,"ssf","mf.ss","exp","vonmises",5,"ssfOUT_120_0.5_1_BADGER","BADGER",1,2,120,"preference"
"ssfOUT_120_0.5_1_BADGER.32",0.271450689940773,0.0919914445747917,0.450909935306754,"ssf","mf.ss","exp","vonmises",15,"ssfOUT_120_0.5_1_BADGER","BADGER",1,2,120,"preference"
"ssfOUT_120_0.5_1_BADGER.33",0.290686164412528,0.11424266873155,0.467129660093506,"ssf","mf.ss","exp","vonmises",50,"ssfOUT_120_0.5_1_BADGER","BADGER",1,2,120,"preference"
"ssfOUT_120_0.5_1_BADGER.34",0.278984445986647,0.103307474121007,0.454661417852287,"ssf","mf.ss","exp","vonmises",158,"ssfOUT_120_0.5_1_BADGER","BADGER",1,2,120,"preference"
"ssfOUT_120_0.5_1_BADGER.35",0.246334866611808,0.0715096355735727,0.421160097650044,"ssf","mf.ss","exp","vonmises",500,"ssfOUT_120_0.5_1_BADGER","BADGER",1,2,120,"preference"
"ssfOUT_120_0.5_1_BADGER.36",0.245659594194904,0.0577213472619308,0.433597841127877,"ssf","mf.ss","exp","unif",5,"ssfOUT_120_0.5_1_BADGER","BADGER",1,2,120,"preference"
"ssfOUT_120_0.5_1_BADGER.37",0.257850549375919,0.0796682281530559,0.436032870598782,"ssf","mf.ss","exp","unif",15,"ssfOUT_120_0.5_1_BADGER","BADGER",1,2,120,"preference"
"ssfOUT_120_0.5_1_BADGER.38",0.26490060777139,0.0880618885714294,0.441739326971351,"ssf","mf.ss","exp","unif",50,"ssfOUT_120_0.5_1_BADGER","BADGER",1,2,120,"preference"
"ssfOUT_120_0.5_1_BADGER.39",0.260226908214294,0.0851131813327392,0.435340635095849,"ssf","mf.ss","exp","unif",158,"ssfOUT_120_0.5_1_BADGER","BADGER",1,2,120,"preference"
"ssfOUT_120_0.5_1_BADGER.40",0.25187683486484,0.0767151550043655,0.427038514725314,"ssf","mf.ss","exp","unif",500,"ssfOUT_120_0.5_1_BADGER","BADGER",1,2,120,"preference"
"ssfOUT_120_0.5_1_VULTURE.1",0.183079584496968,0.0346609424300847,0.331498226563852,"ssf","mf.is","gamma","vonmises",5,"ssfOUT_120_0.5_1_VULTURE","VULTURE",1,2,120,"preference"
"ssfOUT_120_0.5_1_VULTURE.2",0.117645399929818,-0.0241779441702034,0.259468744029838,"ssf","mf.is","gamma","vonmises",15,"ssfOUT_120_0.5_1_VULTURE","VULTURE",1,2,120,"no effect"
"ssfOUT_120_0.5_1_VULTURE.3",0.117963873663166,-0.0205217098209753,0.256449457147308,"ssf","mf.is","gamma","vonmises",50,"ssfOUT_120_0.5_1_VULTURE","VULTURE",1,2,120,"no effect"
"ssfOUT_120_0.5_1_VULTURE.4",0.123420775938163,-0.0142095277833357,0.261051079659662,"ssf","mf.is","gamma","vonmises",158,"ssfOUT_120_0.5_1_VULTURE","VULTURE",1,2,120,"no effect"
"ssfOUT_120_0.5_1_VULTURE.5",0.124363173675963,-0.0128965572173764,0.261622904569302,"ssf","mf.is","gamma","vonmises",500,"ssfOUT_120_0.5_1_VULTURE","VULTURE",1,2,120,"no effect"
"ssfOUT_120_0.5_1_VULTURE.6",0.0829142631272969,-0.0681164132027858,0.23394493945738,"ssf","mf.is","gamma","unif",5,"ssfOUT_120_0.5_1_VULTURE","VULTURE",1,2,120,"no effect"
"ssfOUT_120_0.5_1_VULTURE.7",0.125789285493091,-0.015636151831694,0.267214722817875,"ssf","mf.is","gamma","unif",15,"ssfOUT_120_0.5_1_VULTURE","VULTURE",1,2,120,"no effect"
"ssfOUT_120_0.5_1_VULTURE.8",0.113496400588338,-0.0249561300974537,0.25194893127413,"ssf","mf.is","gamma","unif",50,"ssfOUT_120_0.5_1_VULTURE","VULTURE",1,2,120,"no effect"
"ssfOUT_120_0.5_1_VULTURE.9",0.125933692048328,-0.0115561012768161,0.263423485373473,"ssf","mf.is","gamma","unif",158,"ssfOUT_120_0.5_1_VULTURE","VULTURE",1,2,120,"no effect"
"ssfOUT_120_0.5_1_VULTURE.10",0.117015812958652,-0.0202186647972313,0.254250290714534,"ssf","mf.is","gamma","unif",500,"ssfOUT_120_0.5_1_VULTURE","VULTURE",1,2,120,"no effect"
"ssfOUT_120_0.5_1_VULTURE.11",0.131307292187429,-0.0213726943991585,0.283987278774017,"ssf","mf.is","exp","vonmises",5,"ssfOUT_120_0.5_1_VULTURE","VULTURE",1,2,120,"no effect"
"ssfOUT_120_0.5_1_VULTURE.12",0.16581170721404,0.0224459531279361,0.309177461300143,"ssf","mf.is","exp","vonmises",15,"ssfOUT_120_0.5_1_VULTURE","VULTURE",1,2,120,"preference"
"ssfOUT_120_0.5_1_VULTURE.13",0.131330631957458,-0.00765180715338554,0.270313071068301,"ssf","mf.is","exp","vonmises",50,"ssfOUT_120_0.5_1_VULTURE","VULTURE",1,2,120,"no effect"
"ssfOUT_120_0.5_1_VULTURE.14",0.138956691324751,0.00134142964595796,0.276571953003545,"ssf","mf.is","exp","vonmises",158,"ssfOUT_120_0.5_1_VULTURE","VULTURE",1,2,120,"preference"
"ssfOUT_120_0.5_1_VULTURE.15",0.123814513486637,-0.0135279297651235,0.261156956738398,"ssf","mf.is","exp","vonmises",500,"ssfOUT_120_0.5_1_VULTURE","VULTURE",1,2,120,"no effect"
"ssfOUT_120_0.5_1_VULTURE.16",0.129126136466641,-0.0239343531278289,0.282186626061111,"ssf","mf.is","exp","unif",5,"ssfOUT_120_0.5_1_VULTURE","VULTURE",1,2,120,"no effect"
"ssfOUT_120_0.5_1_VULTURE.17",0.14466911173903,0.00210360987548958,0.28723461360257,"ssf","mf.is","exp","unif",15,"ssfOUT_120_0.5_1_VULTURE","VULTURE",1,2,120,"preference"
"ssfOUT_120_0.5_1_VULTURE.18",0.144914029292743,0.00636808902799887,0.283459969557487,"ssf","mf.is","exp","unif",50,"ssfOUT_120_0.5_1_VULTURE","VULTURE",1,2,120,"preference"
"ssfOUT_120_0.5_1_VULTURE.19",0.0909349472267624,-0.0466170271474662,0.228486921600991,"ssf","mf.is","exp","unif",158,"ssfOUT_120_0.5_1_VULTURE","VULTURE",1,2,120,"no effect"
"ssfOUT_120_0.5_1_VULTURE.20",0.120747341903507,-0.0164880733315836,0.257982757138597,"ssf","mf.is","exp","unif",500,"ssfOUT_120_0.5_1_VULTURE","VULTURE",1,2,120,"no effect"
"ssfOUT_120_0.5_1_VULTURE.21",0.182701156012949,0.0342835469055713,0.331118765120326,"ssf","mf.ss","gamma","vonmises",5,"ssfOUT_120_0.5_1_VULTURE","VULTURE",1,2,120,"preference"
"ssfOUT_120_0.5_1_VULTURE.22",0.117143222133313,-0.0247055656892864,0.258992009955913,"ssf","mf.ss","gamma","vonmises",15,"ssfOUT_120_0.5_1_VULTURE","VULTURE",1,2,120,"no effect"
"ssfOUT_120_0.5_1_VULTURE.23",0.117614098073602,-0.020933545019259,0.256161741166463,"ssf","mf.ss","gamma","vonmises",50,"ssfOUT_120_0.5_1_VULTURE","VULTURE",1,2,120,"no effect"
"ssfOUT_120_0.5_1_VULTURE.24",0.123187230917851,-0.014522964933777,0.26089742676948,"ssf","mf.ss","gamma","vonmises",158,"ssfOUT_120_0.5_1_VULTURE","VULTURE",1,2,120,"no effect"
"ssfOUT_120_0.5_1_VULTURE.25",0.124191035386768,-0.0131557815772808,0.261537852350817,"ssf","mf.ss","gamma","vonmises",500,"ssfOUT_120_0.5_1_VULTURE","VULTURE",1,2,120,"no effect"
"ssfOUT_120_0.5_1_VULTURE.26",0.0805161141343122,-0.0705663430021138,0.231598571270738,"ssf","mf.ss","gamma","unif",5,"ssfOUT_120_0.5_1_VULTURE","VULTURE",1,2,120,"no effect"
"ssfOUT_120_0.5_1_VULTURE.27",0.126186734369945,-0.0153612755494236,0.267734744289313,"ssf","mf.ss","gamma","unif",15,"ssfOUT_120_0.5_1_VULTURE","VULTURE",1,2,120,"no effect"
"ssfOUT_120_0.5_1_VULTURE.28",0.113882757486214,-0.0246351362301226,0.25240065120255,"ssf","mf.ss","gamma","unif",50,"ssfOUT_120_0.5_1_VULTURE","VULTURE",1,2,120,"no effect"
"ssfOUT_120_0.5_1_VULTURE.29",0.126376487938834,-0.0111637523895015,0.263916728267169,"ssf","mf.ss","gamma","unif",158,"ssfOUT_120_0.5_1_VULTURE","VULTURE",1,2,120,"no effect"
"ssfOUT_120_0.5_1_VULTURE.30",0.117813324726497,-0.0194821740397391,0.255108823492732,"ssf","mf.ss","gamma","unif",500,"ssfOUT_120_0.5_1_VULTURE","VULTURE",1,2,120,"no effect"
"ssfOUT_120_0.5_1_VULTURE.31",0.205500290091121,0.0550594134370312,0.355941166745211,"ssf","mf.ss","exp","vonmises",5,"ssfOUT_120_0.5_1_VULTURE","VULTURE",1,2,120,"preference"
"ssfOUT_120_0.5_1_VULTURE.32",0.154397454466867,0.0108915121870783,0.297903396746656,"ssf","mf.ss","exp","vonmises",15,"ssfOUT_120_0.5_1_VULTURE","VULTURE",1,2,120,"preference"
"ssfOUT_120_0.5_1_VULTURE.33",0.133630280053985,-0.00633398779814298,0.273594547906113,"ssf","mf.ss","exp","vonmises",50,"ssfOUT_120_0.5_1_VULTURE","VULTURE",1,2,120,"no effect"
"ssfOUT_120_0.5_1_VULTURE.34",0.136418043165928,-0.0027542774915888,0.275590363823446,"ssf","mf.ss","exp","vonmises",158,"ssfOUT_120_0.5_1_VULTURE","VULTURE",1,2,120,"no effect"
"ssfOUT_120_0.5_1_VULTURE.35",0.135815047955457,-0.00326003890533402,0.274890134816249,"ssf","mf.ss","exp","vonmises",500,"ssfOUT_120_0.5_1_VULTURE","VULTURE",1,2,120,"no effect"
"ssfOUT_120_0.5_1_VULTURE.36",0.142760760898028,-0.00733892452879006,0.292860446324846,"ssf","mf.ss","exp","unif",5,"ssfOUT_120_0.5_1_VULTURE","VULTURE",1,2,120,"no effect"
"ssfOUT_120_0.5_1_VULTURE.37",0.140763155420558,-0.00266016367266617,0.284186474513783,"ssf","mf.ss","exp","unif",15,"ssfOUT_120_0.5_1_VULTURE","VULTURE",1,2,120,"no effect"
"ssfOUT_120_0.5_1_VULTURE.38",0.14413099849997,0.00437066947826303,0.283891327521678,"ssf","mf.ss","exp","unif",50,"ssfOUT_120_0.5_1_VULTURE","VULTURE",1,2,120,"preference"
"ssfOUT_120_0.5_1_VULTURE.39",0.0951355548108578,-0.0441936484987588,0.234464758120475,"ssf","mf.ss","exp","unif",158,"ssfOUT_120_0.5_1_VULTURE","VULTURE",1,2,120,"no effect"
"ssfOUT_120_0.5_1_VULTURE.40",0.129126511264758,-0.0097226707406583,0.267975693270174,"ssf","mf.ss","exp","unif",500,"ssfOUT_120_0.5_1_VULTURE","VULTURE",1,2,120,"no effect"
"ssfOUT_120_0.5_1_KINGCOBRA.1",0.79193994114701,0.490328452606708,1.09355142968731,"ssf","mf.is","gamma","vonmises",5,"ssfOUT_120_0.5_1_KINGCOBRA","KINGCOBRA",1,2,120,"preference"
"ssfOUT_120_0.5_1_KINGCOBRA.2",0.851359031881795,0.556935727869996,1.14578233589359,"ssf","mf.is","gamma","vonmises",15,"ssfOUT_120_0.5_1_KINGCOBRA","KINGCOBRA",1,2,120,"preference"
"ssfOUT_120_0.5_1_KINGCOBRA.3",0.780428476862392,0.482844759450395,1.07801219427439,"ssf","mf.is","gamma","vonmises",50,"ssfOUT_120_0.5_1_KINGCOBRA","KINGCOBRA",1,2,120,"preference"
"ssfOUT_120_0.5_1_KINGCOBRA.4",0.823102825704425,0.531948065590262,1.11425758581859,"ssf","mf.is","gamma","vonmises",158,"ssfOUT_120_0.5_1_KINGCOBRA","KINGCOBRA",1,2,120,"preference"
"ssfOUT_120_0.5_1_KINGCOBRA.5",0.82104091055899,0.527164250244304,1.11491757087368,"ssf","mf.is","gamma","vonmises",500,"ssfOUT_120_0.5_1_KINGCOBRA","KINGCOBRA",1,2,120,"preference"
"ssfOUT_120_0.5_1_KINGCOBRA.6",0.593446877698195,0.291009487805687,0.895884267590703,"ssf","mf.is","gamma","unif",5,"ssfOUT_120_0.5_1_KINGCOBRA","KINGCOBRA",1,2,120,"preference"
"ssfOUT_120_0.5_1_KINGCOBRA.7",0.777482459974476,0.479641372187554,1.0753235477614,"ssf","mf.is","gamma","unif",15,"ssfOUT_120_0.5_1_KINGCOBRA","KINGCOBRA",1,2,120,"preference"
"ssfOUT_120_0.5_1_KINGCOBRA.8",0.819961101520362,0.523183620791915,1.11673858224881,"ssf","mf.is","gamma","unif",50,"ssfOUT_120_0.5_1_KINGCOBRA","KINGCOBRA",1,2,120,"preference"
"ssfOUT_120_0.5_1_KINGCOBRA.9",0.806662903554433,0.513105239702638,1.10022056740623,"ssf","mf.is","gamma","unif",158,"ssfOUT_120_0.5_1_KINGCOBRA","KINGCOBRA",1,2,120,"preference"
"ssfOUT_120_0.5_1_KINGCOBRA.10",0.833084706597489,0.538321710830959,1.12784770236402,"ssf","mf.is","gamma","unif",500,"ssfOUT_120_0.5_1_KINGCOBRA","KINGCOBRA",1,2,120,"preference"
"ssfOUT_120_0.5_1_KINGCOBRA.11",0.496214582500954,0.172200662327737,0.82022850267417,"ssf","mf.is","exp","vonmises",5,"ssfOUT_120_0.5_1_KINGCOBRA","KINGCOBRA",1,2,120,"preference"
"ssfOUT_120_0.5_1_KINGCOBRA.12",0.652660030221561,0.345554109987905,0.959765950455219,"ssf","mf.is","exp","vonmises",15,"ssfOUT_120_0.5_1_KINGCOBRA","KINGCOBRA",1,2,120,"preference"
"ssfOUT_120_0.5_1_KINGCOBRA.13",0.752660136727096,0.45065704098292,1.05466323247127,"ssf","mf.is","exp","vonmises",50,"ssfOUT_120_0.5_1_KINGCOBRA","KINGCOBRA",1,2,120,"preference"
"ssfOUT_120_0.5_1_KINGCOBRA.14",0.78384740195275,0.482523114766444,1.08517168913906,"ssf","mf.is","exp","vonmises",158,"ssfOUT_120_0.5_1_KINGCOBRA","KINGCOBRA",1,2,120,"preference"
"ssfOUT_120_0.5_1_KINGCOBRA.15",0.79562952609861,0.496731911868664,1.09452714032856,"ssf","mf.is","exp","vonmises",500,"ssfOUT_120_0.5_1_KINGCOBRA","KINGCOBRA",1,2,120,"preference"
"ssfOUT_120_0.5_1_KINGCOBRA.16",0.332198672750085,0.022085620312753,0.642311725187418,"ssf","mf.is","exp","unif",5,"ssfOUT_120_0.5_1_KINGCOBRA","KINGCOBRA",1,2,120,"preference"
"ssfOUT_120_0.5_1_KINGCOBRA.17",0.593221484769543,0.291229583458871,0.895213386080216,"ssf","mf.is","exp","unif",15,"ssfOUT_120_0.5_1_KINGCOBRA","KINGCOBRA",1,2,120,"preference"
"ssfOUT_120_0.5_1_KINGCOBRA.18",0.722689786065519,0.423559810500333,1.02181976163071,"ssf","mf.is","exp","unif",50,"ssfOUT_120_0.5_1_KINGCOBRA","KINGCOBRA",1,2,120,"preference"
"ssfOUT_120_0.5_1_KINGCOBRA.19",0.859964888661322,0.56203286538082,1.15789691194182,"ssf","mf.is","exp","unif",158,"ssfOUT_120_0.5_1_KINGCOBRA","KINGCOBRA",1,2,120,"preference"
"ssfOUT_120_0.5_1_KINGCOBRA.20",0.826587202914938,0.527358105327044,1.12581630050283,"ssf","mf.is","exp","unif",500,"ssfOUT_120_0.5_1_KINGCOBRA","KINGCOBRA",1,2,120,"preference"
"ssfOUT_120_0.5_1_KINGCOBRA.21",0.797890126732808,0.49698089439135,1.09879935907427,"ssf","mf.ss","gamma","vonmises",5,"ssfOUT_120_0.5_1_KINGCOBRA","KINGCOBRA",1,2,120,"preference"
"ssfOUT_120_0.5_1_KINGCOBRA.22",0.884133297720846,0.589266928456698,1.17899966698499,"ssf","mf.ss","gamma","vonmises",15,"ssfOUT_120_0.5_1_KINGCOBRA","KINGCOBRA",1,2,120,"preference"
"ssfOUT_120_0.5_1_KINGCOBRA.23",0.836661070339633,0.53686580232785,1.13645633835142,"ssf","mf.ss","gamma","vonmises",50,"ssfOUT_120_0.5_1_KINGCOBRA","KINGCOBRA",1,2,120,"preference"
"ssfOUT_120_0.5_1_KINGCOBRA.24",0.876849641598232,0.582850596042277,1.17084868715419,"ssf","mf.ss","gamma","vonmises",158,"ssfOUT_120_0.5_1_KINGCOBRA","KINGCOBRA",1,2,120,"preference"
"ssfOUT_120_0.5_1_KINGCOBRA.25",0.875327352696871,0.57878324147885,1.17187146391489,"ssf","mf.ss","gamma","vonmises",500,"ssfOUT_120_0.5_1_KINGCOBRA","KINGCOBRA",1,2,120,"preference"
"ssfOUT_120_0.5_1_KINGCOBRA.26",0.651024494730405,0.346396124617884,0.955652864842925,"ssf","mf.ss","gamma","unif",5,"ssfOUT_120_0.5_1_KINGCOBRA","KINGCOBRA",1,2,120,"preference"
"ssfOUT_120_0.5_1_KINGCOBRA.27",0.826013475323605,0.525823474921288,1.12620347572592,"ssf","mf.ss","gamma","unif",15,"ssfOUT_120_0.5_1_KINGCOBRA","KINGCOBRA",1,2,120,"preference"
"ssfOUT_120_0.5_1_KINGCOBRA.28",0.86631358310019,0.568188663129485,1.16443850307089,"ssf","mf.ss","gamma","unif",50,"ssfOUT_120_0.5_1_KINGCOBRA","KINGCOBRA",1,2,120,"preference"
"ssfOUT_120_0.5_1_KINGCOBRA.29",0.860163889505758,0.563970391047148,1.15635738796437,"ssf","mf.ss","gamma","unif",158,"ssfOUT_120_0.5_1_KINGCOBRA","KINGCOBRA",1,2,120,"preference"
"ssfOUT_120_0.5_1_KINGCOBRA.30",0.883633522623818,0.586753835180855,1.18051321006678,"ssf","mf.ss","gamma","unif",500,"ssfOUT_120_0.5_1_KINGCOBRA","KINGCOBRA",1,2,120,"preference"
"ssfOUT_120_0.5_1_KINGCOBRA.31",1.1056460605663,0.801307192721306,1.40998492841129,"ssf","mf.ss","exp","vonmises",5,"ssfOUT_120_0.5_1_KINGCOBRA","KINGCOBRA",1,2,120,"preference"
"ssfOUT_120_0.5_1_KINGCOBRA.32",1.10043597428768,0.810142131538811,1.39072981703656,"ssf","mf.ss","exp","vonmises",15,"ssfOUT_120_0.5_1_KINGCOBRA","KINGCOBRA",1,2,120,"preference"
"ssfOUT_120_0.5_1_KINGCOBRA.33",1.14906965551668,0.860993938943627,1.43714537208974,"ssf","mf.ss","exp","vonmises",50,"ssfOUT_120_0.5_1_KINGCOBRA","KINGCOBRA",1,2,120,"preference"
"ssfOUT_120_0.5_1_KINGCOBRA.34",1.12213833643337,0.833091305972427,1.41118536689431,"ssf","mf.ss","exp","vonmises",158,"ssfOUT_120_0.5_1_KINGCOBRA","KINGCOBRA",1,2,120,"preference"
"ssfOUT_120_0.5_1_KINGCOBRA.35",1.08092599749943,0.794408928515447,1.36744306648341,"ssf","mf.ss","exp","vonmises",500,"ssfOUT_120_0.5_1_KINGCOBRA","KINGCOBRA",1,2,120,"preference"
"ssfOUT_120_0.5_1_KINGCOBRA.36",1.02879555181369,0.726447741307747,1.33114336231962,"ssf","mf.ss","exp","unif",5,"ssfOUT_120_0.5_1_KINGCOBRA","KINGCOBRA",1,2,120,"preference"
"ssfOUT_120_0.5_1_KINGCOBRA.37",1.04663557604155,0.756216235488787,1.33705491659432,"ssf","mf.ss","exp","unif",15,"ssfOUT_120_0.5_1_KINGCOBRA","KINGCOBRA",1,2,120,"preference"
"ssfOUT_120_0.5_1_KINGCOBRA.38",1.12611300872963,0.83613087366478,1.41609514379447,"ssf","mf.ss","exp","unif",50,"ssfOUT_120_0.5_1_KINGCOBRA","KINGCOBRA",1,2,120,"preference"
"ssfOUT_120_0.5_1_KINGCOBRA.39",1.11073113646634,0.82294290851758,1.3985193644151,"ssf","mf.ss","exp","unif",158,"ssfOUT_120_0.5_1_KINGCOBRA","KINGCOBRA",1,2,120,"preference"
"ssfOUT_120_0.5_1_KINGCOBRA.40",1.11031539209292,0.82273760847886,1.39789317570698,"ssf","mf.ss","exp","unif",500,"ssfOUT_120_0.5_1_KINGCOBRA","KINGCOBRA",1,2,120,"preference"
"ssfOUT_120_0.5_2_BADGER.1",0.362998246124077,0.228919656415134,0.497076835833021,"ssf","mf.is","gamma","vonmises",5,"ssfOUT_120_0.5_2_BADGER","BADGER",2,2,120,"preference"
"ssfOUT_120_0.5_2_BADGER.2",0.436275248748904,0.308951619545392,0.563598877952416,"ssf","mf.is","gamma","vonmises",15,"ssfOUT_120_0.5_2_BADGER","BADGER",2,2,120,"preference"
"ssfOUT_120_0.5_2_BADGER.3",0.408038495826639,0.283118333402403,0.532958658250875,"ssf","mf.is","gamma","vonmises",50,"ssfOUT_120_0.5_2_BADGER","BADGER",2,2,120,"preference"
"ssfOUT_120_0.5_2_BADGER.4",0.393314510454935,0.268351188048821,0.518277832861049,"ssf","mf.is","gamma","vonmises",158,"ssfOUT_120_0.5_2_BADGER","BADGER",2,2,120,"preference"
"ssfOUT_120_0.5_2_BADGER.5",0.381034583862477,0.256332513721605,0.505736654003349,"ssf","mf.is","gamma","vonmises",500,"ssfOUT_120_0.5_2_BADGER","BADGER",2,2,120,"preference"
"ssfOUT_120_0.5_2_BADGER.6",0.455805582166014,0.322906446589147,0.588704717742882,"ssf","mf.is","gamma","unif",5,"ssfOUT_120_0.5_2_BADGER","BADGER",2,2,120,"preference"
"ssfOUT_120_0.5_2_BADGER.7",0.377134652658561,0.250034048291159,0.504235257025962,"ssf","mf.is","gamma","unif",15,"ssfOUT_120_0.5_2_BADGER","BADGER",2,2,120,"preference"
"ssfOUT_120_0.5_2_BADGER.8",0.403811428248199,0.278688292319612,0.528934564176786,"ssf","mf.is","gamma","unif",50,"ssfOUT_120_0.5_2_BADGER","BADGER",2,2,120,"preference"
"ssfOUT_120_0.5_2_BADGER.9",0.363222105517716,0.238566078041476,0.487878132993956,"ssf","mf.is","gamma","unif",158,"ssfOUT_120_0.5_2_BADGER","BADGER",2,2,120,"preference"
"ssfOUT_120_0.5_2_BADGER.10",0.374800218489048,0.250122384901339,0.499478052076757,"ssf","mf.is","gamma","unif",500,"ssfOUT_120_0.5_2_BADGER","BADGER",2,2,120,"preference"
"ssfOUT_120_0.5_2_BADGER.11",0.304207453330781,0.170702616672181,0.437712289989381,"ssf","mf.is","exp","vonmises",5,"ssfOUT_120_0.5_2_BADGER","BADGER",2,2,120,"preference"
"ssfOUT_120_0.5_2_BADGER.12",0.418799360031292,0.291289212329743,0.546309507732841,"ssf","mf.is","exp","vonmises",15,"ssfOUT_120_0.5_2_BADGER","BADGER",2,2,120,"preference"
"ssfOUT_120_0.5_2_BADGER.13",0.416202812022618,0.29051203735253,0.541893586692706,"ssf","mf.is","exp","vonmises",50,"ssfOUT_120_0.5_2_BADGER","BADGER",2,2,120,"preference"
"ssfOUT_120_0.5_2_BADGER.14",0.379031773275935,0.253969883504335,0.504093663047536,"ssf","mf.is","exp","vonmises",158,"ssfOUT_120_0.5_2_BADGER","BADGER",2,2,120,"preference"
"ssfOUT_120_0.5_2_BADGER.15",0.377402696274315,0.252764711261082,0.502040681287548,"ssf","mf.is","exp","vonmises",500,"ssfOUT_120_0.5_2_BADGER","BADGER",2,2,120,"preference"
"ssfOUT_120_0.5_2_BADGER.16",0.391908745416398,0.255132715132808,0.528684775699988,"ssf","mf.is","exp","unif",5,"ssfOUT_120_0.5_2_BADGER","BADGER",2,2,120,"preference"
"ssfOUT_120_0.5_2_BADGER.17",0.341289535446705,0.213116638255038,0.469462432638371,"ssf","mf.is","exp","unif",15,"ssfOUT_120_0.5_2_BADGER","BADGER",2,2,120,"preference"
"ssfOUT_120_0.5_2_BADGER.18",0.367529222131277,0.242709362592858,0.492349081669697,"ssf","mf.is","exp","unif",50,"ssfOUT_120_0.5_2_BADGER","BADGER",2,2,120,"preference"
"ssfOUT_120_0.5_2_BADGER.19",0.380962363540356,0.255796435838149,0.506128291242563,"ssf","mf.is","exp","unif",158,"ssfOUT_120_0.5_2_BADGER","BADGER",2,2,120,"preference"
"ssfOUT_120_0.5_2_BADGER.20",0.381991750803306,0.257310921163504,0.506672580443107,"ssf","mf.is","exp","unif",500,"ssfOUT_120_0.5_2_BADGER","BADGER",2,2,120,"preference"
"ssfOUT_120_0.5_2_BADGER.21",0.345523985171784,0.21110374681317,0.479944223530399,"ssf","mf.ss","gamma","vonmises",5,"ssfOUT_120_0.5_2_BADGER","BADGER",2,2,120,"preference"
"ssfOUT_120_0.5_2_BADGER.22",0.425328106847989,0.29752437921972,0.553131834476258,"ssf","mf.ss","gamma","vonmises",15,"ssfOUT_120_0.5_2_BADGER","BADGER",2,2,120,"preference"
"ssfOUT_120_0.5_2_BADGER.23",0.398888950045528,0.273445351334369,0.524332548756687,"ssf","mf.ss","gamma","vonmises",50,"ssfOUT_120_0.5_2_BADGER","BADGER",2,2,120,"preference"
"ssfOUT_120_0.5_2_BADGER.24",0.386619353207066,0.261105236783535,0.512133469630597,"ssf","mf.ss","gamma","vonmises",158,"ssfOUT_120_0.5_2_BADGER","BADGER",2,2,120,"preference"
"ssfOUT_120_0.5_2_BADGER.25",0.374149058369082,0.248908181730299,0.499389935007866,"ssf","mf.ss","gamma","vonmises",500,"ssfOUT_120_0.5_2_BADGER","BADGER",2,2,120,"preference"
"ssfOUT_120_0.5_2_BADGER.26",0.456858908932219,0.324022113985431,0.589695703879007,"ssf","mf.ss","gamma","unif",5,"ssfOUT_120_0.5_2_BADGER","BADGER",2,2,120,"preference"
"ssfOUT_120_0.5_2_BADGER.27",0.373840606536159,0.24662935973253,0.501051853339788,"ssf","mf.ss","gamma","unif",15,"ssfOUT_120_0.5_2_BADGER","BADGER",2,2,120,"preference"
"ssfOUT_120_0.5_2_BADGER.28",0.399616261841086,0.274064840195765,0.525167683486407,"ssf","mf.ss","gamma","unif",50,"ssfOUT_120_0.5_2_BADGER","BADGER",2,2,120,"preference"
"ssfOUT_120_0.5_2_BADGER.29",0.358064463929999,0.232939096457957,0.483189831402042,"ssf","mf.ss","gamma","unif",158,"ssfOUT_120_0.5_2_BADGER","BADGER",2,2,120,"preference"
"ssfOUT_120_0.5_2_BADGER.30",0.371371914970575,0.246229606132554,0.496514223808596,"ssf","mf.ss","gamma","unif",500,"ssfOUT_120_0.5_2_BADGER","BADGER",2,2,120,"preference"
"ssfOUT_120_0.5_2_BADGER.31",0.328111853826588,0.19482596472515,0.461397742928025,"ssf","mf.ss","exp","vonmises",5,"ssfOUT_120_0.5_2_BADGER","BADGER",2,2,120,"preference"
"ssfOUT_120_0.5_2_BADGER.32",0.424891449651866,0.297441325379782,0.552341573923949,"ssf","mf.ss","exp","vonmises",15,"ssfOUT_120_0.5_2_BADGER","BADGER",2,2,120,"preference"
"ssfOUT_120_0.5_2_BADGER.33",0.411618608897092,0.286126036369401,0.537111181424784,"ssf","mf.ss","exp","vonmises",50,"ssfOUT_120_0.5_2_BADGER","BADGER",2,2,120,"preference"
"ssfOUT_120_0.5_2_BADGER.34",0.361186544094003,0.23644455373209,0.485928534455915,"ssf","mf.ss","exp","vonmises",158,"ssfOUT_120_0.5_2_BADGER","BADGER",2,2,120,"preference"
"ssfOUT_120_0.5_2_BADGER.35",0.36121652276247,0.236649533086161,0.485783512438779,"ssf","mf.ss","exp","vonmises",500,"ssfOUT_120_0.5_2_BADGER","BADGER",2,2,120,"preference"
"ssfOUT_120_0.5_2_BADGER.36",0.371943488278438,0.2364540282768,0.507432948280077,"ssf","mf.ss","exp","unif",5,"ssfOUT_120_0.5_2_BADGER","BADGER",2,2,120,"preference"
"ssfOUT_120_0.5_2_BADGER.37",0.362269927265649,0.234530370703183,0.490009483828115,"ssf","mf.ss","exp","unif",15,"ssfOUT_120_0.5_2_BADGER","BADGER",2,2,120,"preference"
"ssfOUT_120_0.5_2_BADGER.38",0.358615952198502,0.23426967569892,0.482962228698084,"ssf","mf.ss","exp","unif",50,"ssfOUT_120_0.5_2_BADGER","BADGER",2,2,120,"preference"
"ssfOUT_120_0.5_2_BADGER.39",0.362117290025308,0.237298413468624,0.486936166581992,"ssf","mf.ss","exp","unif",158,"ssfOUT_120_0.5_2_BADGER","BADGER",2,2,120,"preference"
"ssfOUT_120_0.5_2_BADGER.40",0.366691501511698,0.242281860843249,0.491101142180148,"ssf","mf.ss","exp","unif",500,"ssfOUT_120_0.5_2_BADGER","BADGER",2,2,120,"preference"
"ssfOUT_120_0.5_2_VULTURE.1",0.399399469307929,0.260527407464221,0.538271531151637,"ssf","mf.is","gamma","vonmises",5,"ssfOUT_120_0.5_2_VULTURE","VULTURE",2,2,120,"preference"
"ssfOUT_120_0.5_2_VULTURE.2",0.442495222062391,0.30995757617902,0.575032867945761,"ssf","mf.is","gamma","vonmises",15,"ssfOUT_120_0.5_2_VULTURE","VULTURE",2,2,120,"preference"
"ssfOUT_120_0.5_2_VULTURE.3",0.41273486736429,0.282784249915896,0.542685484812684,"ssf","mf.is","gamma","vonmises",50,"ssfOUT_120_0.5_2_VULTURE","VULTURE",2,2,120,"preference"
"ssfOUT_120_0.5_2_VULTURE.4",0.445183168783118,0.315919873377549,0.574446464188686,"ssf","mf.is","gamma","vonmises",158,"ssfOUT_120_0.5_2_VULTURE","VULTURE",2,2,120,"preference"
"ssfOUT_120_0.5_2_VULTURE.5",0.429124098940027,0.300123153536063,0.558125044343992,"ssf","mf.is","gamma","vonmises",500,"ssfOUT_120_0.5_2_VULTURE","VULTURE",2,2,120,"preference"
"ssfOUT_120_0.5_2_VULTURE.6",0.467751299338052,0.329045631329842,0.606456967346261,"ssf","mf.is","gamma","unif",5,"ssfOUT_120_0.5_2_VULTURE","VULTURE",2,2,120,"preference"
"ssfOUT_120_0.5_2_VULTURE.7",0.438518900227813,0.306062610367577,0.570975190088049,"ssf","mf.is","gamma","unif",15,"ssfOUT_120_0.5_2_VULTURE","VULTURE",2,2,120,"preference"
"ssfOUT_120_0.5_2_VULTURE.8",0.46196974493071,0.3320044281133,0.59193506174812,"ssf","mf.is","gamma","unif",50,"ssfOUT_120_0.5_2_VULTURE","VULTURE",2,2,120,"preference"
"ssfOUT_120_0.5_2_VULTURE.9",0.437978018336479,0.308721735155064,0.567234301517894,"ssf","mf.is","gamma","unif",158,"ssfOUT_120_0.5_2_VULTURE","VULTURE",2,2,120,"preference"
"ssfOUT_120_0.5_2_VULTURE.10",0.43891231457069,0.309871798425953,0.567952830715427,"ssf","mf.is","gamma","unif",500,"ssfOUT_120_0.5_2_VULTURE","VULTURE",2,2,120,"preference"
"ssfOUT_120_0.5_2_VULTURE.11",0.456920372920546,0.315146337545763,0.598694408295328,"ssf","mf.is","exp","vonmises",5,"ssfOUT_120_0.5_2_VULTURE","VULTURE",2,2,120,"preference"
"ssfOUT_120_0.5_2_VULTURE.12",0.409160325427635,0.275828767550369,0.542491883304902,"ssf","mf.is","exp","vonmises",15,"ssfOUT_120_0.5_2_VULTURE","VULTURE",2,2,120,"preference"
"ssfOUT_120_0.5_2_VULTURE.13",0.440418711156116,0.310086799212161,0.570750623100071,"ssf","mf.is","exp","vonmises",50,"ssfOUT_120_0.5_2_VULTURE","VULTURE",2,2,120,"preference"
"ssfOUT_120_0.5_2_VULTURE.14",0.418888925450791,0.289695236461717,0.548082614439866,"ssf","mf.is","exp","vonmises",158,"ssfOUT_120_0.5_2_VULTURE","VULTURE",2,2,120,"preference"
"ssfOUT_120_0.5_2_VULTURE.15",0.435705573134999,0.306519196556658,0.564891949713339,"ssf","mf.is","exp","vonmises",500,"ssfOUT_120_0.5_2_VULTURE","VULTURE",2,2,120,"preference"
"ssfOUT_120_0.5_2_VULTURE.16",0.297670776257841,0.155704474333285,0.439637078182396,"ssf","mf.is","exp","unif",5,"ssfOUT_120_0.5_2_VULTURE","VULTURE",2,2,120,"preference"
"ssfOUT_120_0.5_2_VULTURE.17",0.430562738601412,0.297568037453775,0.563557439749049,"ssf","mf.is","exp","unif",15,"ssfOUT_120_0.5_2_VULTURE","VULTURE",2,2,120,"preference"
"ssfOUT_120_0.5_2_VULTURE.18",0.423414214387122,0.293446450325076,0.553381978449167,"ssf","mf.is","exp","unif",50,"ssfOUT_120_0.5_2_VULTURE","VULTURE",2,2,120,"preference"
"ssfOUT_120_0.5_2_VULTURE.19",0.461653821117668,0.332180645649655,0.591126996585682,"ssf","mf.is","exp","unif",158,"ssfOUT_120_0.5_2_VULTURE","VULTURE",2,2,120,"preference"
"ssfOUT_120_0.5_2_VULTURE.20",0.430690128074042,0.301540162144154,0.559840094003931,"ssf","mf.is","exp","unif",500,"ssfOUT_120_0.5_2_VULTURE","VULTURE",2,2,120,"preference"
"ssfOUT_120_0.5_2_VULTURE.21",0.399699937278548,0.26085077726135,0.538549097295746,"ssf","mf.ss","gamma","vonmises",5,"ssfOUT_120_0.5_2_VULTURE","VULTURE",2,2,120,"preference"
"ssfOUT_120_0.5_2_VULTURE.22",0.442017376939542,0.309438499650591,0.574596254228492,"ssf","mf.ss","gamma","vonmises",15,"ssfOUT_120_0.5_2_VULTURE","VULTURE",2,2,120,"preference"
"ssfOUT_120_0.5_2_VULTURE.23",0.411892973998639,0.281923874396973,0.541862073600306,"ssf","mf.ss","gamma","vonmises",50,"ssfOUT_120_0.5_2_VULTURE","VULTURE",2,2,120,"preference"
"ssfOUT_120_0.5_2_VULTURE.24",0.444142797938888,0.314862083360724,0.573423512517053,"ssf","mf.ss","gamma","vonmises",158,"ssfOUT_120_0.5_2_VULTURE","VULTURE",2,2,120,"preference"
"ssfOUT_120_0.5_2_VULTURE.25",0.428219360638484,0.299203904953721,0.557234816323247,"ssf","mf.ss","gamma","vonmises",500,"ssfOUT_120_0.5_2_VULTURE","VULTURE",2,2,120,"preference"
"ssfOUT_120_0.5_2_VULTURE.26",0.464574963510978,0.325905001518803,0.603244925503153,"ssf","mf.ss","gamma","unif",5,"ssfOUT_120_0.5_2_VULTURE","VULTURE",2,2,120,"preference"
"ssfOUT_120_0.5_2_VULTURE.27",0.444227599178021,0.311767830191151,0.576687368164892,"ssf","mf.ss","gamma","unif",15,"ssfOUT_120_0.5_2_VULTURE","VULTURE",2,2,120,"preference"
"ssfOUT_120_0.5_2_VULTURE.28",0.467190987712006,0.337209032061341,0.597172943362671,"ssf","mf.ss","gamma","unif",50,"ssfOUT_120_0.5_2_VULTURE","VULTURE",2,2,120,"preference"
"ssfOUT_120_0.5_2_VULTURE.29",0.443068374269784,0.313789819458327,0.572346929081242,"ssf","mf.ss","gamma","unif",158,"ssfOUT_120_0.5_2_VULTURE","VULTURE",2,2,120,"preference"
"ssfOUT_120_0.5_2_VULTURE.30",0.444225295164542,0.315176987991175,0.573273602337908,"ssf","mf.ss","gamma","unif",500,"ssfOUT_120_0.5_2_VULTURE","VULTURE",2,2,120,"preference"
"ssfOUT_120_0.5_2_VULTURE.31",0.406981900449739,0.267077596823672,0.546886204075807,"ssf","mf.ss","exp","vonmises",5,"ssfOUT_120_0.5_2_VULTURE","VULTURE",2,2,120,"preference"
"ssfOUT_120_0.5_2_VULTURE.32",0.363145561536671,0.230365871072734,0.495925252000607,"ssf","mf.ss","exp","vonmises",15,"ssfOUT_120_0.5_2_VULTURE","VULTURE",2,2,120,"preference"
"ssfOUT_120_0.5_2_VULTURE.33",0.395091752763558,0.264222718586493,0.525960786940623,"ssf","mf.ss","exp","vonmises",50,"ssfOUT_120_0.5_2_VULTURE","VULTURE",2,2,120,"preference"
"ssfOUT_120_0.5_2_VULTURE.34",0.380707095105528,0.250740440981091,0.510673749229965,"ssf","mf.ss","exp","vonmises",158,"ssfOUT_120_0.5_2_VULTURE","VULTURE",2,2,120,"preference"
"ssfOUT_120_0.5_2_VULTURE.35",0.394918167963048,0.264813529859551,0.525022806066544,"ssf","mf.ss","exp","vonmises",500,"ssfOUT_120_0.5_2_VULTURE","VULTURE",2,2,120,"preference"
"ssfOUT_120_0.5_2_VULTURE.36",0.284780838181837,0.145574329702423,0.423987346661251,"ssf","mf.ss","exp","unif",5,"ssfOUT_120_0.5_2_VULTURE","VULTURE",2,2,120,"preference"
"ssfOUT_120_0.5_2_VULTURE.37",0.395104820664602,0.262220137823488,0.527989503505715,"ssf","mf.ss","exp","unif",15,"ssfOUT_120_0.5_2_VULTURE","VULTURE",2,2,120,"preference"
"ssfOUT_120_0.5_2_VULTURE.38",0.387420837792746,0.256838283369957,0.518003392215536,"ssf","mf.ss","exp","unif",50,"ssfOUT_120_0.5_2_VULTURE","VULTURE",2,2,120,"preference"
"ssfOUT_120_0.5_2_VULTURE.39",0.423123864010694,0.292842954006206,0.553404774015182,"ssf","mf.ss","exp","unif",158,"ssfOUT_120_0.5_2_VULTURE","VULTURE",2,2,120,"preference"
"ssfOUT_120_0.5_2_VULTURE.40",0.3999256056782,0.269835384269126,0.530015827087275,"ssf","mf.ss","exp","unif",500,"ssfOUT_120_0.5_2_VULTURE","VULTURE",2,2,120,"preference"
"ssfOUT_120_0.5_2_KINGCOBRA.1",0.490384478883592,0.336604811807338,0.644164145959847,"ssf","mf.is","gamma","vonmises",5,"ssfOUT_120_0.5_2_KINGCOBRA","KINGCOBRA",2,2,120,"preference"
"ssfOUT_120_0.5_2_KINGCOBRA.2",0.523401769548162,0.373403484618036,0.673400054478288,"ssf","mf.is","gamma","vonmises",15,"ssfOUT_120_0.5_2_KINGCOBRA","KINGCOBRA",2,2,120,"preference"
"ssfOUT_120_0.5_2_KINGCOBRA.3",0.484931328844866,0.339007199325039,0.630855458364692,"ssf","mf.is","gamma","vonmises",50,"ssfOUT_120_0.5_2_KINGCOBRA","KINGCOBRA",2,2,120,"preference"
"ssfOUT_120_0.5_2_KINGCOBRA.4",0.49291853686266,0.347510286238597,0.638326787486724,"ssf","mf.is","gamma","vonmises",158,"ssfOUT_120_0.5_2_KINGCOBRA","KINGCOBRA",2,2,120,"preference"
"ssfOUT_120_0.5_2_KINGCOBRA.5",0.482657538541252,0.337426356997999,0.627888720084505,"ssf","mf.is","gamma","vonmises",500,"ssfOUT_120_0.5_2_KINGCOBRA","KINGCOBRA",2,2,120,"preference"
"ssfOUT_120_0.5_2_KINGCOBRA.6",0.460456580567277,0.309471226099518,0.611441935035035,"ssf","mf.is","gamma","unif",5,"ssfOUT_120_0.5_2_KINGCOBRA","KINGCOBRA",2,2,120,"preference"
"ssfOUT_120_0.5_2_KINGCOBRA.7",0.463045448377716,0.314580049962142,0.611510846793291,"ssf","mf.is","gamma","unif",15,"ssfOUT_120_0.5_2_KINGCOBRA","KINGCOBRA",2,2,120,"preference"
"ssfOUT_120_0.5_2_KINGCOBRA.8",0.484843661978326,0.337949011186547,0.631738312770104,"ssf","mf.is","gamma","unif",50,"ssfOUT_120_0.5_2_KINGCOBRA","KINGCOBRA",2,2,120,"preference"
"ssfOUT_120_0.5_2_KINGCOBRA.9",0.488091545199231,0.343303807760927,0.632879282637536,"ssf","mf.is","gamma","unif",158,"ssfOUT_120_0.5_2_KINGCOBRA","KINGCOBRA",2,2,120,"preference"
"ssfOUT_120_0.5_2_KINGCOBRA.10",0.481438366722198,0.336379335830493,0.626497397613904,"ssf","mf.is","gamma","unif",500,"ssfOUT_120_0.5_2_KINGCOBRA","KINGCOBRA",2,2,120,"preference"
"ssfOUT_120_0.5_2_KINGCOBRA.11",0.350139833791958,0.1940231173773,0.506256550206617,"ssf","mf.is","exp","vonmises",5,"ssfOUT_120_0.5_2_KINGCOBRA","KINGCOBRA",2,2,120,"preference"
"ssfOUT_120_0.5_2_KINGCOBRA.12",0.392849550016024,0.24680623555975,0.538892864472299,"ssf","mf.is","exp","vonmises",15,"ssfOUT_120_0.5_2_KINGCOBRA","KINGCOBRA",2,2,120,"preference"
"ssfOUT_120_0.5_2_KINGCOBRA.13",0.435571228231161,0.288419145272047,0.582723311190274,"ssf","mf.is","exp","vonmises",50,"ssfOUT_120_0.5_2_KINGCOBRA","KINGCOBRA",2,2,120,"preference"
"ssfOUT_120_0.5_2_KINGCOBRA.14",0.484619649749518,0.336171583290786,0.63306771620825,"ssf","mf.is","exp","vonmises",158,"ssfOUT_120_0.5_2_KINGCOBRA","KINGCOBRA",2,2,120,"preference"
"ssfOUT_120_0.5_2_KINGCOBRA.15",0.478638117566067,0.330892285237215,0.62638394989492,"ssf","mf.is","exp","vonmises",500,"ssfOUT_120_0.5_2_KINGCOBRA","KINGCOBRA",2,2,120,"preference"
"ssfOUT_120_0.5_2_KINGCOBRA.16",0.401459680038875,0.24642819944304,0.55649116063471,"ssf","mf.is","exp","unif",5,"ssfOUT_120_0.5_2_KINGCOBRA","KINGCOBRA",2,2,120,"preference"
"ssfOUT_120_0.5_2_KINGCOBRA.17",0.329287193673965,0.180335948715081,0.478238438632849,"ssf","mf.is","exp","unif",15,"ssfOUT_120_0.5_2_KINGCOBRA","KINGCOBRA",2,2,120,"preference"
"ssfOUT_120_0.5_2_KINGCOBRA.18",0.481607522783179,0.335538450668429,0.627676594897928,"ssf","mf.is","exp","unif",50,"ssfOUT_120_0.5_2_KINGCOBRA","KINGCOBRA",2,2,120,"preference"
"ssfOUT_120_0.5_2_KINGCOBRA.19",0.499218026738938,0.351937161298374,0.646498892179502,"ssf","mf.is","exp","unif",158,"ssfOUT_120_0.5_2_KINGCOBRA","KINGCOBRA",2,2,120,"preference"
"ssfOUT_120_0.5_2_KINGCOBRA.20",0.452290938669766,0.305004195253108,0.599577682086424,"ssf","mf.is","exp","unif",500,"ssfOUT_120_0.5_2_KINGCOBRA","KINGCOBRA",2,2,120,"preference"
"ssfOUT_120_0.5_2_KINGCOBRA.21",0.485627439159762,0.331400550552935,0.639854327766588,"ssf","mf.ss","gamma","vonmises",5,"ssfOUT_120_0.5_2_KINGCOBRA","KINGCOBRA",2,2,120,"preference"
"ssfOUT_120_0.5_2_KINGCOBRA.22",0.521759239566457,0.371380763533211,0.672137715599703,"ssf","mf.ss","gamma","vonmises",15,"ssfOUT_120_0.5_2_KINGCOBRA","KINGCOBRA",2,2,120,"preference"
"ssfOUT_120_0.5_2_KINGCOBRA.23",0.484066503917802,0.337877568424522,0.630255439411082,"ssf","mf.ss","gamma","vonmises",50,"ssfOUT_120_0.5_2_KINGCOBRA","KINGCOBRA",2,2,120,"preference"
"ssfOUT_120_0.5_2_KINGCOBRA.24",0.49131065285127,0.345555715640243,0.637065590062297,"ssf","mf.ss","gamma","vonmises",158,"ssfOUT_120_0.5_2_KINGCOBRA","KINGCOBRA",2,2,120,"preference"
"ssfOUT_120_0.5_2_KINGCOBRA.25",0.481412266667926,0.335880998330087,0.626943535005766,"ssf","mf.ss","gamma","vonmises",500,"ssfOUT_120_0.5_2_KINGCOBRA","KINGCOBRA",2,2,120,"preference"
"ssfOUT_120_0.5_2_KINGCOBRA.26",0.457731308745218,0.306746375620726,0.60871624186971,"ssf","mf.ss","gamma","unif",5,"ssfOUT_120_0.5_2_KINGCOBRA","KINGCOBRA",2,2,120,"preference"
"ssfOUT_120_0.5_2_KINGCOBRA.27",0.460680459221929,0.311957958326555,0.609402960117302,"ssf","mf.ss","gamma","unif",15,"ssfOUT_120_0.5_2_KINGCOBRA","KINGCOBRA",2,2,120,"preference"
"ssfOUT_120_0.5_2_KINGCOBRA.28",0.483286661819337,0.336092321673118,0.630481001965557,"ssf","mf.ss","gamma","unif",50,"ssfOUT_120_0.5_2_KINGCOBRA","KINGCOBRA",2,2,120,"preference"
"ssfOUT_120_0.5_2_KINGCOBRA.29",0.486462406364225,0.341369029266571,0.63155578346188,"ssf","mf.ss","gamma","unif",158,"ssfOUT_120_0.5_2_KINGCOBRA","KINGCOBRA",2,2,120,"preference"
"ssfOUT_120_0.5_2_KINGCOBRA.30",0.479926036350417,0.334560028611322,0.625292044089512,"ssf","mf.ss","gamma","unif",500,"ssfOUT_120_0.5_2_KINGCOBRA","KINGCOBRA",2,2,120,"preference"
"ssfOUT_120_0.5_2_KINGCOBRA.31",0.48180878953319,0.330995866886386,0.632621712179995,"ssf","mf.ss","exp","vonmises",5,"ssfOUT_120_0.5_2_KINGCOBRA","KINGCOBRA",2,2,120,"preference"
"ssfOUT_120_0.5_2_KINGCOBRA.32",0.526276211496702,0.38399782391498,0.668554599078424,"ssf","mf.ss","exp","vonmises",15,"ssfOUT_120_0.5_2_KINGCOBRA","KINGCOBRA",2,2,120,"preference"
"ssfOUT_120_0.5_2_KINGCOBRA.33",0.508380343587628,0.367492046911415,0.649268640263841,"ssf","mf.ss","exp","vonmises",50,"ssfOUT_120_0.5_2_KINGCOBRA","KINGCOBRA",2,2,120,"preference"
"ssfOUT_120_0.5_2_KINGCOBRA.34",0.529033194051457,0.388754932316691,0.669311455786223,"ssf","mf.ss","exp","vonmises",158,"ssfOUT_120_0.5_2_KINGCOBRA","KINGCOBRA",2,2,120,"preference"
"ssfOUT_120_0.5_2_KINGCOBRA.35",0.52009370931354,0.380194268808278,0.659993149818801,"ssf","mf.ss","exp","vonmises",500,"ssfOUT_120_0.5_2_KINGCOBRA","KINGCOBRA",2,2,120,"preference"
"ssfOUT_120_0.5_2_KINGCOBRA.36",0.578795786767153,0.426795235594186,0.73079633794012,"ssf","mf.ss","exp","unif",5,"ssfOUT_120_0.5_2_KINGCOBRA","KINGCOBRA",2,2,120,"preference"
"ssfOUT_120_0.5_2_KINGCOBRA.37",0.487899194138147,0.344596691401229,0.631201696875065,"ssf","mf.ss","exp","unif",15,"ssfOUT_120_0.5_2_KINGCOBRA","KINGCOBRA",2,2,120,"preference"
"ssfOUT_120_0.5_2_KINGCOBRA.38",0.559159811082016,0.419403305296269,0.698916316867763,"ssf","mf.ss","exp","unif",50,"ssfOUT_120_0.5_2_KINGCOBRA","KINGCOBRA",2,2,120,"preference"
"ssfOUT_120_0.5_2_KINGCOBRA.39",0.542522792740827,0.402868481513025,0.682177103968628,"ssf","mf.ss","exp","unif",158,"ssfOUT_120_0.5_2_KINGCOBRA","KINGCOBRA",2,2,120,"preference"
"ssfOUT_120_0.5_2_KINGCOBRA.40",0.516810527043202,0.377141792207986,0.656479261878418,"ssf","mf.ss","exp","unif",500,"ssfOUT_120_0.5_2_KINGCOBRA","KINGCOBRA",2,2,120,"preference"
"ssfOUT_120_0.5_3_BADGER.1",0.0312715899903676,-0.0856476506249881,0.148190830605723,"ssf","mf.is","gamma","vonmises",5,"ssfOUT_120_0.5_3_BADGER","BADGER",3,2,120,"no effect"
"ssfOUT_120_0.5_3_BADGER.2",0.00860316623520586,-0.102023535125195,0.119229867595607,"ssf","mf.is","gamma","vonmises",15,"ssfOUT_120_0.5_3_BADGER","BADGER",3,2,120,"no effect"
"ssfOUT_120_0.5_3_BADGER.3",0.00797530622214053,-0.0990408934642515,0.114991505908533,"ssf","mf.is","gamma","vonmises",50,"ssfOUT_120_0.5_3_BADGER","BADGER",3,2,120,"no effect"
"ssfOUT_120_0.5_3_BADGER.4",-0.00912996226517467,-0.116065122366721,0.0978051978363716,"ssf","mf.is","gamma","vonmises",158,"ssfOUT_120_0.5_3_BADGER","BADGER",3,2,120,"no effect"
"ssfOUT_120_0.5_3_BADGER.5",-0.00381744661172116,-0.110471917961261,0.102837024737819,"ssf","mf.is","gamma","vonmises",500,"ssfOUT_120_0.5_3_BADGER","BADGER",3,2,120,"no effect"
"ssfOUT_120_0.5_3_BADGER.6",-0.0336642655792603,-0.150606096861447,0.0832775657029264,"ssf","mf.is","gamma","unif",5,"ssfOUT_120_0.5_3_BADGER","BADGER",3,2,120,"no effect"
"ssfOUT_120_0.5_3_BADGER.7",-0.0678644116935409,-0.17830678030804,0.0425779569209582,"ssf","mf.is","gamma","unif",15,"ssfOUT_120_0.5_3_BADGER","BADGER",3,2,120,"no effect"
"ssfOUT_120_0.5_3_BADGER.8",0.00227547207637339,-0.105636519396723,0.110187463549469,"ssf","mf.is","gamma","unif",50,"ssfOUT_120_0.5_3_BADGER","BADGER",3,2,120,"no effect"
"ssfOUT_120_0.5_3_BADGER.9",-0.00255387309041439,-0.109345777661907,0.104238031481078,"ssf","mf.is","gamma","unif",158,"ssfOUT_120_0.5_3_BADGER","BADGER",3,2,120,"no effect"
"ssfOUT_120_0.5_3_BADGER.10",-0.00573404104096221,-0.112530607485697,0.101062525403773,"ssf","mf.is","gamma","unif",500,"ssfOUT_120_0.5_3_BADGER","BADGER",3,2,120,"no effect"
"ssfOUT_120_0.5_3_BADGER.11",-0.080127037969336,-0.196652506138534,0.0363984301998618,"ssf","mf.is","exp","vonmises",5,"ssfOUT_120_0.5_3_BADGER","BADGER",3,2,120,"no effect"
"ssfOUT_120_0.5_3_BADGER.12",-0.05581755492768,-0.166127866316329,0.0544927564609687,"ssf","mf.is","exp","vonmises",15,"ssfOUT_120_0.5_3_BADGER","BADGER",3,2,120,"no effect"
"ssfOUT_120_0.5_3_BADGER.13",-0.030162545133703,-0.1377946617384,0.0774695714709936,"ssf","mf.is","exp","vonmises",50,"ssfOUT_120_0.5_3_BADGER","BADGER",3,2,120,"no effect"
"ssfOUT_120_0.5_3_BADGER.14",-0.00927610323633937,-0.115983328580184,0.0974311221075054,"ssf","mf.is","exp","vonmises",158,"ssfOUT_120_0.5_3_BADGER","BADGER",3,2,120,"no effect"
"ssfOUT_120_0.5_3_BADGER.15",-0.0136623322237254,-0.120333927222814,0.0930092627753632,"ssf","mf.is","exp","vonmises",500,"ssfOUT_120_0.5_3_BADGER","BADGER",3,2,120,"no effect"
"ssfOUT_120_0.5_3_BADGER.16",-0.0351988115762997,-0.153949931193313,0.0835523080407133,"ssf","mf.is","exp","unif",5,"ssfOUT_120_0.5_3_BADGER","BADGER",3,2,120,"no effect"
"ssfOUT_120_0.5_3_BADGER.17",0.0138694715904932,-0.0959312170515183,0.123670160232505,"ssf","mf.is","exp","unif",15,"ssfOUT_120_0.5_3_BADGER","BADGER",3,2,120,"no effect"
"ssfOUT_120_0.5_3_BADGER.18",-0.0342099352695285,-0.142065577935408,0.073645707396351,"ssf","mf.is","exp","unif",50,"ssfOUT_120_0.5_3_BADGER","BADGER",3,2,120,"no effect"
"ssfOUT_120_0.5_3_BADGER.19",-0.00855379263008605,-0.115528170402878,0.0984205851427056,"ssf","mf.is","exp","unif",158,"ssfOUT_120_0.5_3_BADGER","BADGER",3,2,120,"no effect"
"ssfOUT_120_0.5_3_BADGER.20",-0.00628363624076591,-0.112959085031392,0.10039181254986,"ssf","mf.is","exp","unif",500,"ssfOUT_120_0.5_3_BADGER","BADGER",3,2,120,"no effect"
"ssfOUT_120_0.5_3_BADGER.21",0.0304020689823859,-0.0865863386182836,0.147390476583055,"ssf","mf.ss","gamma","vonmises",5,"ssfOUT_120_0.5_3_BADGER","BADGER",3,2,120,"no effect"
"ssfOUT_120_0.5_3_BADGER.22",0.00929918049294166,-0.10142978692106,0.120028147906944,"ssf","mf.ss","gamma","vonmises",15,"ssfOUT_120_0.5_3_BADGER","BADGER",3,2,120,"no effect"
"ssfOUT_120_0.5_3_BADGER.23",0.00844274657365001,-0.098654142293792,0.115539635441092,"ssf","mf.ss","gamma","vonmises",50,"ssfOUT_120_0.5_3_BADGER","BADGER",3,2,120,"no effect"
"ssfOUT_120_0.5_3_BADGER.24",-0.00866073325649102,-0.115658616514628,0.0983371500016456,"ssf","mf.ss","gamma","vonmises",158,"ssfOUT_120_0.5_3_BADGER","BADGER",3,2,120,"no effect"
"ssfOUT_120_0.5_3_BADGER.25",-0.00333550436463799,-0.110038649496292,0.103367640767016,"ssf","mf.ss","gamma","vonmises",500,"ssfOUT_120_0.5_3_BADGER","BADGER",3,2,120,"no effect"
"ssfOUT_120_0.5_3_BADGER.26",-0.0369458830690487,-0.153257489503944,0.0793657233658468,"ssf","mf.ss","gamma","unif",5,"ssfOUT_120_0.5_3_BADGER","BADGER",3,2,120,"no effect"
"ssfOUT_120_0.5_3_BADGER.27",-0.0747815844505666,-0.185042752803793,0.0354795839026597,"ssf","mf.ss","gamma","unif",15,"ssfOUT_120_0.5_3_BADGER","BADGER",3,2,120,"no effect"
"ssfOUT_120_0.5_3_BADGER.28",0.00230353640790167,-0.105614368902878,0.110221441718681,"ssf","mf.ss","gamma","unif",50,"ssfOUT_120_0.5_3_BADGER","BADGER",3,2,120,"no effect"
"ssfOUT_120_0.5_3_BADGER.29",-0.00404124861496054,-0.110833870405857,0.102751373175936,"ssf","mf.ss","gamma","unif",158,"ssfOUT_120_0.5_3_BADGER","BADGER",3,2,120,"no effect"
"ssfOUT_120_0.5_3_BADGER.30",-0.00607851663480041,-0.112828502422922,0.100671469153321,"ssf","mf.ss","gamma","unif",500,"ssfOUT_120_0.5_3_BADGER","BADGER",3,2,120,"no effect"
"ssfOUT_120_0.5_3_BADGER.31",-0.0801942886789719,-0.196789203687502,0.0364006263295578,"ssf","mf.ss","exp","vonmises",5,"ssfOUT_120_0.5_3_BADGER","BADGER",3,2,120,"no effect"
"ssfOUT_120_0.5_3_BADGER.32",-0.0553850136430235,-0.165685000761906,0.0549149734758594,"ssf","mf.ss","exp","vonmises",15,"ssfOUT_120_0.5_3_BADGER","BADGER",3,2,120,"no effect"
"ssfOUT_120_0.5_3_BADGER.33",-0.030171160456659,-0.137814656124249,0.0774723352109307,"ssf","mf.ss","exp","vonmises",50,"ssfOUT_120_0.5_3_BADGER","BADGER",3,2,120,"no effect"
"ssfOUT_120_0.5_3_BADGER.34",-0.00936361212866499,-0.116081324082328,0.0973540998249983,"ssf","mf.ss","exp","vonmises",158,"ssfOUT_120_0.5_3_BADGER","BADGER",3,2,120,"no effect"
"ssfOUT_120_0.5_3_BADGER.35",-0.0135947985061054,-0.120287887989829,0.093098290977618,"ssf","mf.ss","exp","vonmises",500,"ssfOUT_120_0.5_3_BADGER","BADGER",3,2,120,"no effect"
"ssfOUT_120_0.5_3_BADGER.36",-0.0371252713833277,-0.155289794136272,0.0810392513696164,"ssf","mf.ss","exp","unif",5,"ssfOUT_120_0.5_3_BADGER","BADGER",3,2,120,"no effect"
"ssfOUT_120_0.5_3_BADGER.37",0.0130224969492037,-0.0965826485562403,0.122627642454648,"ssf","mf.ss","exp","unif",15,"ssfOUT_120_0.5_3_BADGER","BADGER",3,2,120,"no effect"
"ssfOUT_120_0.5_3_BADGER.38",-0.0356107754106018,-0.143362239961512,0.0721406891403082,"ssf","mf.ss","exp","unif",50,"ssfOUT_120_0.5_3_BADGER","BADGER",3,2,120,"no effect"
"ssfOUT_120_0.5_3_BADGER.39",-0.00993585946213026,-0.116795409457727,0.0969236905334662,"ssf","mf.ss","exp","unif",158,"ssfOUT_120_0.5_3_BADGER","BADGER",3,2,120,"no effect"
"ssfOUT_120_0.5_3_BADGER.40",-0.0105832117239187,-0.117197189711262,0.0960307662634242,"ssf","mf.ss","exp","unif",500,"ssfOUT_120_0.5_3_BADGER","BADGER",3,2,120,"no effect"
"ssfOUT_120_0.5_3_VULTURE.1",0.348662529480371,0.207370285910112,0.48995477305063,"ssf","mf.is","gamma","vonmises",5,"ssfOUT_120_0.5_3_VULTURE","VULTURE",3,2,120,"preference"
"ssfOUT_120_0.5_3_VULTURE.2",0.323940133496051,0.188353972280818,0.459526294711285,"ssf","mf.is","gamma","vonmises",15,"ssfOUT_120_0.5_3_VULTURE","VULTURE",3,2,120,"preference"
"ssfOUT_120_0.5_3_VULTURE.3",0.274339508462679,0.141434620882956,0.407244396042403,"ssf","mf.is","gamma","vonmises",50,"ssfOUT_120_0.5_3_VULTURE","VULTURE",3,2,120,"preference"
"ssfOUT_120_0.5_3_VULTURE.4",0.285447523396484,0.153337619523596,0.417557427269372,"ssf","mf.is","gamma","vonmises",158,"ssfOUT_120_0.5_3_VULTURE","VULTURE",3,2,120,"preference"
"ssfOUT_120_0.5_3_VULTURE.5",0.269537399011183,0.137763135868809,0.401311662153557,"ssf","mf.is","gamma","vonmises",500,"ssfOUT_120_0.5_3_VULTURE","VULTURE",3,2,120,"preference"
"ssfOUT_120_0.5_3_VULTURE.6",0.229147654868163,0.0856217042706951,0.372673605465631,"ssf","mf.is","gamma","unif",5,"ssfOUT_120_0.5_3_VULTURE","VULTURE",3,2,120,"preference"
"ssfOUT_120_0.5_3_VULTURE.7",0.279899228208903,0.145129574392769,0.414668882025037,"ssf","mf.is","gamma","unif",15,"ssfOUT_120_0.5_3_VULTURE","VULTURE",3,2,120,"preference"
"ssfOUT_120_0.5_3_VULTURE.8",0.291102021130914,0.15862405993972,0.423579982322109,"ssf","mf.is","gamma","unif",50,"ssfOUT_120_0.5_3_VULTURE","VULTURE",3,2,120,"preference"
"ssfOUT_120_0.5_3_VULTURE.9",0.282288189178089,0.150323160738601,0.414253217617576,"ssf","mf.is","gamma","unif",158,"ssfOUT_120_0.5_3_VULTURE","VULTURE",3,2,120,"preference"
"ssfOUT_120_0.5_3_VULTURE.10",0.280802961693955,0.149023546404562,0.412582376983348,"ssf","mf.is","gamma","unif",500,"ssfOUT_120_0.5_3_VULTURE","VULTURE",3,2,120,"preference"
"ssfOUT_120_0.5_3_VULTURE.11",0.18279933721471,0.0361228744654582,0.329475799963961,"ssf","mf.is","exp","vonmises",5,"ssfOUT_120_0.5_3_VULTURE","VULTURE",3,2,120,"preference"
"ssfOUT_120_0.5_3_VULTURE.12",0.247687987677162,0.110183810950028,0.385192164404296,"ssf","mf.is","exp","vonmises",15,"ssfOUT_120_0.5_3_VULTURE","VULTURE",3,2,120,"preference"
"ssfOUT_120_0.5_3_VULTURE.13",0.303847838118724,0.17068946700682,0.437006209230628,"ssf","mf.is","exp","vonmises",50,"ssfOUT_120_0.5_3_VULTURE","VULTURE",3,2,120,"preference"
"ssfOUT_120_0.5_3_VULTURE.14",0.284438831812066,0.152359007737318,0.416518655886813,"ssf","mf.is","exp","vonmises",158,"ssfOUT_120_0.5_3_VULTURE","VULTURE",3,2,120,"preference"
"ssfOUT_120_0.5_3_VULTURE.15",0.277281323866585,0.145397734208049,0.409164913525121,"ssf","mf.is","exp","vonmises",500,"ssfOUT_120_0.5_3_VULTURE","VULTURE",3,2,120,"preference"
"ssfOUT_120_0.5_3_VULTURE.16",0.228807962163004,0.0802417517621234,0.377374172563885,"ssf","mf.is","exp","unif",5,"ssfOUT_120_0.5_3_VULTURE","VULTURE",3,2,120,"preference"
"ssfOUT_120_0.5_3_VULTURE.17",0.245492073418541,0.107890670750743,0.383093476086339,"ssf","mf.is","exp","unif",15,"ssfOUT_120_0.5_3_VULTURE","VULTURE",3,2,120,"preference"
"ssfOUT_120_0.5_3_VULTURE.18",0.284246080849041,0.150636474116747,0.417855687581334,"ssf","mf.is","exp","unif",50,"ssfOUT_120_0.5_3_VULTURE","VULTURE",3,2,120,"preference"
"ssfOUT_120_0.5_3_VULTURE.19",0.286571779604616,0.154318811675036,0.418824747534196,"ssf","mf.is","exp","unif",158,"ssfOUT_120_0.5_3_VULTURE","VULTURE",3,2,120,"preference"
"ssfOUT_120_0.5_3_VULTURE.20",0.277285482665441,0.14535944664292,0.409211518687963,"ssf","mf.is","exp","unif",500,"ssfOUT_120_0.5_3_VULTURE","VULTURE",3,2,120,"preference"
"ssfOUT_120_0.5_3_VULTURE.21",0.345997996951857,0.204580228293133,0.487415765610582,"ssf","mf.ss","gamma","vonmises",5,"ssfOUT_120_0.5_3_VULTURE","VULTURE",3,2,120,"preference"
"ssfOUT_120_0.5_3_VULTURE.22",0.321898508625496,0.186194102097585,0.457602915153406,"ssf","mf.ss","gamma","vonmises",15,"ssfOUT_120_0.5_3_VULTURE","VULTURE",3,2,120,"preference"
"ssfOUT_120_0.5_3_VULTURE.23",0.273402696262194,0.140419387952437,0.406386004571951,"ssf","mf.ss","gamma","vonmises",50,"ssfOUT_120_0.5_3_VULTURE","VULTURE",3,2,120,"preference"
"ssfOUT_120_0.5_3_VULTURE.24",0.284268504406702,0.152076881495864,0.416460127317539,"ssf","mf.ss","gamma","vonmises",158,"ssfOUT_120_0.5_3_VULTURE","VULTURE",3,2,120,"preference"
"ssfOUT_120_0.5_3_VULTURE.25",0.268538258830764,0.136692362722114,0.400384154939414,"ssf","mf.ss","gamma","vonmises",500,"ssfOUT_120_0.5_3_VULTURE","VULTURE",3,2,120,"preference"
"ssfOUT_120_0.5_3_VULTURE.26",0.227651898213579,0.0841814640234226,0.371122332403735,"ssf","mf.ss","gamma","unif",5,"ssfOUT_120_0.5_3_VULTURE","VULTURE",3,2,120,"preference"
"ssfOUT_120_0.5_3_VULTURE.27",0.283419513123135,0.148631927495171,0.418207098751098,"ssf","mf.ss","gamma","unif",15,"ssfOUT_120_0.5_3_VULTURE","VULTURE",3,2,120,"preference"
"ssfOUT_120_0.5_3_VULTURE.28",0.293587276501498,0.161071485994119,0.426103067008876,"ssf","mf.ss","gamma","unif",50,"ssfOUT_120_0.5_3_VULTURE","VULTURE",3,2,120,"preference"
"ssfOUT_120_0.5_3_VULTURE.29",0.285145086150869,0.153126034349813,0.417164137951924,"ssf","mf.ss","gamma","unif",158,"ssfOUT_120_0.5_3_VULTURE","VULTURE",3,2,120,"preference"
"ssfOUT_120_0.5_3_VULTURE.30",0.283349724092563,0.151518377308637,0.415181070876489,"ssf","mf.ss","gamma","unif",500,"ssfOUT_120_0.5_3_VULTURE","VULTURE",3,2,120,"preference"
"ssfOUT_120_0.5_3_VULTURE.31",0.195791821975327,0.0526667041868359,0.338916939763819,"ssf","mf.ss","exp","vonmises",5,"ssfOUT_120_0.5_3_VULTURE","VULTURE",3,2,120,"preference"
"ssfOUT_120_0.5_3_VULTURE.32",0.270483613496422,0.133903210452671,0.407064016540173,"ssf","mf.ss","exp","vonmises",15,"ssfOUT_120_0.5_3_VULTURE","VULTURE",3,2,120,"preference"
"ssfOUT_120_0.5_3_VULTURE.33",0.282047782949975,0.14831501418377,0.41578055171618,"ssf","mf.ss","exp","vonmises",50,"ssfOUT_120_0.5_3_VULTURE","VULTURE",3,2,120,"preference"
"ssfOUT_120_0.5_3_VULTURE.34",0.268643488454754,0.135657451663847,0.401629525245661,"ssf","mf.ss","exp","vonmises",158,"ssfOUT_120_0.5_3_VULTURE","VULTURE",3,2,120,"preference"
"ssfOUT_120_0.5_3_VULTURE.35",0.267606796340185,0.134983387994941,0.400230204685429,"ssf","mf.ss","exp","vonmises",500,"ssfOUT_120_0.5_3_VULTURE","VULTURE",3,2,120,"preference"
"ssfOUT_120_0.5_3_VULTURE.36",0.198408522548839,0.0548952167867544,0.341921828310923,"ssf","mf.ss","exp","unif",5,"ssfOUT_120_0.5_3_VULTURE","VULTURE",3,2,120,"preference"
"ssfOUT_120_0.5_3_VULTURE.37",0.280529065630281,0.143755016616002,0.41730311464456,"ssf","mf.ss","exp","unif",15,"ssfOUT_120_0.5_3_VULTURE","VULTURE",3,2,120,"preference"
"ssfOUT_120_0.5_3_VULTURE.38",0.273351456709625,0.13946230827807,0.40724060514118,"ssf","mf.ss","exp","unif",50,"ssfOUT_120_0.5_3_VULTURE","VULTURE",3,2,120,"preference"
"ssfOUT_120_0.5_3_VULTURE.39",0.269203768681322,0.136349866517553,0.40205767084509,"ssf","mf.ss","exp","unif",158,"ssfOUT_120_0.5_3_VULTURE","VULTURE",3,2,120,"preference"
"ssfOUT_120_0.5_3_VULTURE.40",0.270030015084864,0.137334640321854,0.402725389847874,"ssf","mf.ss","exp","unif",500,"ssfOUT_120_0.5_3_VULTURE","VULTURE",3,2,120,"preference"
"ssfOUT_120_0.5_3_KINGCOBRA.1",0.430086808424021,0.0686213855668758,0.791552231281166,"ssf","mf.is","gamma","vonmises",5,"ssfOUT_120_0.5_3_KINGCOBRA","KINGCOBRA",3,2,120,"preference"
"ssfOUT_120_0.5_3_KINGCOBRA.2",0.233662052014103,-0.0928806671036153,0.560204771131821,"ssf","mf.is","gamma","vonmises",15,"ssfOUT_120_0.5_3_KINGCOBRA","KINGCOBRA",3,2,120,"no effect"
"ssfOUT_120_0.5_3_KINGCOBRA.3",0.440452809875874,0.121467087801926,0.759438531949823,"ssf","mf.is","gamma","vonmises",50,"ssfOUT_120_0.5_3_KINGCOBRA","KINGCOBRA",3,2,120,"preference"
"ssfOUT_120_0.5_3_KINGCOBRA.4",0.365241191050706,0.0478342556816495,0.682648126419762,"ssf","mf.is","gamma","vonmises",158,"ssfOUT_120_0.5_3_KINGCOBRA","KINGCOBRA",3,2,120,"preference"
"ssfOUT_120_0.5_3_KINGCOBRA.5",0.399843708356047,0.0832261041698358,0.716461312542259,"ssf","mf.is","gamma","vonmises",500,"ssfOUT_120_0.5_3_KINGCOBRA","KINGCOBRA",3,2,120,"preference"
"ssfOUT_120_0.5_3_KINGCOBRA.6",0.445726919791795,0.104346066650405,0.787107772933184,"ssf","mf.is","gamma","unif",5,"ssfOUT_120_0.5_3_KINGCOBRA","KINGCOBRA",3,2,120,"preference"
"ssfOUT_120_0.5_3_KINGCOBRA.7",0.226076107460935,-0.0948236354340038,0.546975850355873,"ssf","mf.is","gamma","unif",15,"ssfOUT_120_0.5_3_KINGCOBRA","KINGCOBRA",3,2,120,"no effect"
"ssfOUT_120_0.5_3_KINGCOBRA.8",0.348614084711428,0.0303917288607881,0.666836440562068,"ssf","mf.is","gamma","unif",50,"ssfOUT_120_0.5_3_KINGCOBRA","KINGCOBRA",3,2,120,"preference"
"ssfOUT_120_0.5_3_KINGCOBRA.9",0.418209573694732,0.103013953299395,0.733405194090069,"ssf","mf.is","gamma","unif",158,"ssfOUT_120_0.5_3_KINGCOBRA","KINGCOBRA",3,2,120,"preference"
"ssfOUT_120_0.5_3_KINGCOBRA.10",0.394287920935387,0.0781190809955242,0.71045676087525,"ssf","mf.is","gamma","unif",500,"ssfOUT_120_0.5_3_KINGCOBRA","KINGCOBRA",3,2,120,"preference"
"ssfOUT_120_0.5_3_KINGCOBRA.11",0.249083134137064,-0.10268153117979,0.600847799453917,"ssf","mf.is","exp","vonmises",5,"ssfOUT_120_0.5_3_KINGCOBRA","KINGCOBRA",3,2,120,"no effect"
"ssfOUT_120_0.5_3_KINGCOBRA.12",0.29747063627819,-0.0244788644706074,0.619420137026987,"ssf","mf.is","exp","vonmises",15,"ssfOUT_120_0.5_3_KINGCOBRA","KINGCOBRA",3,2,120,"no effect"
"ssfOUT_120_0.5_3_KINGCOBRA.13",0.429238320918637,0.103825497298437,0.754651144538838,"ssf","mf.is","exp","vonmises",50,"ssfOUT_120_0.5_3_KINGCOBRA","KINGCOBRA",3,2,120,"preference"
"ssfOUT_120_0.5_3_KINGCOBRA.14",0.577737287115166,0.24762495460732,0.907849619623012,"ssf","mf.is","exp","vonmises",158,"ssfOUT_120_0.5_3_KINGCOBRA","KINGCOBRA",3,2,120,"preference"
"ssfOUT_120_0.5_3_KINGCOBRA.15",0.439865869691635,0.114837167885033,0.764894571498238,"ssf","mf.is","exp","vonmises",500,"ssfOUT_120_0.5_3_KINGCOBRA","KINGCOBRA",3,2,120,"preference"
"ssfOUT_120_0.5_3_KINGCOBRA.16",0.130423748714467,-0.236766095398925,0.497613592827859,"ssf","mf.is","exp","unif",5,"ssfOUT_120_0.5_3_KINGCOBRA","KINGCOBRA",3,2,120,"no effect"
"ssfOUT_120_0.5_3_KINGCOBRA.17",0.428028694703978,0.0905605309338929,0.765496858474063,"ssf","mf.is","exp","unif",15,"ssfOUT_120_0.5_3_KINGCOBRA","KINGCOBRA",3,2,120,"preference"
"ssfOUT_120_0.5_3_KINGCOBRA.18",0.490866786274902,0.166289883729461,0.815443688820342,"ssf","mf.is","exp","unif",50,"ssfOUT_120_0.5_3_KINGCOBRA","KINGCOBRA",3,2,120,"preference"
"ssfOUT_120_0.5_3_KINGCOBRA.19",0.435920134223915,0.107580363546113,0.764259904901716,"ssf","mf.is","exp","unif",158,"ssfOUT_120_0.5_3_KINGCOBRA","KINGCOBRA",3,2,120,"preference"
"ssfOUT_120_0.5_3_KINGCOBRA.20",0.427472903135288,0.103377614955627,0.75156819131495,"ssf","mf.is","exp","unif",500,"ssfOUT_120_0.5_3_KINGCOBRA","KINGCOBRA",3,2,120,"preference"
"ssfOUT_120_0.5_3_KINGCOBRA.21",0.421045921080466,0.0597098906403665,0.782381951520565,"ssf","mf.ss","gamma","vonmises",5,"ssfOUT_120_0.5_3_KINGCOBRA","KINGCOBRA",3,2,120,"preference"
"ssfOUT_120_0.5_3_KINGCOBRA.22",0.226977269589034,-0.100379493388777,0.554334032566845,"ssf","mf.ss","gamma","vonmises",15,"ssfOUT_120_0.5_3_KINGCOBRA","KINGCOBRA",3,2,120,"no effect"
"ssfOUT_120_0.5_3_KINGCOBRA.23",0.433212410602813,0.113131675954871,0.753293145250755,"ssf","mf.ss","gamma","vonmises",50,"ssfOUT_120_0.5_3_KINGCOBRA","KINGCOBRA",3,2,120,"preference"
"ssfOUT_120_0.5_3_KINGCOBRA.24",0.356553535389961,0.0380165004331062,0.675090570346817,"ssf","mf.ss","gamma","vonmises",158,"ssfOUT_120_0.5_3_KINGCOBRA","KINGCOBRA",3,2,120,"preference"
"ssfOUT_120_0.5_3_KINGCOBRA.25",0.392275297346381,0.0744998411426949,0.710050753550067,"ssf","mf.ss","gamma","vonmises",500,"ssfOUT_120_0.5_3_KINGCOBRA","KINGCOBRA",3,2,120,"preference"
"ssfOUT_120_0.5_3_KINGCOBRA.26",0.4371149325795,0.0950510423482084,0.779178822810791,"ssf","mf.ss","gamma","unif",5,"ssfOUT_120_0.5_3_KINGCOBRA","KINGCOBRA",3,2,120,"preference"
"ssfOUT_120_0.5_3_KINGCOBRA.27",0.21639366284988,-0.105477246886341,0.5382645725861,"ssf","mf.ss","gamma","unif",15,"ssfOUT_120_0.5_3_KINGCOBRA","KINGCOBRA",3,2,120,"no effect"
"ssfOUT_120_0.5_3_KINGCOBRA.28",0.339723744765682,0.0205882827466759,0.658859206784688,"ssf","mf.ss","gamma","unif",50,"ssfOUT_120_0.5_3_KINGCOBRA","KINGCOBRA",3,2,120,"preference"
"ssfOUT_120_0.5_3_KINGCOBRA.29",0.410396509842974,0.0941014128724989,0.726691606813449,"ssf","mf.ss","gamma","unif",158,"ssfOUT_120_0.5_3_KINGCOBRA","KINGCOBRA",3,2,120,"preference"
"ssfOUT_120_0.5_3_KINGCOBRA.30",0.386372313110716,0.0691443883483187,0.703600237873113,"ssf","mf.ss","gamma","unif",500,"ssfOUT_120_0.5_3_KINGCOBRA","KINGCOBRA",3,2,120,"preference"
"ssfOUT_120_0.5_3_KINGCOBRA.31",0.291251789047753,-0.0414333120356604,0.623936890131167,"ssf","mf.ss","exp","vonmises",5,"ssfOUT_120_0.5_3_KINGCOBRA","KINGCOBRA",3,2,120,"no effect"
"ssfOUT_120_0.5_3_KINGCOBRA.32",0.271383011406904,-0.0382736935072543,0.581039716321063,"ssf","mf.ss","exp","vonmises",15,"ssfOUT_120_0.5_3_KINGCOBRA","KINGCOBRA",3,2,120,"no effect"
"ssfOUT_120_0.5_3_KINGCOBRA.33",0.371349911573368,0.0625725241784899,0.680127298968246,"ssf","mf.ss","exp","vonmises",50,"ssfOUT_120_0.5_3_KINGCOBRA","KINGCOBRA",3,2,120,"preference"
"ssfOUT_120_0.5_3_KINGCOBRA.34",0.303945710216129,-0.0017407104623583,0.609632130894617,"ssf","mf.ss","exp","vonmises",158,"ssfOUT_120_0.5_3_KINGCOBRA","KINGCOBRA",3,2,120,"no effect"
"ssfOUT_120_0.5_3_KINGCOBRA.35",0.289714107942542,-0.0163550004867461,0.59578321637183,"ssf","mf.ss","exp","vonmises",500,"ssfOUT_120_0.5_3_KINGCOBRA","KINGCOBRA",3,2,120,"no effect"
"ssfOUT_120_0.5_3_KINGCOBRA.36",0.189868910240636,-0.156822582612808,0.53656040309408,"ssf","mf.ss","exp","unif",5,"ssfOUT_120_0.5_3_KINGCOBRA","KINGCOBRA",3,2,120,"no effect"
"ssfOUT_120_0.5_3_KINGCOBRA.37",0.350221998029923,0.039216857350158,0.661227138709687,"ssf","mf.ss","exp","unif",15,"ssfOUT_120_0.5_3_KINGCOBRA","KINGCOBRA",3,2,120,"preference"
"ssfOUT_120_0.5_3_KINGCOBRA.38",0.265372560246529,-0.043255404159004,0.574000524652062,"ssf","mf.ss","exp","unif",50,"ssfOUT_120_0.5_3_KINGCOBRA","KINGCOBRA",3,2,120,"no effect"
"ssfOUT_120_0.5_3_KINGCOBRA.39",0.284724076000601,-0.0221161860652102,0.591564338066413,"ssf","mf.ss","exp","unif",158,"ssfOUT_120_0.5_3_KINGCOBRA","KINGCOBRA",3,2,120,"no effect"
"ssfOUT_120_0.5_3_KINGCOBRA.40",0.278609642188525,-0.0276540588224796,0.58487334319953,"ssf","mf.ss","exp","unif",500,"ssfOUT_120_0.5_3_KINGCOBRA","KINGCOBRA",3,2,120,"no effect"
"ssfOUT_120_0.5_4_BADGER.1",0.478462613752887,0.346747082691137,0.610178144814636,"ssf","mf.is","gamma","vonmises",5,"ssfOUT_120_0.5_4_BADGER","BADGER",4,2,120,"preference"
"ssfOUT_120_0.5_4_BADGER.2",0.476448583396353,0.35104519177444,0.601851975018265,"ssf","mf.is","gamma","vonmises",15,"ssfOUT_120_0.5_4_BADGER","BADGER",4,2,120,"preference"
"ssfOUT_120_0.5_4_BADGER.3",0.511858202024618,0.388727978830578,0.634988425218659,"ssf","mf.is","gamma","vonmises",50,"ssfOUT_120_0.5_4_BADGER","BADGER",4,2,120,"preference"
"ssfOUT_120_0.5_4_BADGER.4",0.517669574528024,0.395622288281572,0.639716860774475,"ssf","mf.is","gamma","vonmises",158,"ssfOUT_120_0.5_4_BADGER","BADGER",4,2,120,"preference"
"ssfOUT_120_0.5_4_BADGER.5",0.505394155889483,0.383426582694571,0.627361729084395,"ssf","mf.is","gamma","vonmises",500,"ssfOUT_120_0.5_4_BADGER","BADGER",4,2,120,"preference"
"ssfOUT_120_0.5_4_BADGER.6",0.463715321167419,0.33206517835796,0.595365463976877,"ssf","mf.is","gamma","unif",5,"ssfOUT_120_0.5_4_BADGER","BADGER",4,2,120,"preference"
"ssfOUT_120_0.5_4_BADGER.7",0.509254297095221,0.383258313106738,0.635250281083704,"ssf","mf.is","gamma","unif",15,"ssfOUT_120_0.5_4_BADGER","BADGER",4,2,120,"preference"
"ssfOUT_120_0.5_4_BADGER.8",0.518876142699048,0.395663941974514,0.642088343423581,"ssf","mf.is","gamma","unif",50,"ssfOUT_120_0.5_4_BADGER","BADGER",4,2,120,"preference"
"ssfOUT_120_0.5_4_BADGER.9",0.506356895825903,0.384379026325607,0.6283347653262,"ssf","mf.is","gamma","unif",158,"ssfOUT_120_0.5_4_BADGER","BADGER",4,2,120,"preference"
"ssfOUT_120_0.5_4_BADGER.10",0.503701235352221,0.381680235832535,0.625722234871907,"ssf","mf.is","gamma","unif",500,"ssfOUT_120_0.5_4_BADGER","BADGER",4,2,120,"preference"
"ssfOUT_120_0.5_4_BADGER.11",0.524260846213899,0.392494312115112,0.656027380312685,"ssf","mf.is","exp","vonmises",5,"ssfOUT_120_0.5_4_BADGER","BADGER",4,2,120,"preference"
"ssfOUT_120_0.5_4_BADGER.12",0.505524930403152,0.380652990827246,0.630396869979059,"ssf","mf.is","exp","vonmises",15,"ssfOUT_120_0.5_4_BADGER","BADGER",4,2,120,"preference"
"ssfOUT_120_0.5_4_BADGER.13",0.507082165060997,0.384013650439342,0.630150679682652,"ssf","mf.is","exp","vonmises",50,"ssfOUT_120_0.5_4_BADGER","BADGER",4,2,120,"preference"
"ssfOUT_120_0.5_4_BADGER.14",0.505628507183025,0.383653649037262,0.627603365328788,"ssf","mf.is","exp","vonmises",158,"ssfOUT_120_0.5_4_BADGER","BADGER",4,2,120,"preference"
"ssfOUT_120_0.5_4_BADGER.15",0.499255534791236,0.377386401817137,0.621124667765334,"ssf","mf.is","exp","vonmises",500,"ssfOUT_120_0.5_4_BADGER","BADGER",4,2,120,"preference"
"ssfOUT_120_0.5_4_BADGER.16",0.540318657667142,0.40753831973945,0.673098995594834,"ssf","mf.is","exp","unif",5,"ssfOUT_120_0.5_4_BADGER","BADGER",4,2,120,"preference"
"ssfOUT_120_0.5_4_BADGER.17",0.522849269965904,0.397412352845809,0.648286187086,"ssf","mf.is","exp","unif",15,"ssfOUT_120_0.5_4_BADGER","BADGER",4,2,120,"preference"
"ssfOUT_120_0.5_4_BADGER.18",0.507094824105872,0.384693852590396,0.629495795621347,"ssf","mf.is","exp","unif",50,"ssfOUT_120_0.5_4_BADGER","BADGER",4,2,120,"preference"
"ssfOUT_120_0.5_4_BADGER.19",0.516955780245624,0.394674927216618,0.63923663327463,"ssf","mf.is","exp","unif",158,"ssfOUT_120_0.5_4_BADGER","BADGER",4,2,120,"preference"
"ssfOUT_120_0.5_4_BADGER.20",0.506557952754068,0.384723339733996,0.628392565774141,"ssf","mf.is","exp","unif",500,"ssfOUT_120_0.5_4_BADGER","BADGER",4,2,120,"preference"
"ssfOUT_120_0.5_4_BADGER.21",0.476287827352764,0.344463495006839,0.608112159698689,"ssf","mf.ss","gamma","vonmises",5,"ssfOUT_120_0.5_4_BADGER","BADGER",4,2,120,"preference"
"ssfOUT_120_0.5_4_BADGER.22",0.472508624683382,0.346827055355675,0.598190194011088,"ssf","mf.ss","gamma","vonmises",15,"ssfOUT_120_0.5_4_BADGER","BADGER",4,2,120,"preference"
"ssfOUT_120_0.5_4_BADGER.23",0.50966709197989,0.386266546179647,0.633067637780133,"ssf","mf.ss","gamma","vonmises",50,"ssfOUT_120_0.5_4_BADGER","BADGER",4,2,120,"preference"
"ssfOUT_120_0.5_4_BADGER.24",0.515358636208625,0.393034259256664,0.637683013160586,"ssf","mf.ss","gamma","vonmises",158,"ssfOUT_120_0.5_4_BADGER","BADGER",4,2,120,"preference"
"ssfOUT_120_0.5_4_BADGER.25",0.503165591732817,0.380919059923158,0.625412123542477,"ssf","mf.ss","gamma","vonmises",500,"ssfOUT_120_0.5_4_BADGER","BADGER",4,2,120,"preference"
"ssfOUT_120_0.5_4_BADGER.26",0.461860395922838,0.330161999503189,0.593558792342487,"ssf","mf.ss","gamma","unif",5,"ssfOUT_120_0.5_4_BADGER","BADGER",4,2,120,"preference"
"ssfOUT_120_0.5_4_BADGER.27",0.507842606831802,0.382015837030402,0.633669376633201,"ssf","mf.ss","gamma","unif",15,"ssfOUT_120_0.5_4_BADGER","BADGER",4,2,120,"preference"
"ssfOUT_120_0.5_4_BADGER.28",0.521790238404071,0.398415312101923,0.645165164706219,"ssf","mf.ss","gamma","unif",50,"ssfOUT_120_0.5_4_BADGER","BADGER",4,2,120,"preference"
"ssfOUT_120_0.5_4_BADGER.29",0.510185899766845,0.388016369168168,0.632355430365522,"ssf","mf.ss","gamma","unif",158,"ssfOUT_120_0.5_4_BADGER","BADGER",4,2,120,"preference"
"ssfOUT_120_0.5_4_BADGER.30",0.508440870417108,0.386238227034422,0.630643513799794,"ssf","mf.ss","gamma","unif",500,"ssfOUT_120_0.5_4_BADGER","BADGER",4,2,120,"preference"
"ssfOUT_120_0.5_4_BADGER.31",0.529703151572386,0.398274153720775,0.661132149423996,"ssf","mf.ss","exp","vonmises",5,"ssfOUT_120_0.5_4_BADGER","BADGER",4,2,120,"preference"
"ssfOUT_120_0.5_4_BADGER.32",0.518009204616658,0.39312152065985,0.642896888573465,"ssf","mf.ss","exp","vonmises",15,"ssfOUT_120_0.5_4_BADGER","BADGER",4,2,120,"preference"
"ssfOUT_120_0.5_4_BADGER.33",0.49642860672225,0.373620784362881,0.619236429081619,"ssf","mf.ss","exp","vonmises",50,"ssfOUT_120_0.5_4_BADGER","BADGER",4,2,120,"preference"
"ssfOUT_120_0.5_4_BADGER.34",0.503698796976101,0.381985005885565,0.625412588066636,"ssf","mf.ss","exp","vonmises",158,"ssfOUT_120_0.5_4_BADGER","BADGER",4,2,120,"preference"
"ssfOUT_120_0.5_4_BADGER.35",0.49256399837338,0.370966198169497,0.614161798577263,"ssf","mf.ss","exp","vonmises",500,"ssfOUT_120_0.5_4_BADGER","BADGER",4,2,120,"preference"
"ssfOUT_120_0.5_4_BADGER.36",0.564948725916702,0.43301861050444,0.696878841328963,"ssf","mf.ss","exp","unif",5,"ssfOUT_120_0.5_4_BADGER","BADGER",4,2,120,"preference"
"ssfOUT_120_0.5_4_BADGER.37",0.531146351412092,0.406019591477594,0.656273111346589,"ssf","mf.ss","exp","unif",15,"ssfOUT_120_0.5_4_BADGER","BADGER",4,2,120,"preference"
"ssfOUT_120_0.5_4_BADGER.38",0.50532610114444,0.383409952886647,0.627242249402232,"ssf","mf.ss","exp","unif",50,"ssfOUT_120_0.5_4_BADGER","BADGER",4,2,120,"preference"
"ssfOUT_120_0.5_4_BADGER.39",0.514017357188644,0.392188463601645,0.635846250775644,"ssf","mf.ss","exp","unif",158,"ssfOUT_120_0.5_4_BADGER","BADGER",4,2,120,"preference"
"ssfOUT_120_0.5_4_BADGER.40",0.504563630148807,0.38308767029967,0.626039589997945,"ssf","mf.ss","exp","unif",500,"ssfOUT_120_0.5_4_BADGER","BADGER",4,2,120,"preference"
"ssfOUT_120_0.5_4_VULTURE.1",0.0875329123879214,-0.0286109566299814,0.203676781405824,"ssf","mf.is","gamma","vonmises",5,"ssfOUT_120_0.5_4_VULTURE","VULTURE",4,2,120,"no effect"
"ssfOUT_120_0.5_4_VULTURE.2",0.136404055677491,0.0258601608517584,0.246947950503224,"ssf","mf.is","gamma","vonmises",15,"ssfOUT_120_0.5_4_VULTURE","VULTURE",4,2,120,"preference"
"ssfOUT_120_0.5_4_VULTURE.3",0.10700659045068,-0.000841045038009872,0.21485422593937,"ssf","mf.is","gamma","vonmises",50,"ssfOUT_120_0.5_4_VULTURE","VULTURE",4,2,120,"no effect"
"ssfOUT_120_0.5_4_VULTURE.4",0.118624855198203,0.0114582152709618,0.225791495125444,"ssf","mf.is","gamma","vonmises",158,"ssfOUT_120_0.5_4_VULTURE","VULTURE",4,2,120,"preference"
"ssfOUT_120_0.5_4_VULTURE.5",0.109942043648959,0.00293913697187469,0.216944950326043,"ssf","mf.is","gamma","vonmises",500,"ssfOUT_120_0.5_4_VULTURE","VULTURE",4,2,120,"preference"
"ssfOUT_120_0.5_4_VULTURE.6",0.162068501508274,0.0447868951858372,0.279350107830711,"ssf","mf.is","gamma","unif",5,"ssfOUT_120_0.5_4_VULTURE","VULTURE",4,2,120,"preference"
"ssfOUT_120_0.5_4_VULTURE.7",0.11374860970573,0.00343398496849022,0.22406323444297,"ssf","mf.is","gamma","unif",15,"ssfOUT_120_0.5_4_VULTURE","VULTURE",4,2,120,"preference"
"ssfOUT_120_0.5_4_VULTURE.8",0.0855763994157757,-0.0223671901210769,0.193519988952628,"ssf","mf.is","gamma","unif",50,"ssfOUT_120_0.5_4_VULTURE","VULTURE",4,2,120,"no effect"
"ssfOUT_120_0.5_4_VULTURE.9",0.101141977468982,-0.00609564525326742,0.208379600191231,"ssf","mf.is","gamma","unif",158,"ssfOUT_120_0.5_4_VULTURE","VULTURE",4,2,120,"no effect"
"ssfOUT_120_0.5_4_VULTURE.10",0.106754008561908,-0.000348019497869473,0.213856036621685,"ssf","mf.is","gamma","unif",500,"ssfOUT_120_0.5_4_VULTURE","VULTURE",4,2,120,"no effect"
"ssfOUT_120_0.5_4_VULTURE.11",0.147805165737846,0.0274489326073985,0.268161398868293,"ssf","mf.is","exp","vonmises",5,"ssfOUT_120_0.5_4_VULTURE","VULTURE",4,2,120,"preference"
"ssfOUT_120_0.5_4_VULTURE.12",0.17392075309696,0.0626161460469152,0.285225360147005,"ssf","mf.is","exp","vonmises",15,"ssfOUT_120_0.5_4_VULTURE","VULTURE",4,2,120,"preference"
"ssfOUT_120_0.5_4_VULTURE.13",0.121371428116588,0.0131484206431104,0.229594435590065,"ssf","mf.is","exp","vonmises",50,"ssfOUT_120_0.5_4_VULTURE","VULTURE",4,2,120,"preference"
"ssfOUT_120_0.5_4_VULTURE.14",0.10461274113871,-0.00277255544354145,0.211998037720961,"ssf","mf.is","exp","vonmises",158,"ssfOUT_120_0.5_4_VULTURE","VULTURE",4,2,120,"no effect"
"ssfOUT_120_0.5_4_VULTURE.15",0.108151154281875,0.000940437150424078,0.215361871413325,"ssf","mf.is","exp","vonmises",500,"ssfOUT_120_0.5_4_VULTURE","VULTURE",4,2,120,"preference"
"ssfOUT_120_0.5_4_VULTURE.16",0.186271111420187,0.0661126465501517,0.306429576290222,"ssf","mf.is","exp","unif",5,"ssfOUT_120_0.5_4_VULTURE","VULTURE",4,2,120,"preference"
"ssfOUT_120_0.5_4_VULTURE.17",0.12981204167915,0.0186947306598148,0.240929352698486,"ssf","mf.is","exp","unif",15,"ssfOUT_120_0.5_4_VULTURE","VULTURE",4,2,120,"preference"
"ssfOUT_120_0.5_4_VULTURE.18",0.115975954742324,0.00784588913450801,0.224106020350141,"ssf","mf.is","exp","unif",50,"ssfOUT_120_0.5_4_VULTURE","VULTURE",4,2,120,"preference"
"ssfOUT_120_0.5_4_VULTURE.19",0.105797656798561,-0.00160066673661091,0.213195980333734,"ssf","mf.is","exp","unif",158,"ssfOUT_120_0.5_4_VULTURE","VULTURE",4,2,120,"no effect"
"ssfOUT_120_0.5_4_VULTURE.20",0.107986314568045,0.000824455395605758,0.215148173740485,"ssf","mf.is","exp","unif",500,"ssfOUT_120_0.5_4_VULTURE","VULTURE",4,2,120,"preference"
"ssfOUT_120_0.5_4_VULTURE.21",0.0866221952819377,-0.0295259121514555,0.202770302715331,"ssf","mf.ss","gamma","vonmises",5,"ssfOUT_120_0.5_4_VULTURE","VULTURE",4,2,120,"no effect"
"ssfOUT_120_0.5_4_VULTURE.22",0.136610916323646,0.0260596170284076,0.247162215618884,"ssf","mf.ss","gamma","vonmises",15,"ssfOUT_120_0.5_4_VULTURE","VULTURE",4,2,120,"preference"
"ssfOUT_120_0.5_4_VULTURE.23",0.106437091482352,-0.00143011661120881,0.214304299575913,"ssf","mf.ss","gamma","vonmises",50,"ssfOUT_120_0.5_4_VULTURE","VULTURE",4,2,120,"no effect"
"ssfOUT_120_0.5_4_VULTURE.24",0.118322545999312,0.0111356861478751,0.22550940585075,"ssf","mf.ss","gamma","vonmises",158,"ssfOUT_120_0.5_4_VULTURE","VULTURE",4,2,120,"preference"
"ssfOUT_120_0.5_4_VULTURE.25",0.109635796440353,0.00261104158017558,0.216660551300531,"ssf","mf.ss","gamma","vonmises",500,"ssfOUT_120_0.5_4_VULTURE","VULTURE",4,2,120,"preference"
"ssfOUT_120_0.5_4_VULTURE.26",0.166352319354137,0.0493320246002297,0.283372614108045,"ssf","mf.ss","gamma","unif",5,"ssfOUT_120_0.5_4_VULTURE","VULTURE",4,2,120,"preference"
"ssfOUT_120_0.5_4_VULTURE.27",0.114603181489923,0.00447576399412138,0.224730598985725,"ssf","mf.ss","gamma","unif",15,"ssfOUT_120_0.5_4_VULTURE","VULTURE",4,2,120,"preference"
"ssfOUT_120_0.5_4_VULTURE.28",0.0869814706361706,-0.0208838563928089,0.19484679766515,"ssf","mf.ss","gamma","unif",50,"ssfOUT_120_0.5_4_VULTURE","VULTURE",4,2,120,"no effect"
"ssfOUT_120_0.5_4_VULTURE.29",0.10320692466099,-0.00394614493094901,0.210359994252928,"ssf","mf.ss","gamma","unif",158,"ssfOUT_120_0.5_4_VULTURE","VULTURE",4,2,120,"no effect"
"ssfOUT_120_0.5_4_VULTURE.30",0.107566452248525,0.000555146521822023,0.214577757975227,"ssf","mf.ss","gamma","unif",500,"ssfOUT_120_0.5_4_VULTURE","VULTURE",4,2,120,"preference"
"ssfOUT_120_0.5_4_VULTURE.31",0.184654314186016,0.067349226163847,0.301959402208185,"ssf","mf.ss","exp","vonmises",5,"ssfOUT_120_0.5_4_VULTURE","VULTURE",4,2,120,"preference"
"ssfOUT_120_0.5_4_VULTURE.32",0.194026848060566,0.0831234113694946,0.304930284751638,"ssf","mf.ss","exp","vonmises",15,"ssfOUT_120_0.5_4_VULTURE","VULTURE",4,2,120,"preference"
"ssfOUT_120_0.5_4_VULTURE.33",0.145020835205223,0.0363722606716076,0.253669409738839,"ssf","mf.ss","exp","vonmises",50,"ssfOUT_120_0.5_4_VULTURE","VULTURE",4,2,120,"preference"
"ssfOUT_120_0.5_4_VULTURE.34",0.134527772626334,0.0265330223884575,0.24252252286421,"ssf","mf.ss","exp","vonmises",158,"ssfOUT_120_0.5_4_VULTURE","VULTURE",4,2,120,"preference"
"ssfOUT_120_0.5_4_VULTURE.35",0.141350513832514,0.0334611699901183,0.249239857674909,"ssf","mf.ss","exp","vonmises",500,"ssfOUT_120_0.5_4_VULTURE","VULTURE",4,2,120,"preference"
"ssfOUT_120_0.5_4_VULTURE.36",0.180224098485215,0.0634740210701225,0.296974175900308,"ssf","mf.ss","exp","unif",5,"ssfOUT_120_0.5_4_VULTURE","VULTURE",4,2,120,"preference"
"ssfOUT_120_0.5_4_VULTURE.37",0.151874100239476,0.0412146797194263,0.262533520759526,"ssf","mf.ss","exp","unif",15,"ssfOUT_120_0.5_4_VULTURE","VULTURE",4,2,120,"preference"
"ssfOUT_120_0.5_4_VULTURE.38",0.143914363249668,0.0354813379616291,0.252347388537707,"ssf","mf.ss","exp","unif",50,"ssfOUT_120_0.5_4_VULTURE","VULTURE",4,2,120,"preference"
"ssfOUT_120_0.5_4_VULTURE.39",0.137774407529192,0.0299628683607863,0.245585946697598,"ssf","mf.ss","exp","unif",158,"ssfOUT_120_0.5_4_VULTURE","VULTURE",4,2,120,"preference"
"ssfOUT_120_0.5_4_VULTURE.40",0.137288820259917,0.0295256957021787,0.245051944817654,"ssf","mf.ss","exp","unif",500,"ssfOUT_120_0.5_4_VULTURE","VULTURE",4,2,120,"preference"
"ssfOUT_120_0.5_4_KINGCOBRA.1",0.287251826415504,0.0814523653440122,0.493051287486996,"ssf","mf.is","gamma","vonmises",5,"ssfOUT_120_0.5_4_KINGCOBRA","KINGCOBRA",4,2,120,"preference"
"ssfOUT_120_0.5_4_KINGCOBRA.2",0.321096867837346,0.121078197124488,0.521115538550203,"ssf","mf.is","gamma","vonmises",15,"ssfOUT_120_0.5_4_KINGCOBRA","KINGCOBRA",4,2,120,"preference"
"ssfOUT_120_0.5_4_KINGCOBRA.3",0.349268881093373,0.152848237491192,0.545689524695554,"ssf","mf.is","gamma","vonmises",50,"ssfOUT_120_0.5_4_KINGCOBRA","KINGCOBRA",4,2,120,"preference"
"ssfOUT_120_0.5_4_KINGCOBRA.4",0.307726652259671,0.11179744459116,0.503655859928181,"ssf","mf.is","gamma","vonmises",158,"ssfOUT_120_0.5_4_KINGCOBRA","KINGCOBRA",4,2,120,"preference"
"ssfOUT_120_0.5_4_KINGCOBRA.5",0.324607083474816,0.128825427697343,0.520388739252288,"ssf","mf.is","gamma","vonmises",500,"ssfOUT_120_0.5_4_KINGCOBRA","KINGCOBRA",4,2,120,"preference"
"ssfOUT_120_0.5_4_KINGCOBRA.6",0.35212764367599,0.146832672093571,0.557422615258409,"ssf","mf.is","gamma","unif",5,"ssfOUT_120_0.5_4_KINGCOBRA","KINGCOBRA",4,2,120,"preference"
"ssfOUT_120_0.5_4_KINGCOBRA.7",0.308661740648746,0.10770955840157,0.509613922895922,"ssf","mf.is","gamma","unif",15,"ssfOUT_120_0.5_4_KINGCOBRA","KINGCOBRA",4,2,120,"preference"
"ssfOUT_120_0.5_4_KINGCOBRA.8",0.352816043849932,0.156217521420235,0.54941456627963,"ssf","mf.is","gamma","unif",50,"ssfOUT_120_0.5_4_KINGCOBRA","KINGCOBRA",4,2,120,"preference"
"ssfOUT_120_0.5_4_KINGCOBRA.9",0.325209093826608,0.129520389747573,0.520897797905644,"ssf","mf.is","gamma","unif",158,"ssfOUT_120_0.5_4_KINGCOBRA","KINGCOBRA",4,2,120,"preference"
"ssfOUT_120_0.5_4_KINGCOBRA.10",0.320729836271272,0.125055265314901,0.516404407227642,"ssf","mf.is","gamma","unif",500,"ssfOUT_120_0.5_4_KINGCOBRA","KINGCOBRA",4,2,120,"preference"
"ssfOUT_120_0.5_4_KINGCOBRA.11",0.640573975397897,0.417970763012779,0.863177187783015,"ssf","mf.is","exp","vonmises",5,"ssfOUT_120_0.5_4_KINGCOBRA","KINGCOBRA",4,2,120,"preference"
"ssfOUT_120_0.5_4_KINGCOBRA.12",0.319076863790043,0.116137899712334,0.522015827867752,"ssf","mf.is","exp","vonmises",15,"ssfOUT_120_0.5_4_KINGCOBRA","KINGCOBRA",4,2,120,"preference"
"ssfOUT_120_0.5_4_KINGCOBRA.13",0.277576166858475,0.0796555740800819,0.475496759636868,"ssf","mf.is","exp","vonmises",50,"ssfOUT_120_0.5_4_KINGCOBRA","KINGCOBRA",4,2,120,"preference"
"ssfOUT_120_0.5_4_KINGCOBRA.14",0.44430152775024,0.242166436096396,0.646436619404085,"ssf","mf.is","exp","vonmises",158,"ssfOUT_120_0.5_4_KINGCOBRA","KINGCOBRA",4,2,120,"preference"
"ssfOUT_120_0.5_4_KINGCOBRA.15",0.309486099257117,0.112443352243084,0.50652884627115,"ssf","mf.is","exp","vonmises",500,"ssfOUT_120_0.5_4_KINGCOBRA","KINGCOBRA",4,2,120,"preference"
"ssfOUT_120_0.5_4_KINGCOBRA.16",0.362917160805987,0.144212271134779,0.581622050477196,"ssf","mf.is","exp","unif",5,"ssfOUT_120_0.5_4_KINGCOBRA","KINGCOBRA",4,2,120,"preference"
"ssfOUT_120_0.5_4_KINGCOBRA.17",0.434664773846673,0.231543596263758,0.637785951429587,"ssf","mf.is","exp","unif",15,"ssfOUT_120_0.5_4_KINGCOBRA","KINGCOBRA",4,2,120,"preference"
"ssfOUT_120_0.5_4_KINGCOBRA.18",0.321782651560257,0.122600796067374,0.52096450705314,"ssf","mf.is","exp","unif",50,"ssfOUT_120_0.5_4_KINGCOBRA","KINGCOBRA",4,2,120,"preference"
"ssfOUT_120_0.5_4_KINGCOBRA.19",0.330990821908666,0.134235984595947,0.527745659221386,"ssf","mf.is","exp","unif",158,"ssfOUT_120_0.5_4_KINGCOBRA","KINGCOBRA",4,2,120,"preference"
"ssfOUT_120_0.5_4_KINGCOBRA.20",0.338224951101513,0.140710734027377,0.535739168175648,"ssf","mf.is","exp","unif",500,"ssfOUT_120_0.5_4_KINGCOBRA","KINGCOBRA",4,2,120,"preference"
"ssfOUT_120_0.5_4_KINGCOBRA.21",0.289286408819246,0.0838997910807082,0.494673026557785,"ssf","mf.ss","gamma","vonmises",5,"ssfOUT_120_0.5_4_KINGCOBRA","KINGCOBRA",4,2,120,"preference"
"ssfOUT_120_0.5_4_KINGCOBRA.22",0.321424172884691,0.121687317403997,0.521161028365385,"ssf","mf.ss","gamma","vonmises",15,"ssfOUT_120_0.5_4_KINGCOBRA","KINGCOBRA",4,2,120,"preference"
"ssfOUT_120_0.5_4_KINGCOBRA.23",0.34987120938931,0.153811979195186,0.545930439583435,"ssf","mf.ss","gamma","vonmises",50,"ssfOUT_120_0.5_4_KINGCOBRA","KINGCOBRA",4,2,120,"preference"
"ssfOUT_120_0.5_4_KINGCOBRA.24",0.309270280352052,0.113685071290904,0.504855489413201,"ssf","mf.ss","gamma","vonmises",158,"ssfOUT_120_0.5_4_KINGCOBRA","KINGCOBRA",4,2,120,"preference"
"ssfOUT_120_0.5_4_KINGCOBRA.25",0.325623697943219,0.130167668510497,0.521079727375941,"ssf","mf.ss","gamma","vonmises",500,"ssfOUT_120_0.5_4_KINGCOBRA","KINGCOBRA",4,2,120,"preference"
"ssfOUT_120_0.5_4_KINGCOBRA.26",0.341276258092845,0.135930463783,0.546622052402691,"ssf","mf.ss","gamma","unif",5,"ssfOUT_120_0.5_4_KINGCOBRA","KINGCOBRA",4,2,120,"preference"
"ssfOUT_120_0.5_4_KINGCOBRA.27",0.302484585014973,0.101601779004061,0.503367391025885,"ssf","mf.ss","gamma","unif",15,"ssfOUT_120_0.5_4_KINGCOBRA","KINGCOBRA",4,2,120,"preference"
"ssfOUT_120_0.5_4_KINGCOBRA.28",0.351585736315104,0.15521542699263,0.547956045637578,"ssf","mf.ss","gamma","unif",50,"ssfOUT_120_0.5_4_KINGCOBRA","KINGCOBRA",4,2,120,"preference"
"ssfOUT_120_0.5_4_KINGCOBRA.29",0.326342555147491,0.130973755550314,0.521711354744669,"ssf","mf.ss","gamma","unif",158,"ssfOUT_120_0.5_4_KINGCOBRA","KINGCOBRA",4,2,120,"preference"
"ssfOUT_120_0.5_4_KINGCOBRA.30",0.321532345539213,0.126179843178043,0.516884847900382,"ssf","mf.ss","gamma","unif",500,"ssfOUT_120_0.5_4_KINGCOBRA","KINGCOBRA",4,2,120,"preference"
"ssfOUT_120_0.5_4_KINGCOBRA.31",0.11715563452041,-0.0861658875599523,0.320477156600772,"ssf","mf.ss","exp","vonmises",5,"ssfOUT_120_0.5_4_KINGCOBRA","KINGCOBRA",4,2,120,"no effect"
"ssfOUT_120_0.5_4_KINGCOBRA.32",0.115271269497909,-0.0810696320465373,0.311612171042356,"ssf","mf.ss","exp","vonmises",15,"ssfOUT_120_0.5_4_KINGCOBRA","KINGCOBRA",4,2,120,"no effect"
"ssfOUT_120_0.5_4_KINGCOBRA.33",0.0632051110860231,-0.130425392800474,0.25683561497252,"ssf","mf.ss","exp","vonmises",50,"ssfOUT_120_0.5_4_KINGCOBRA","KINGCOBRA",4,2,120,"no effect"
"ssfOUT_120_0.5_4_KINGCOBRA.34",0.106673984897023,-0.0854340962251604,0.298782066019206,"ssf","mf.ss","exp","vonmises",158,"ssfOUT_120_0.5_4_KINGCOBRA","KINGCOBRA",4,2,120,"no effect"
"ssfOUT_120_0.5_4_KINGCOBRA.35",0.077011283899646,-0.115165001919401,0.269187569718693,"ssf","mf.ss","exp","vonmises",500,"ssfOUT_120_0.5_4_KINGCOBRA","KINGCOBRA",4,2,120,"no effect"
"ssfOUT_120_0.5_4_KINGCOBRA.36",0.0793491093087509,-0.125050687206277,0.283748905823779,"ssf","mf.ss","exp","unif",5,"ssfOUT_120_0.5_4_KINGCOBRA","KINGCOBRA",4,2,120,"no effect"
"ssfOUT_120_0.5_4_KINGCOBRA.37",0.12002048029257,-0.0757950708852526,0.315836031470393,"ssf","mf.ss","exp","unif",15,"ssfOUT_120_0.5_4_KINGCOBRA","KINGCOBRA",4,2,120,"no effect"
"ssfOUT_120_0.5_4_KINGCOBRA.38",0.0563878325649224,-0.137404552362838,0.250180217492683,"ssf","mf.ss","exp","unif",50,"ssfOUT_120_0.5_4_KINGCOBRA","KINGCOBRA",4,2,120,"no effect"
"ssfOUT_120_0.5_4_KINGCOBRA.39",0.0779653823521541,-0.114245321923911,0.27017608662822,"ssf","mf.ss","exp","unif",158,"ssfOUT_120_0.5_4_KINGCOBRA","KINGCOBRA",4,2,120,"no effect"
"ssfOUT_120_0.5_4_KINGCOBRA.40",0.0982359873496142,-0.0940121600984827,0.290484134797711,"ssf","mf.ss","exp","unif",500,"ssfOUT_120_0.5_4_KINGCOBRA","KINGCOBRA",4,2,120,"no effect"
"ssfOUT_120_1_1_BADGER.1",0.464866602172655,0.195541541369807,0.734191662975503,"ssf","mf.is","gamma","vonmises",5,"ssfOUT_120_1_1_BADGER","BADGER",1,1,120,"preference"
"ssfOUT_120_1_1_BADGER.2",0.405227966255072,0.143790549379376,0.666665383130769,"ssf","mf.is","gamma","vonmises",15,"ssfOUT_120_1_1_BADGER","BADGER",1,1,120,"preference"
"ssfOUT_120_1_1_BADGER.3",0.556468223155669,0.297111358809181,0.815825087502156,"ssf","mf.is","gamma","vonmises",50,"ssfOUT_120_1_1_BADGER","BADGER",1,1,120,"preference"
"ssfOUT_120_1_1_BADGER.4",0.513402863688664,0.256207366875987,0.770598360501341,"ssf","mf.is","gamma","vonmises",158,"ssfOUT_120_1_1_BADGER","BADGER",1,1,120,"preference"
"ssfOUT_120_1_1_BADGER.5",0.530656086295534,0.273375569326047,0.78793660326502,"ssf","mf.is","gamma","vonmises",500,"ssfOUT_120_1_1_BADGER","BADGER",1,1,120,"preference"
"ssfOUT_120_1_1_BADGER.6",0.477929164550001,0.197492798442008,0.758365530657994,"ssf","mf.is","gamma","unif",5,"ssfOUT_120_1_1_BADGER","BADGER",1,1,120,"preference"
"ssfOUT_120_1_1_BADGER.7",0.481764135337379,0.218998830153115,0.744529440521642,"ssf","mf.is","gamma","unif",15,"ssfOUT_120_1_1_BADGER","BADGER",1,1,120,"preference"
"ssfOUT_120_1_1_BADGER.8",0.51143898092124,0.251800006896328,0.771077954946153,"ssf","mf.is","gamma","unif",50,"ssfOUT_120_1_1_BADGER","BADGER",1,1,120,"preference"
"ssfOUT_120_1_1_BADGER.9",0.566327379024308,0.308690608886384,0.823964149162233,"ssf","mf.is","gamma","unif",158,"ssfOUT_120_1_1_BADGER","BADGER",1,1,120,"preference"
"ssfOUT_120_1_1_BADGER.10",0.540005875678535,0.282905138576693,0.797106612780376,"ssf","mf.is","gamma","unif",500,"ssfOUT_120_1_1_BADGER","BADGER",1,1,120,"preference"
"ssfOUT_120_1_1_BADGER.11",0.578584012139347,0.308701677998248,0.848466346280445,"ssf","mf.is","exp","vonmises",5,"ssfOUT_120_1_1_BADGER","BADGER",1,1,120,"preference"
"ssfOUT_120_1_1_BADGER.12",0.553654020378784,0.291065043276284,0.816242997481284,"ssf","mf.is","exp","vonmises",15,"ssfOUT_120_1_1_BADGER","BADGER",1,1,120,"preference"
"ssfOUT_120_1_1_BADGER.13",0.513551380873354,0.254689861744822,0.772412900001887,"ssf","mf.is","exp","vonmises",50,"ssfOUT_120_1_1_BADGER","BADGER",1,1,120,"preference"
"ssfOUT_120_1_1_BADGER.14",0.553802980956672,0.295760175561529,0.811845786351816,"ssf","mf.is","exp","vonmises",158,"ssfOUT_120_1_1_BADGER","BADGER",1,1,120,"preference"
"ssfOUT_120_1_1_BADGER.15",0.538584498016592,0.281731574842542,0.795437421190641,"ssf","mf.is","exp","vonmises",500,"ssfOUT_120_1_1_BADGER","BADGER",1,1,120,"preference"
"ssfOUT_120_1_1_BADGER.16",0.525121598583169,0.252403649422499,0.797839547743839,"ssf","mf.is","exp","unif",5,"ssfOUT_120_1_1_BADGER","BADGER",1,1,120,"preference"
"ssfOUT_120_1_1_BADGER.17",0.506946370461449,0.244818591420991,0.769074149501907,"ssf","mf.is","exp","unif",15,"ssfOUT_120_1_1_BADGER","BADGER",1,1,120,"preference"
"ssfOUT_120_1_1_BADGER.18",0.547774709943126,0.289926731783045,0.805622688103208,"ssf","mf.is","exp","unif",50,"ssfOUT_120_1_1_BADGER","BADGER",1,1,120,"preference"
"ssfOUT_120_1_1_BADGER.19",0.556702611466908,0.298946632315954,0.814458590617862,"ssf","mf.is","exp","unif",158,"ssfOUT_120_1_1_BADGER","BADGER",1,1,120,"preference"
"ssfOUT_120_1_1_BADGER.20",0.523033189836266,0.265657683883094,0.780408695789438,"ssf","mf.is","exp","unif",500,"ssfOUT_120_1_1_BADGER","BADGER",1,1,120,"preference"
"ssfOUT_120_1_1_BADGER.21",0.465150605267494,0.196309796616919,0.73399141391807,"ssf","mf.ss","gamma","vonmises",5,"ssfOUT_120_1_1_BADGER","BADGER",1,1,120,"preference"
"ssfOUT_120_1_1_BADGER.22",0.404776437575221,0.143473302260855,0.666079572889588,"ssf","mf.ss","gamma","vonmises",15,"ssfOUT_120_1_1_BADGER","BADGER",1,1,120,"preference"
"ssfOUT_120_1_1_BADGER.23",0.556227359816384,0.297010688388015,0.815444031244752,"ssf","mf.ss","gamma","vonmises",50,"ssfOUT_120_1_1_BADGER","BADGER",1,1,120,"preference"
"ssfOUT_120_1_1_BADGER.24",0.512417384189523,0.255300591785314,0.769534176593733,"ssf","mf.ss","gamma","vonmises",158,"ssfOUT_120_1_1_BADGER","BADGER",1,1,120,"preference"
"ssfOUT_120_1_1_BADGER.25",0.529698785498353,0.272531845958752,0.786865725037954,"ssf","mf.ss","gamma","vonmises",500,"ssfOUT_120_1_1_BADGER","BADGER",1,1,120,"preference"
"ssfOUT_120_1_1_BADGER.26",0.48072082159781,0.2005179886596,0.76092365453602,"ssf","mf.ss","gamma","unif",5,"ssfOUT_120_1_1_BADGER","BADGER",1,1,120,"preference"
"ssfOUT_120_1_1_BADGER.27",0.486190443409387,0.223622460855188,0.748758425963585,"ssf","mf.ss","gamma","unif",15,"ssfOUT_120_1_1_BADGER","BADGER",1,1,120,"preference"
"ssfOUT_120_1_1_BADGER.28",0.514509957155884,0.255001723174696,0.774018191137072,"ssf","mf.ss","gamma","unif",50,"ssfOUT_120_1_1_BADGER","BADGER",1,1,120,"preference"
"ssfOUT_120_1_1_BADGER.29",0.567478375499887,0.310004399987687,0.824952351012087,"ssf","mf.ss","gamma","unif",158,"ssfOUT_120_1_1_BADGER","BADGER",1,1,120,"preference"
"ssfOUT_120_1_1_BADGER.30",0.541456108403256,0.284498295770482,0.798413921036029,"ssf","mf.ss","gamma","unif",500,"ssfOUT_120_1_1_BADGER","BADGER",1,1,120,"preference"
"ssfOUT_120_1_1_BADGER.31",0.535074312739695,0.266830203483298,0.803318421996092,"ssf","mf.ss","exp","vonmises",5,"ssfOUT_120_1_1_BADGER","BADGER",1,1,120,"preference"
"ssfOUT_120_1_1_BADGER.32",0.520570702734557,0.258256787655794,0.78288461781332,"ssf","mf.ss","exp","vonmises",15,"ssfOUT_120_1_1_BADGER","BADGER",1,1,120,"preference"
"ssfOUT_120_1_1_BADGER.33",0.475216467378395,0.217131448569641,0.733301486187149,"ssf","mf.ss","exp","vonmises",50,"ssfOUT_120_1_1_BADGER","BADGER",1,1,120,"preference"
"ssfOUT_120_1_1_BADGER.34",0.525470399275029,0.268093785046766,0.782847013503293,"ssf","mf.ss","exp","vonmises",158,"ssfOUT_120_1_1_BADGER","BADGER",1,1,120,"preference"
"ssfOUT_120_1_1_BADGER.35",0.509028175645645,0.252714986919561,0.765341364371729,"ssf","mf.ss","exp","vonmises",500,"ssfOUT_120_1_1_BADGER","BADGER",1,1,120,"preference"
"ssfOUT_120_1_1_BADGER.36",0.489824485217677,0.219045821097976,0.760603149337377,"ssf","mf.ss","exp","unif",5,"ssfOUT_120_1_1_BADGER","BADGER",1,1,120,"preference"
"ssfOUT_120_1_1_BADGER.37",0.494461484930803,0.233430292457888,0.755492677403718,"ssf","mf.ss","exp","unif",15,"ssfOUT_120_1_1_BADGER","BADGER",1,1,120,"preference"
"ssfOUT_120_1_1_BADGER.38",0.530449797418598,0.273188672472271,0.787710922364925,"ssf","mf.ss","exp","unif",50,"ssfOUT_120_1_1_BADGER","BADGER",1,1,120,"preference"
"ssfOUT_120_1_1_BADGER.39",0.52740657602586,0.270455484799537,0.784357667252182,"ssf","mf.ss","exp","unif",158,"ssfOUT_120_1_1_BADGER","BADGER",1,1,120,"preference"
"ssfOUT_120_1_1_BADGER.40",0.501567987200051,0.244802153285858,0.758333821114243,"ssf","mf.ss","exp","unif",500,"ssfOUT_120_1_1_BADGER","BADGER",1,1,120,"preference"
"ssfOUT_120_1_1_VULTURE.1",-0.111565141415128,-0.308292232957435,0.0851619501271786,"ssf","mf.is","gamma","vonmises",5,"ssfOUT_120_1_1_VULTURE","VULTURE",1,1,120,"no effect"
"ssfOUT_120_1_1_VULTURE.2",-0.00180126578203089,-0.185524650599189,0.181922119035127,"ssf","mf.is","gamma","vonmises",15,"ssfOUT_120_1_1_VULTURE","VULTURE",1,1,120,"no effect"
"ssfOUT_120_1_1_VULTURE.3",0.00674819674667419,-0.17234671629471,0.185843109788058,"ssf","mf.is","gamma","vonmises",50,"ssfOUT_120_1_1_VULTURE","VULTURE",1,1,120,"no effect"
"ssfOUT_120_1_1_VULTURE.4",0.0196932648060404,-0.158141808637742,0.197528338249823,"ssf","mf.is","gamma","vonmises",158,"ssfOUT_120_1_1_VULTURE","VULTURE",1,1,120,"no effect"
"ssfOUT_120_1_1_VULTURE.5",0.0333197793505313,-0.144022220322675,0.210661779023737,"ssf","mf.is","gamma","vonmises",500,"ssfOUT_120_1_1_VULTURE","VULTURE",1,1,120,"no effect"
"ssfOUT_120_1_1_VULTURE.6",-0.0465691820226778,-0.241432303432947,0.148293939387591,"ssf","mf.is","gamma","unif",5,"ssfOUT_120_1_1_VULTURE","VULTURE",1,1,120,"no effect"
"ssfOUT_120_1_1_VULTURE.7",0.0796454360487286,-0.103254087042382,0.262544959139839,"ssf","mf.is","gamma","unif",15,"ssfOUT_120_1_1_VULTURE","VULTURE",1,1,120,"no effect"
"ssfOUT_120_1_1_VULTURE.8",0.00190114802604189,-0.177822165911113,0.181624461963197,"ssf","mf.is","gamma","unif",50,"ssfOUT_120_1_1_VULTURE","VULTURE",1,1,120,"no effect"
"ssfOUT_120_1_1_VULTURE.9",0.00312586144698343,-0.174658068511407,0.180909791405373,"ssf","mf.is","gamma","unif",158,"ssfOUT_120_1_1_VULTURE","VULTURE",1,1,120,"no effect"
"ssfOUT_120_1_1_VULTURE.10",0.012303315300901,-0.164956366540375,0.189562997142177,"ssf","mf.is","gamma","unif",500,"ssfOUT_120_1_1_VULTURE","VULTURE",1,1,120,"no effect"
"ssfOUT_120_1_1_VULTURE.11",0.0232811183149303,-0.1772623694012,0.22382460603106,"ssf","mf.is","exp","vonmises",5,"ssfOUT_120_1_1_VULTURE","VULTURE",1,1,120,"no effect"
"ssfOUT_120_1_1_VULTURE.12",0.00942450990863122,-0.177442760799761,0.196291780617023,"ssf","mf.is","exp","vonmises",15,"ssfOUT_120_1_1_VULTURE","VULTURE",1,1,120,"no effect"
"ssfOUT_120_1_1_VULTURE.13",0.077872883838332,-0.101694188781211,0.257439956457875,"ssf","mf.is","exp","vonmises",50,"ssfOUT_120_1_1_VULTURE","VULTURE",1,1,120,"no effect"
"ssfOUT_120_1_1_VULTURE.14",-0.00328485835274572,-0.181387739883558,0.174818023178066,"ssf","mf.is","exp","vonmises",158,"ssfOUT_120_1_1_VULTURE","VULTURE",1,1,120,"no effect"
"ssfOUT_120_1_1_VULTURE.15",0.0204015356050227,-0.156752022919514,0.197555094129559,"ssf","mf.is","exp","vonmises",500,"ssfOUT_120_1_1_VULTURE","VULTURE",1,1,120,"no effect"
"ssfOUT_120_1_1_VULTURE.16",-0.0682102359273331,-0.267618169829214,0.131197697974548,"ssf","mf.is","exp","unif",5,"ssfOUT_120_1_1_VULTURE","VULTURE",1,1,120,"no effect"
"ssfOUT_120_1_1_VULTURE.17",0.0552527708132496,-0.130010293088465,0.240515834714964,"ssf","mf.is","exp","unif",15,"ssfOUT_120_1_1_VULTURE","VULTURE",1,1,120,"no effect"
"ssfOUT_120_1_1_VULTURE.18",0.0225625979825162,-0.157442727200085,0.202567923165118,"ssf","mf.is","exp","unif",50,"ssfOUT_120_1_1_VULTURE","VULTURE",1,1,120,"no effect"
"ssfOUT_120_1_1_VULTURE.19",0.0412399909151347,-0.136759002955813,0.219238984786083,"ssf","mf.is","exp","unif",158,"ssfOUT_120_1_1_VULTURE","VULTURE",1,1,120,"no effect"
"ssfOUT_120_1_1_VULTURE.20",0.00784200952008261,-0.169651913209321,0.185335932249486,"ssf","mf.is","exp","unif",500,"ssfOUT_120_1_1_VULTURE","VULTURE",1,1,120,"no effect"
"ssfOUT_120_1_1_VULTURE.21",-0.113582410366345,-0.310283992136625,0.0831191714039346,"ssf","mf.ss","gamma","vonmises",5,"ssfOUT_120_1_1_VULTURE","VULTURE",1,1,120,"no effect"
"ssfOUT_120_1_1_VULTURE.22",-0.00421843526072146,-0.18805190593463,0.179615035413187,"ssf","mf.ss","gamma","vonmises",15,"ssfOUT_120_1_1_VULTURE","VULTURE",1,1,120,"no effect"
"ssfOUT_120_1_1_VULTURE.23",0.00505353840466804,-0.174146320464926,0.184253397274262,"ssf","mf.ss","gamma","vonmises",50,"ssfOUT_120_1_1_VULTURE","VULTURE",1,1,120,"no effect"
"ssfOUT_120_1_1_VULTURE.24",0.018856742656459,-0.159073664191154,0.196787149504072,"ssf","mf.ss","gamma","vonmises",158,"ssfOUT_120_1_1_VULTURE","VULTURE",1,1,120,"no effect"
"ssfOUT_120_1_1_VULTURE.25",0.0325769981669229,-0.144864730484434,0.21001872681828,"ssf","mf.ss","gamma","vonmises",500,"ssfOUT_120_1_1_VULTURE","VULTURE",1,1,120,"no effect"
"ssfOUT_120_1_1_VULTURE.26",-0.0452577318881511,-0.240127478601908,0.149612014825606,"ssf","mf.ss","gamma","unif",5,"ssfOUT_120_1_1_VULTURE","VULTURE",1,1,120,"no effect"
"ssfOUT_120_1_1_VULTURE.27",0.0812109249434581,-0.101736309884962,0.264158159771878,"ssf","mf.ss","gamma","unif",15,"ssfOUT_120_1_1_VULTURE","VULTURE",1,1,120,"no effect"
"ssfOUT_120_1_1_VULTURE.28",0.00241680053490124,-0.177384735301077,0.182218336370879,"ssf","mf.ss","gamma","unif",50,"ssfOUT_120_1_1_VULTURE","VULTURE",1,1,120,"no effect"
"ssfOUT_120_1_1_VULTURE.29",0.00342279234541004,-0.17444541854866,0.18129100323948,"ssf","mf.ss","gamma","unif",158,"ssfOUT_120_1_1_VULTURE","VULTURE",1,1,120,"no effect"
"ssfOUT_120_1_1_VULTURE.30",0.0123988350202773,-0.164942094237342,0.189739764277896,"ssf","mf.ss","gamma","unif",500,"ssfOUT_120_1_1_VULTURE","VULTURE",1,1,120,"no effect"
"ssfOUT_120_1_1_VULTURE.31",0.0724590654645602,-0.122861314877936,0.267779445807056,"ssf","mf.ss","exp","vonmises",5,"ssfOUT_120_1_1_VULTURE","VULTURE",1,1,120,"no effect"
"ssfOUT_120_1_1_VULTURE.32",0.0805282626710359,-0.105704828240415,0.266761353582487,"ssf","mf.ss","exp","vonmises",15,"ssfOUT_120_1_1_VULTURE","VULTURE",1,1,120,"no effect"
"ssfOUT_120_1_1_VULTURE.33",0.107323015588616,-0.073420609999941,0.288066641177173,"ssf","mf.ss","exp","vonmises",50,"ssfOUT_120_1_1_VULTURE","VULTURE",1,1,120,"no effect"
"ssfOUT_120_1_1_VULTURE.34",0.058965098842875,-0.12075232914737,0.23868252683312,"ssf","mf.ss","exp","vonmises",158,"ssfOUT_120_1_1_VULTURE","VULTURE",1,1,120,"no effect"
"ssfOUT_120_1_1_VULTURE.35",0.0854368567668733,-0.0936747515464764,0.264548465080223,"ssf","mf.ss","exp","vonmises",500,"ssfOUT_120_1_1_VULTURE","VULTURE",1,1,120,"no effect"
"ssfOUT_120_1_1_VULTURE.36",-0.0115166131739282,-0.205866165880735,0.182832939532879,"ssf","mf.ss","exp","unif",5,"ssfOUT_120_1_1_VULTURE","VULTURE",1,1,120,"no effect"
"ssfOUT_120_1_1_VULTURE.37",0.0868407718698299,-0.0983857166016806,0.272067260341341,"ssf","mf.ss","exp","unif",15,"ssfOUT_120_1_1_VULTURE","VULTURE",1,1,120,"no effect"
"ssfOUT_120_1_1_VULTURE.38",0.0635777652499667,-0.117548250199395,0.244703780699329,"ssf","mf.ss","exp","unif",50,"ssfOUT_120_1_1_VULTURE","VULTURE",1,1,120,"no effect"
"ssfOUT_120_1_1_VULTURE.39",0.0900802361828484,-0.0896182684532096,0.269778740818907,"ssf","mf.ss","exp","unif",158,"ssfOUT_120_1_1_VULTURE","VULTURE",1,1,120,"no effect"
"ssfOUT_120_1_1_VULTURE.40",0.0742396628470055,-0.105148379013569,0.25362770470758,"ssf","mf.ss","exp","unif",500,"ssfOUT_120_1_1_VULTURE","VULTURE",1,1,120,"no effect"
"ssfOUT_120_1_1_KINGCOBRA.1",0.766310669421736,0.404611630848628,1.12800970799485,"ssf","mf.is","gamma","vonmises",5,"ssfOUT_120_1_1_KINGCOBRA","KINGCOBRA",1,1,120,"preference"
"ssfOUT_120_1_1_KINGCOBRA.2",0.653022971003067,0.307519929435141,0.998526012570992,"ssf","mf.is","gamma","vonmises",15,"ssfOUT_120_1_1_KINGCOBRA","KINGCOBRA",1,1,120,"preference"
"ssfOUT_120_1_1_KINGCOBRA.3",0.501275658934531,0.163228421516311,0.839322896352751,"ssf","mf.is","gamma","vonmises",50,"ssfOUT_120_1_1_KINGCOBRA","KINGCOBRA",1,1,120,"preference"
"ssfOUT_120_1_1_KINGCOBRA.4",0.5607555000509,0.217454953889734,0.904056046212067,"ssf","mf.is","gamma","vonmises",158,"ssfOUT_120_1_1_KINGCOBRA","KINGCOBRA",1,1,120,"preference"
"ssfOUT_120_1_1_KINGCOBRA.5",0.561473589043335,0.222374103556387,0.900573074530283,"ssf","mf.is","gamma","vonmises",500,"ssfOUT_120_1_1_KINGCOBRA","KINGCOBRA",1,1,120,"preference"
"ssfOUT_120_1_1_KINGCOBRA.6",0.453051018563903,0.0942167268623573,0.811885310265448,"ssf","mf.is","gamma","unif",5,"ssfOUT_120_1_1_KINGCOBRA","KINGCOBRA",1,1,120,"preference"
"ssfOUT_120_1_1_KINGCOBRA.7",0.655520138766816,0.314295331656932,0.9967449458767,"ssf","mf.is","gamma","unif",15,"ssfOUT_120_1_1_KINGCOBRA","KINGCOBRA",1,1,120,"preference"
"ssfOUT_120_1_1_KINGCOBRA.8",0.66787977136981,0.320509140295653,1.01525040244397,"ssf","mf.is","gamma","unif",50,"ssfOUT_120_1_1_KINGCOBRA","KINGCOBRA",1,1,120,"preference"
"ssfOUT_120_1_1_KINGCOBRA.9",0.545673310792972,0.206680001989468,0.884666619596476,"ssf","mf.is","gamma","unif",158,"ssfOUT_120_1_1_KINGCOBRA","KINGCOBRA",1,1,120,"preference"
"ssfOUT_120_1_1_KINGCOBRA.10",0.542930047144539,0.204520589214582,0.881339505074497,"ssf","mf.is","gamma","unif",500,"ssfOUT_120_1_1_KINGCOBRA","KINGCOBRA",1,1,120,"preference"
"ssfOUT_120_1_1_KINGCOBRA.11",0.307192758487152,-0.0565151623009413,0.670900679275246,"ssf","mf.is","exp","vonmises",5,"ssfOUT_120_1_1_KINGCOBRA","KINGCOBRA",1,1,120,"no effect"
"ssfOUT_120_1_1_KINGCOBRA.12",0.433547903919734,0.0873215009357146,0.779774306903753,"ssf","mf.is","exp","vonmises",15,"ssfOUT_120_1_1_KINGCOBRA","KINGCOBRA",1,1,120,"preference"
"ssfOUT_120_1_1_KINGCOBRA.13",0.397527265218825,0.0548904934227977,0.740164037014853,"ssf","mf.is","exp","vonmises",50,"ssfOUT_120_1_1_KINGCOBRA","KINGCOBRA",1,1,120,"preference"
"ssfOUT_120_1_1_KINGCOBRA.14",0.568520899791421,0.224455779051459,0.912586020531384,"ssf","mf.is","exp","vonmises",158,"ssfOUT_120_1_1_KINGCOBRA","KINGCOBRA",1,1,120,"preference"
"ssfOUT_120_1_1_KINGCOBRA.15",0.617791530744565,0.27113510046208,0.96444796102705,"ssf","mf.is","exp","vonmises",500,"ssfOUT_120_1_1_KINGCOBRA","KINGCOBRA",1,1,120,"preference"
"ssfOUT_120_1_1_KINGCOBRA.16",0.296022374771558,-0.0769971260688007,0.669041875611916,"ssf","mf.is","exp","unif",5,"ssfOUT_120_1_1_KINGCOBRA","KINGCOBRA",1,1,120,"no effect"
"ssfOUT_120_1_1_KINGCOBRA.17",0.639025112704738,0.282912542833636,0.995137682575839,"ssf","mf.is","exp","unif",15,"ssfOUT_120_1_1_KINGCOBRA","KINGCOBRA",1,1,120,"preference"
"ssfOUT_120_1_1_KINGCOBRA.18",0.554919976368603,0.21145781247257,0.898382140264637,"ssf","mf.is","exp","unif",50,"ssfOUT_120_1_1_KINGCOBRA","KINGCOBRA",1,1,120,"preference"
"ssfOUT_120_1_1_KINGCOBRA.19",0.489595240047171,0.148347779043304,0.830842701051038,"ssf","mf.is","exp","unif",158,"ssfOUT_120_1_1_KINGCOBRA","KINGCOBRA",1,1,120,"preference"
"ssfOUT_120_1_1_KINGCOBRA.20",0.574424370555404,0.233143747508386,0.915704993602423,"ssf","mf.is","exp","unif",500,"ssfOUT_120_1_1_KINGCOBRA","KINGCOBRA",1,1,120,"preference"
"ssfOUT_120_1_1_KINGCOBRA.21",0.827451604344288,0.465623329514039,1.18927987917454,"ssf","mf.ss","gamma","vonmises",5,"ssfOUT_120_1_1_KINGCOBRA","KINGCOBRA",1,1,120,"preference"
"ssfOUT_120_1_1_KINGCOBRA.22",0.719462565185444,0.373401652805095,1.06552347756579,"ssf","mf.ss","gamma","vonmises",15,"ssfOUT_120_1_1_KINGCOBRA","KINGCOBRA",1,1,120,"preference"
"ssfOUT_120_1_1_KINGCOBRA.23",0.571564400401138,0.231253625154156,0.911875175648121,"ssf","mf.ss","gamma","vonmises",50,"ssfOUT_120_1_1_KINGCOBRA","KINGCOBRA",1,1,120,"preference"
"ssfOUT_120_1_1_KINGCOBRA.24",0.63707546936504,0.291053144031941,0.983097794698139,"ssf","mf.ss","gamma","vonmises",158,"ssfOUT_120_1_1_KINGCOBRA","KINGCOBRA",1,1,120,"preference"
"ssfOUT_120_1_1_KINGCOBRA.25",0.640670337094665,0.29800272866151,0.98333794552782,"ssf","mf.ss","gamma","vonmises",500,"ssfOUT_120_1_1_KINGCOBRA","KINGCOBRA",1,1,120,"preference"
"ssfOUT_120_1_1_KINGCOBRA.26",0.532843556841899,0.174205602674573,0.891481511009224,"ssf","mf.ss","gamma","unif",5,"ssfOUT_120_1_1_KINGCOBRA","KINGCOBRA",1,1,120,"preference"
"ssfOUT_120_1_1_KINGCOBRA.27",0.734283669277379,0.387263355315427,1.08130398323933,"ssf","mf.ss","gamma","unif",15,"ssfOUT_120_1_1_KINGCOBRA","KINGCOBRA",1,1,120,"preference"
"ssfOUT_120_1_1_KINGCOBRA.28",0.741380518736203,0.390663399973684,1.09209763749872,"ssf","mf.ss","gamma","unif",50,"ssfOUT_120_1_1_KINGCOBRA","KINGCOBRA",1,1,120,"preference"
"ssfOUT_120_1_1_KINGCOBRA.29",0.618556826491774,0.276053507157833,0.961060145825715,"ssf","mf.ss","gamma","unif",158,"ssfOUT_120_1_1_KINGCOBRA","KINGCOBRA",1,1,120,"preference"
"ssfOUT_120_1_1_KINGCOBRA.30",0.621555129006702,0.279405715010781,0.963704543002622,"ssf","mf.ss","gamma","unif",500,"ssfOUT_120_1_1_KINGCOBRA","KINGCOBRA",1,1,120,"preference"
"ssfOUT_120_1_1_KINGCOBRA.31",0.59650328694527,0.250676831636554,0.942329742253986,"ssf","mf.ss","exp","vonmises",5,"ssfOUT_120_1_1_KINGCOBRA","KINGCOBRA",1,1,120,"preference"
"ssfOUT_120_1_1_KINGCOBRA.32",0.740279705121702,0.406669232653917,1.07389017758949,"ssf","mf.ss","exp","vonmises",15,"ssfOUT_120_1_1_KINGCOBRA","KINGCOBRA",1,1,120,"preference"
"ssfOUT_120_1_1_KINGCOBRA.33",0.610824895346316,0.277285014987121,0.944364775705512,"ssf","mf.ss","exp","vonmises",50,"ssfOUT_120_1_1_KINGCOBRA","KINGCOBRA",1,1,120,"preference"
"ssfOUT_120_1_1_KINGCOBRA.34",0.647043349161502,0.316412837413516,0.977673860909488,"ssf","mf.ss","exp","vonmises",158,"ssfOUT_120_1_1_KINGCOBRA","KINGCOBRA",1,1,120,"preference"
"ssfOUT_120_1_1_KINGCOBRA.35",0.654623759332545,0.323160416916462,0.986087101748628,"ssf","mf.ss","exp","vonmises",500,"ssfOUT_120_1_1_KINGCOBRA","KINGCOBRA",1,1,120,"preference"
"ssfOUT_120_1_1_KINGCOBRA.36",0.681479541190817,0.333730541450003,1.02922854093163,"ssf","mf.ss","exp","unif",5,"ssfOUT_120_1_1_KINGCOBRA","KINGCOBRA",1,1,120,"preference"
"ssfOUT_120_1_1_KINGCOBRA.37",0.769495129883243,0.430736127365718,1.10825413240077,"ssf","mf.ss","exp","unif",15,"ssfOUT_120_1_1_KINGCOBRA","KINGCOBRA",1,1,120,"preference"
"ssfOUT_120_1_1_KINGCOBRA.38",0.669972047705658,0.335866640138042,1.00407745527328,"ssf","mf.ss","exp","unif",50,"ssfOUT_120_1_1_KINGCOBRA","KINGCOBRA",1,1,120,"preference"
"ssfOUT_120_1_1_KINGCOBRA.39",0.660949385073607,0.329765309984419,0.992133460162795,"ssf","mf.ss","exp","unif",158,"ssfOUT_120_1_1_KINGCOBRA","KINGCOBRA",1,1,120,"preference"
"ssfOUT_120_1_1_KINGCOBRA.40",0.64240914141712,0.312684619101023,0.972133663733218,"ssf","mf.ss","exp","unif",500,"ssfOUT_120_1_1_KINGCOBRA","KINGCOBRA",1,1,120,"preference"
"ssfOUT_120_1_2_BADGER.1",0.562501434170999,0.379482209463859,0.745520658878139,"ssf","mf.is","gamma","vonmises",5,"ssfOUT_120_1_2_BADGER","BADGER",2,1,120,"preference"
"ssfOUT_120_1_2_BADGER.2",0.56935368781683,0.390243914389678,0.748463461243983,"ssf","mf.is","gamma","vonmises",15,"ssfOUT_120_1_2_BADGER","BADGER",2,1,120,"preference"
"ssfOUT_120_1_2_BADGER.3",0.556261885640734,0.382912648824235,0.729611122457233,"ssf","mf.is","gamma","vonmises",50,"ssfOUT_120_1_2_BADGER","BADGER",2,1,120,"preference"
"ssfOUT_120_1_2_BADGER.4",0.554473387577489,0.381684051495454,0.727262723659523,"ssf","mf.is","gamma","vonmises",158,"ssfOUT_120_1_2_BADGER","BADGER",2,1,120,"preference"
"ssfOUT_120_1_2_BADGER.5",0.58578341817652,0.413445829078376,0.758121007274664,"ssf","mf.is","gamma","vonmises",500,"ssfOUT_120_1_2_BADGER","BADGER",2,1,120,"preference"
"ssfOUT_120_1_2_BADGER.6",0.497311788995225,0.308627762229301,0.685995815761149,"ssf","mf.is","gamma","unif",5,"ssfOUT_120_1_2_BADGER","BADGER",2,1,120,"preference"
"ssfOUT_120_1_2_BADGER.7",0.667826103588091,0.490557469500973,0.845094737675209,"ssf","mf.is","gamma","unif",15,"ssfOUT_120_1_2_BADGER","BADGER",2,1,120,"preference"
"ssfOUT_120_1_2_BADGER.8",0.546596086950933,0.373782900252721,0.719409273649144,"ssf","mf.is","gamma","unif",50,"ssfOUT_120_1_2_BADGER","BADGER",2,1,120,"preference"
"ssfOUT_120_1_2_BADGER.9",0.57347710405094,0.40111245261486,0.745841755487021,"ssf","mf.is","gamma","unif",158,"ssfOUT_120_1_2_BADGER","BADGER",2,1,120,"preference"
"ssfOUT_120_1_2_BADGER.10",0.577208141855362,0.40448677058626,0.749929513124464,"ssf","mf.is","gamma","unif",500,"ssfOUT_120_1_2_BADGER","BADGER",2,1,120,"preference"
"ssfOUT_120_1_2_BADGER.11",0.418456184106716,0.23061408586459,0.606298282348842,"ssf","mf.is","exp","vonmises",5,"ssfOUT_120_1_2_BADGER","BADGER",2,1,120,"preference"
"ssfOUT_120_1_2_BADGER.12",0.590515591815086,0.413526800770642,0.76750438285953,"ssf","mf.is","exp","vonmises",15,"ssfOUT_120_1_2_BADGER","BADGER",2,1,120,"preference"
"ssfOUT_120_1_2_BADGER.13",0.564966578247046,0.390894116746038,0.739039039748053,"ssf","mf.is","exp","vonmises",50,"ssfOUT_120_1_2_BADGER","BADGER",2,1,120,"preference"
"ssfOUT_120_1_2_BADGER.14",0.560912278642826,0.388385335498771,0.733439221786881,"ssf","mf.is","exp","vonmises",158,"ssfOUT_120_1_2_BADGER","BADGER",2,1,120,"preference"
"ssfOUT_120_1_2_BADGER.15",0.567296491648601,0.394680392668297,0.739912590628906,"ssf","mf.is","exp","vonmises",500,"ssfOUT_120_1_2_BADGER","BADGER",2,1,120,"preference"
"ssfOUT_120_1_2_BADGER.16",0.490617806388832,0.305876297720275,0.675359315057389,"ssf","mf.is","exp","unif",5,"ssfOUT_120_1_2_BADGER","BADGER",2,1,120,"preference"
"ssfOUT_120_1_2_BADGER.17",0.629937123531158,0.451836279178045,0.808037967884271,"ssf","mf.is","exp","unif",15,"ssfOUT_120_1_2_BADGER","BADGER",2,1,120,"preference"
"ssfOUT_120_1_2_BADGER.18",0.572256721226325,0.398614275779041,0.745899166673608,"ssf","mf.is","exp","unif",50,"ssfOUT_120_1_2_BADGER","BADGER",2,1,120,"preference"
"ssfOUT_120_1_2_BADGER.19",0.592131950853542,0.419491566217197,0.764772335489886,"ssf","mf.is","exp","unif",158,"ssfOUT_120_1_2_BADGER","BADGER",2,1,120,"preference"
"ssfOUT_120_1_2_BADGER.20",0.589242398449937,0.416709231788718,0.761775565111157,"ssf","mf.is","exp","unif",500,"ssfOUT_120_1_2_BADGER","BADGER",2,1,120,"preference"
"ssfOUT_120_1_2_BADGER.21",0.550633730215757,0.367389056599408,0.733878403832105,"ssf","mf.ss","gamma","vonmises",5,"ssfOUT_120_1_2_BADGER","BADGER",2,1,120,"preference"
"ssfOUT_120_1_2_BADGER.22",0.557941379713962,0.378257045776302,0.737625713651622,"ssf","mf.ss","gamma","vonmises",15,"ssfOUT_120_1_2_BADGER","BADGER",2,1,120,"preference"
"ssfOUT_120_1_2_BADGER.23",0.548736098589104,0.374857079330993,0.722615117847215,"ssf","mf.ss","gamma","vonmises",50,"ssfOUT_120_1_2_BADGER","BADGER",2,1,120,"preference"
"ssfOUT_120_1_2_BADGER.24",0.544212358644372,0.370773559867839,0.717651157420906,"ssf","mf.ss","gamma","vonmises",158,"ssfOUT_120_1_2_BADGER","BADGER",2,1,120,"preference"
"ssfOUT_120_1_2_BADGER.25",0.577119945924901,0.404199025349239,0.750040866500562,"ssf","mf.ss","gamma","vonmises",500,"ssfOUT_120_1_2_BADGER","BADGER",2,1,120,"preference"
"ssfOUT_120_1_2_BADGER.26",0.475326544826109,0.285948257496968,0.66470483215525,"ssf","mf.ss","gamma","unif",5,"ssfOUT_120_1_2_BADGER","BADGER",2,1,120,"preference"
"ssfOUT_120_1_2_BADGER.27",0.652437058792425,0.474405173666559,0.830468943918292,"ssf","mf.ss","gamma","unif",15,"ssfOUT_120_1_2_BADGER","BADGER",2,1,120,"preference"
"ssfOUT_120_1_2_BADGER.28",0.541193710013006,0.367822359026036,0.714565060999975,"ssf","mf.ss","gamma","unif",50,"ssfOUT_120_1_2_BADGER","BADGER",2,1,120,"preference"
"ssfOUT_120_1_2_BADGER.29",0.567406163625102,0.394486193230914,0.74032613401929,"ssf","mf.ss","gamma","unif",158,"ssfOUT_120_1_2_BADGER","BADGER",2,1,120,"preference"
"ssfOUT_120_1_2_BADGER.30",0.573060281526636,0.399775419254711,0.746345143798561,"ssf","mf.ss","gamma","unif",500,"ssfOUT_120_1_2_BADGER","BADGER",2,1,120,"preference"
"ssfOUT_120_1_2_BADGER.31",0.44044794636181,0.252221275674385,0.628674617049235,"ssf","mf.ss","exp","vonmises",5,"ssfOUT_120_1_2_BADGER","BADGER",2,1,120,"preference"
"ssfOUT_120_1_2_BADGER.32",0.587238759187164,0.410650556604405,0.763826961769922,"ssf","mf.ss","exp","vonmises",15,"ssfOUT_120_1_2_BADGER","BADGER",2,1,120,"preference"
"ssfOUT_120_1_2_BADGER.33",0.564048964447172,0.390222003587491,0.737875925306852,"ssf","mf.ss","exp","vonmises",50,"ssfOUT_120_1_2_BADGER","BADGER",2,1,120,"preference"
"ssfOUT_120_1_2_BADGER.34",0.565222766019667,0.393118965369887,0.737326566669448,"ssf","mf.ss","exp","vonmises",158,"ssfOUT_120_1_2_BADGER","BADGER",2,1,120,"preference"
"ssfOUT_120_1_2_BADGER.35",0.569537741131198,0.397373113507171,0.741702368755225,"ssf","mf.ss","exp","vonmises",500,"ssfOUT_120_1_2_BADGER","BADGER",2,1,120,"preference"
"ssfOUT_120_1_2_BADGER.36",0.525966850248272,0.341763965136748,0.710169735359797,"ssf","mf.ss","exp","unif",5,"ssfOUT_120_1_2_BADGER","BADGER",2,1,120,"preference"
"ssfOUT_120_1_2_BADGER.37",0.632876000540347,0.455411578929403,0.81034042215129,"ssf","mf.ss","exp","unif",15,"ssfOUT_120_1_2_BADGER","BADGER",2,1,120,"preference"
"ssfOUT_120_1_2_BADGER.38",0.577670531112303,0.404517689836257,0.75082337238835,"ssf","mf.ss","exp","unif",50,"ssfOUT_120_1_2_BADGER","BADGER",2,1,120,"preference"
"ssfOUT_120_1_2_BADGER.39",0.60139161026703,0.429292942616946,0.773490277917115,"ssf","mf.ss","exp","unif",158,"ssfOUT_120_1_2_BADGER","BADGER",2,1,120,"preference"
"ssfOUT_120_1_2_BADGER.40",0.595106240160371,0.423060684024027,0.767151796296714,"ssf","mf.ss","exp","unif",500,"ssfOUT_120_1_2_BADGER","BADGER",2,1,120,"preference"
"ssfOUT_120_1_2_VULTURE.1",0.576989841001153,0.373337008241402,0.780642673760904,"ssf","mf.is","gamma","vonmises",5,"ssfOUT_120_1_2_VULTURE","VULTURE",2,1,120,"preference"
"ssfOUT_120_1_2_VULTURE.2",0.667048472948033,0.472960989332883,0.861135956563183,"ssf","mf.is","gamma","vonmises",15,"ssfOUT_120_1_2_VULTURE","VULTURE",2,1,120,"preference"
"ssfOUT_120_1_2_VULTURE.3",0.646521513020351,0.454657334483342,0.83838569155736,"ssf","mf.is","gamma","vonmises",50,"ssfOUT_120_1_2_VULTURE","VULTURE",2,1,120,"preference"
"ssfOUT_120_1_2_VULTURE.4",0.631111784692657,0.439951855086248,0.822271714299065,"ssf","mf.is","gamma","vonmises",158,"ssfOUT_120_1_2_VULTURE","VULTURE",2,1,120,"preference"
"ssfOUT_120_1_2_VULTURE.5",0.624913025985081,0.434034609471736,0.815791442498427,"ssf","mf.is","gamma","vonmises",500,"ssfOUT_120_1_2_VULTURE","VULTURE",2,1,120,"preference"
"ssfOUT_120_1_2_VULTURE.6",0.593338716067192,0.389326382309211,0.797351049825173,"ssf","mf.is","gamma","unif",5,"ssfOUT_120_1_2_VULTURE","VULTURE",2,1,120,"preference"
"ssfOUT_120_1_2_VULTURE.7",0.614559389525569,0.419967726533157,0.80915105251798,"ssf","mf.is","gamma","unif",15,"ssfOUT_120_1_2_VULTURE","VULTURE",2,1,120,"preference"
"ssfOUT_120_1_2_VULTURE.8",0.634341375173085,0.442055462507392,0.826627287838779,"ssf","mf.is","gamma","unif",50,"ssfOUT_120_1_2_VULTURE","VULTURE",2,1,120,"preference"
"ssfOUT_120_1_2_VULTURE.9",0.637438626336371,0.446260122967409,0.828617129705333,"ssf","mf.is","gamma","unif",158,"ssfOUT_120_1_2_VULTURE","VULTURE",2,1,120,"preference"
"ssfOUT_120_1_2_VULTURE.10",0.632866762646097,0.442047919183443,0.823685606108751,"ssf","mf.is","gamma","unif",500,"ssfOUT_120_1_2_VULTURE","VULTURE",2,1,120,"preference"
"ssfOUT_120_1_2_VULTURE.11",0.661263720691761,0.456322563743348,0.866204877640174,"ssf","mf.is","exp","vonmises",5,"ssfOUT_120_1_2_VULTURE","VULTURE",2,1,120,"preference"
"ssfOUT_120_1_2_VULTURE.12",0.686863698944899,0.491953633287449,0.881773764602348,"ssf","mf.is","exp","vonmises",15,"ssfOUT_120_1_2_VULTURE","VULTURE",2,1,120,"preference"
"ssfOUT_120_1_2_VULTURE.13",0.628236967381032,0.435967452121933,0.820506482640131,"ssf","mf.is","exp","vonmises",50,"ssfOUT_120_1_2_VULTURE","VULTURE",2,1,120,"preference"
"ssfOUT_120_1_2_VULTURE.14",0.61469665210604,0.423447267949637,0.805946036262443,"ssf","mf.is","exp","vonmises",158,"ssfOUT_120_1_2_VULTURE","VULTURE",2,1,120,"preference"
"ssfOUT_120_1_2_VULTURE.15",0.63754829013804,0.44662967759209,0.828466902683991,"ssf","mf.is","exp","vonmises",500,"ssfOUT_120_1_2_VULTURE","VULTURE",2,1,120,"preference"
"ssfOUT_120_1_2_VULTURE.16",0.602228665493786,0.396223110762026,0.808234220225547,"ssf","mf.is","exp","unif",5,"ssfOUT_120_1_2_VULTURE","VULTURE",2,1,120,"preference"
"ssfOUT_120_1_2_VULTURE.17",0.636833157649012,0.441648555567,0.832017759731023,"ssf","mf.is","exp","unif",15,"ssfOUT_120_1_2_VULTURE","VULTURE",2,1,120,"preference"
"ssfOUT_120_1_2_VULTURE.18",0.637180425248185,0.445175934798151,0.829184915698219,"ssf","mf.is","exp","unif",50,"ssfOUT_120_1_2_VULTURE","VULTURE",2,1,120,"preference"
"ssfOUT_120_1_2_VULTURE.19",0.633513641614667,0.442446932460889,0.824580350768445,"ssf","mf.is","exp","unif",158,"ssfOUT_120_1_2_VULTURE","VULTURE",2,1,120,"preference"
"ssfOUT_120_1_2_VULTURE.20",0.622989723955137,0.432177865237101,0.813801582673172,"ssf","mf.is","exp","unif",500,"ssfOUT_120_1_2_VULTURE","VULTURE",2,1,120,"preference"
"ssfOUT_120_1_2_VULTURE.21",0.578690448720686,0.375042968023706,0.782337929417667,"ssf","mf.ss","gamma","vonmises",5,"ssfOUT_120_1_2_VULTURE","VULTURE",2,1,120,"preference"
"ssfOUT_120_1_2_VULTURE.22",0.665986883224222,0.471928068392503,0.860045698055941,"ssf","mf.ss","gamma","vonmises",15,"ssfOUT_120_1_2_VULTURE","VULTURE",2,1,120,"preference"
"ssfOUT_120_1_2_VULTURE.23",0.645145383666892,0.453301920379386,0.836988846954398,"ssf","mf.ss","gamma","vonmises",50,"ssfOUT_120_1_2_VULTURE","VULTURE",2,1,120,"preference"
"ssfOUT_120_1_2_VULTURE.24",0.629068226790595,0.437911811774176,0.820224641807014,"ssf","mf.ss","gamma","vonmises",158,"ssfOUT_120_1_2_VULTURE","VULTURE",2,1,120,"preference"
"ssfOUT_120_1_2_VULTURE.25",0.623044554869112,0.432172422752961,0.813916686985263,"ssf","mf.ss","gamma","vonmises",500,"ssfOUT_120_1_2_VULTURE","VULTURE",2,1,120,"preference"
"ssfOUT_120_1_2_VULTURE.26",0.59560300876434,0.391701032666833,0.799504984861846,"ssf","mf.ss","gamma","unif",5,"ssfOUT_120_1_2_VULTURE","VULTURE",2,1,120,"preference"
"ssfOUT_120_1_2_VULTURE.27",0.614934371780673,0.420314865291252,0.809553878270094,"ssf","mf.ss","gamma","unif",15,"ssfOUT_120_1_2_VULTURE","VULTURE",2,1,120,"preference"
"ssfOUT_120_1_2_VULTURE.28",0.638346257966063,0.446107828922767,0.830584687009359,"ssf","mf.ss","gamma","unif",50,"ssfOUT_120_1_2_VULTURE","VULTURE",2,1,120,"preference"
"ssfOUT_120_1_2_VULTURE.29",0.641978978450653,0.450811607959167,0.83314634894214,"ssf","mf.ss","gamma","unif",158,"ssfOUT_120_1_2_VULTURE","VULTURE",2,1,120,"preference"
"ssfOUT_120_1_2_VULTURE.30",0.637428785308641,0.446604872187357,0.828252698429925,"ssf","mf.ss","gamma","unif",500,"ssfOUT_120_1_2_VULTURE","VULTURE",2,1,120,"preference"
"ssfOUT_120_1_2_VULTURE.31",0.586464315256623,0.383957061478654,0.788971569034592,"ssf","mf.ss","exp","vonmises",5,"ssfOUT_120_1_2_VULTURE","VULTURE",2,1,120,"preference"
"ssfOUT_120_1_2_VULTURE.32",0.652423836732012,0.457771205138642,0.847076468325383,"ssf","mf.ss","exp","vonmises",15,"ssfOUT_120_1_2_VULTURE","VULTURE",2,1,120,"preference"
"ssfOUT_120_1_2_VULTURE.33",0.58907714465771,0.396367811672248,0.781786477643172,"ssf","mf.ss","exp","vonmises",50,"ssfOUT_120_1_2_VULTURE","VULTURE",2,1,120,"preference"
"ssfOUT_120_1_2_VULTURE.34",0.578693013433491,0.386557316623695,0.770828710243287,"ssf","mf.ss","exp","vonmises",158,"ssfOUT_120_1_2_VULTURE","VULTURE",2,1,120,"preference"
"ssfOUT_120_1_2_VULTURE.35",0.604942505730273,0.413034558698389,0.796850452762156,"ssf","mf.ss","exp","vonmises",500,"ssfOUT_120_1_2_VULTURE","VULTURE",2,1,120,"preference"
"ssfOUT_120_1_2_VULTURE.36",0.516581914823983,0.313903429833575,0.719260399814392,"ssf","mf.ss","exp","unif",5,"ssfOUT_120_1_2_VULTURE","VULTURE",2,1,120,"preference"
"ssfOUT_120_1_2_VULTURE.37",0.570967811511863,0.375857031280495,0.766078591743232,"ssf","mf.ss","exp","unif",15,"ssfOUT_120_1_2_VULTURE","VULTURE",2,1,120,"preference"
"ssfOUT_120_1_2_VULTURE.38",0.602768364942827,0.410183464068137,0.795353265817517,"ssf","mf.ss","exp","unif",50,"ssfOUT_120_1_2_VULTURE","VULTURE",2,1,120,"preference"
"ssfOUT_120_1_2_VULTURE.39",0.600456603604095,0.408393149647541,0.792520057560649,"ssf","mf.ss","exp","unif",158,"ssfOUT_120_1_2_VULTURE","VULTURE",2,1,120,"preference"
"ssfOUT_120_1_2_VULTURE.40",0.594789274716212,0.402934519395207,0.786644030037217,"ssf","mf.ss","exp","unif",500,"ssfOUT_120_1_2_VULTURE","VULTURE",2,1,120,"preference"
"ssfOUT_120_1_2_KINGCOBRA.1",0.29072361484259,0.0869204924860207,0.494526737199159,"ssf","mf.is","gamma","vonmises",5,"ssfOUT_120_1_2_KINGCOBRA","KINGCOBRA",2,1,120,"preference"
"ssfOUT_120_1_2_KINGCOBRA.2",0.546256405082639,0.34868748194972,0.743825328215558,"ssf","mf.is","gamma","vonmises",15,"ssfOUT_120_1_2_KINGCOBRA","KINGCOBRA",2,1,120,"preference"
"ssfOUT_120_1_2_KINGCOBRA.3",0.401960064024037,0.208887856275837,0.595032271772237,"ssf","mf.is","gamma","vonmises",50,"ssfOUT_120_1_2_KINGCOBRA","KINGCOBRA",2,1,120,"preference"
"ssfOUT_120_1_2_KINGCOBRA.4",0.440547066953212,0.246949099241336,0.634145034665087,"ssf","mf.is","gamma","vonmises",158,"ssfOUT_120_1_2_KINGCOBRA","KINGCOBRA",2,1,120,"preference"
"ssfOUT_120_1_2_KINGCOBRA.5",0.445581947241482,0.252993591659083,0.638170302823882,"ssf","mf.is","gamma","vonmises",500,"ssfOUT_120_1_2_KINGCOBRA","KINGCOBRA",2,1,120,"preference"
"ssfOUT_120_1_2_KINGCOBRA.6",0.444996842212865,0.243094578958845,0.646899105466884,"ssf","mf.is","gamma","unif",5,"ssfOUT_120_1_2_KINGCOBRA","KINGCOBRA",2,1,120,"preference"
"ssfOUT_120_1_2_KINGCOBRA.7",0.520558146117132,0.32605483168156,0.715061460552704,"ssf","mf.is","gamma","unif",15,"ssfOUT_120_1_2_KINGCOBRA","KINGCOBRA",2,1,120,"preference"
"ssfOUT_120_1_2_KINGCOBRA.8",0.482578319929724,0.287836931678102,0.677319708181346,"ssf","mf.is","gamma","unif",50,"ssfOUT_120_1_2_KINGCOBRA","KINGCOBRA",2,1,120,"preference"
"ssfOUT_120_1_2_KINGCOBRA.9",0.462285585348206,0.26907338939867,0.655497781297742,"ssf","mf.is","gamma","unif",158,"ssfOUT_120_1_2_KINGCOBRA","KINGCOBRA",2,1,120,"preference"
"ssfOUT_120_1_2_KINGCOBRA.10",0.449189958955071,0.256692456702561,0.641687461207581,"ssf","mf.is","gamma","unif",500,"ssfOUT_120_1_2_KINGCOBRA","KINGCOBRA",2,1,120,"preference"
"ssfOUT_120_1_2_KINGCOBRA.11",0.153868212416718,-0.0505226810916283,0.358259105925065,"ssf","mf.is","exp","vonmises",5,"ssfOUT_120_1_2_KINGCOBRA","KINGCOBRA",2,1,120,"no effect"
"ssfOUT_120_1_2_KINGCOBRA.12",0.260146651453305,0.0634661412647237,0.456827161641886,"ssf","mf.is","exp","vonmises",15,"ssfOUT_120_1_2_KINGCOBRA","KINGCOBRA",2,1,120,"preference"
"ssfOUT_120_1_2_KINGCOBRA.13",0.464749645785486,0.270442975048475,0.659056316522498,"ssf","mf.is","exp","vonmises",50,"ssfOUT_120_1_2_KINGCOBRA","KINGCOBRA",2,1,120,"preference"
"ssfOUT_120_1_2_KINGCOBRA.14",0.443789921042082,0.247933760152939,0.639646081931226,"ssf","mf.is","exp","vonmises",158,"ssfOUT_120_1_2_KINGCOBRA","KINGCOBRA",2,1,120,"preference"
"ssfOUT_120_1_2_KINGCOBRA.15",0.470660509694927,0.274537879145611,0.666783140244242,"ssf","mf.is","exp","vonmises",500,"ssfOUT_120_1_2_KINGCOBRA","KINGCOBRA",2,1,120,"preference"
"ssfOUT_120_1_2_KINGCOBRA.16",0.180984216237009,-0.0242837293642118,0.386252161838231,"ssf","mf.is","exp","unif",5,"ssfOUT_120_1_2_KINGCOBRA","KINGCOBRA",2,1,120,"no effect"
"ssfOUT_120_1_2_KINGCOBRA.17",0.215427449506273,0.0211042756168689,0.409750623395676,"ssf","mf.is","exp","unif",15,"ssfOUT_120_1_2_KINGCOBRA","KINGCOBRA",2,1,120,"preference"
"ssfOUT_120_1_2_KINGCOBRA.18",0.437114340620412,0.241874071709045,0.632354609531779,"ssf","mf.is","exp","unif",50,"ssfOUT_120_1_2_KINGCOBRA","KINGCOBRA",2,1,120,"preference"
"ssfOUT_120_1_2_KINGCOBRA.19",0.476222151459315,0.278975068194157,0.673469234724472,"ssf","mf.is","exp","unif",158,"ssfOUT_120_1_2_KINGCOBRA","KINGCOBRA",2,1,120,"preference"
"ssfOUT_120_1_2_KINGCOBRA.20",0.433458712885558,0.239564075804315,0.6273533499668,"ssf","mf.is","exp","unif",500,"ssfOUT_120_1_2_KINGCOBRA","KINGCOBRA",2,1,120,"preference"
"ssfOUT_120_1_2_KINGCOBRA.21",0.280519777794639,0.0763217046122159,0.484717850977062,"ssf","mf.ss","gamma","vonmises",5,"ssfOUT_120_1_2_KINGCOBRA","KINGCOBRA",2,1,120,"preference"
"ssfOUT_120_1_2_KINGCOBRA.22",0.543087773468531,0.345332260045032,0.74084328689203,"ssf","mf.ss","gamma","vonmises",15,"ssfOUT_120_1_2_KINGCOBRA","KINGCOBRA",2,1,120,"preference"
"ssfOUT_120_1_2_KINGCOBRA.23",0.400053793055862,0.206662008274117,0.593445577837608,"ssf","mf.ss","gamma","vonmises",50,"ssfOUT_120_1_2_KINGCOBRA","KINGCOBRA",2,1,120,"preference"
"ssfOUT_120_1_2_KINGCOBRA.24",0.435797412700517,0.241943087804418,0.629651737596616,"ssf","mf.ss","gamma","vonmises",158,"ssfOUT_120_1_2_KINGCOBRA","KINGCOBRA",2,1,120,"preference"
"ssfOUT_120_1_2_KINGCOBRA.25",0.442434190971555,0.249552365539752,0.635316016403357,"ssf","mf.ss","gamma","vonmises",500,"ssfOUT_120_1_2_KINGCOBRA","KINGCOBRA",2,1,120,"preference"
"ssfOUT_120_1_2_KINGCOBRA.26",0.438909564586131,0.236922860252916,0.640896268919346,"ssf","mf.ss","gamma","unif",5,"ssfOUT_120_1_2_KINGCOBRA","KINGCOBRA",2,1,120,"preference"
"ssfOUT_120_1_2_KINGCOBRA.27",0.52007049994626,0.325249313241207,0.714891686651314,"ssf","mf.ss","gamma","unif",15,"ssfOUT_120_1_2_KINGCOBRA","KINGCOBRA",2,1,120,"preference"
"ssfOUT_120_1_2_KINGCOBRA.28",0.481374895902806,0.286391150075164,0.676358641730448,"ssf","mf.ss","gamma","unif",50,"ssfOUT_120_1_2_KINGCOBRA","KINGCOBRA",2,1,120,"preference"
"ssfOUT_120_1_2_KINGCOBRA.29",0.46006586296266,0.26659849993771,0.653533225987609,"ssf","mf.ss","gamma","unif",158,"ssfOUT_120_1_2_KINGCOBRA","KINGCOBRA",2,1,120,"preference"
"ssfOUT_120_1_2_KINGCOBRA.30",0.446503440059536,0.253765471659548,0.639241408459524,"ssf","mf.ss","gamma","unif",500,"ssfOUT_120_1_2_KINGCOBRA","KINGCOBRA",2,1,120,"preference"
"ssfOUT_120_1_2_KINGCOBRA.31",0.385429959548333,0.185639854021795,0.585220065074871,"ssf","mf.ss","exp","vonmises",5,"ssfOUT_120_1_2_KINGCOBRA","KINGCOBRA",2,1,120,"preference"
"ssfOUT_120_1_2_KINGCOBRA.32",0.437422433950756,0.250569321735027,0.624275546166485,"ssf","mf.ss","exp","vonmises",15,"ssfOUT_120_1_2_KINGCOBRA","KINGCOBRA",2,1,120,"preference"
"ssfOUT_120_1_2_KINGCOBRA.33",0.518415551281806,0.333845609550907,0.702985493012706,"ssf","mf.ss","exp","vonmises",50,"ssfOUT_120_1_2_KINGCOBRA","KINGCOBRA",2,1,120,"preference"
"ssfOUT_120_1_2_KINGCOBRA.34",0.529265966850404,0.344969059013668,0.71356287468714,"ssf","mf.ss","exp","vonmises",158,"ssfOUT_120_1_2_KINGCOBRA","KINGCOBRA",2,1,120,"preference"
"ssfOUT_120_1_2_KINGCOBRA.35",0.513942264295463,0.33005406136699,0.697830467223936,"ssf","mf.ss","exp","vonmises",500,"ssfOUT_120_1_2_KINGCOBRA","KINGCOBRA",2,1,120,"preference"
"ssfOUT_120_1_2_KINGCOBRA.36",0.444439149472436,0.246426371133988,0.642451927810883,"ssf","mf.ss","exp","unif",5,"ssfOUT_120_1_2_KINGCOBRA","KINGCOBRA",2,1,120,"preference"
"ssfOUT_120_1_2_KINGCOBRA.37",0.478780200304537,0.290806836390782,0.666753564218292,"ssf","mf.ss","exp","unif",15,"ssfOUT_120_1_2_KINGCOBRA","KINGCOBRA",2,1,120,"preference"
"ssfOUT_120_1_2_KINGCOBRA.38",0.561268707226887,0.376874937199761,0.745662477254012,"ssf","mf.ss","exp","unif",50,"ssfOUT_120_1_2_KINGCOBRA","KINGCOBRA",2,1,120,"preference"
"ssfOUT_120_1_2_KINGCOBRA.39",0.528289724574379,0.343572162901548,0.71300728624721,"ssf","mf.ss","exp","unif",158,"ssfOUT_120_1_2_KINGCOBRA","KINGCOBRA",2,1,120,"preference"
"ssfOUT_120_1_2_KINGCOBRA.40",0.504987714497548,0.321262308181705,0.688713120813392,"ssf","mf.ss","exp","unif",500,"ssfOUT_120_1_2_KINGCOBRA","KINGCOBRA",2,1,120,"preference"
"ssfOUT_120_1_3_BADGER.1",-0.0559850003480262,-0.210031180429263,0.0980611797332111,"ssf","mf.is","gamma","vonmises",5,"ssfOUT_120_1_3_BADGER","BADGER",3,1,120,"no effect"
"ssfOUT_120_1_3_BADGER.2",0.0167403925526659,-0.127349219718697,0.160830004824028,"ssf","mf.is","gamma","vonmises",15,"ssfOUT_120_1_3_BADGER","BADGER",3,1,120,"no effect"
"ssfOUT_120_1_3_BADGER.3",0.00399588297539876,-0.136979379841998,0.144971145792795,"ssf","mf.is","gamma","vonmises",50,"ssfOUT_120_1_3_BADGER","BADGER",3,1,120,"no effect"
"ssfOUT_120_1_3_BADGER.4",0.00893853121091723,-0.13092836683501,0.148805429256845,"ssf","mf.is","gamma","vonmises",158,"ssfOUT_120_1_3_BADGER","BADGER",3,1,120,"no effect"
"ssfOUT_120_1_3_BADGER.5",0.00570544980295232,-0.133858302828516,0.14526920243442,"ssf","mf.is","gamma","vonmises",500,"ssfOUT_120_1_3_BADGER","BADGER",3,1,120,"no effect"
"ssfOUT_120_1_3_BADGER.6",0.0915906374723158,-0.0631593871990103,0.246340662143642,"ssf","mf.is","gamma","unif",5,"ssfOUT_120_1_3_BADGER","BADGER",3,1,120,"no effect"
"ssfOUT_120_1_3_BADGER.7",0.0483766860060944,-0.0953408856738502,0.192094257686039,"ssf","mf.is","gamma","unif",15,"ssfOUT_120_1_3_BADGER","BADGER",3,1,120,"no effect"
"ssfOUT_120_1_3_BADGER.8",0.0179933989658209,-0.122402816936421,0.158389614868063,"ssf","mf.is","gamma","unif",50,"ssfOUT_120_1_3_BADGER","BADGER",3,1,120,"no effect"
"ssfOUT_120_1_3_BADGER.9",0.000656848892922636,-0.139213422031185,0.14052711981703,"ssf","mf.is","gamma","unif",158,"ssfOUT_120_1_3_BADGER","BADGER",3,1,120,"no effect"
"ssfOUT_120_1_3_BADGER.10",0.0183793143621736,-0.121047864930883,0.157806493655231,"ssf","mf.is","gamma","unif",500,"ssfOUT_120_1_3_BADGER","BADGER",3,1,120,"no effect"
"ssfOUT_120_1_3_BADGER.11",-0.050154352471069,-0.204619042834193,0.104310337892055,"ssf","mf.is","exp","vonmises",5,"ssfOUT_120_1_3_BADGER","BADGER",3,1,120,"no effect"
"ssfOUT_120_1_3_BADGER.12",-0.00866801240829041,-0.152197348067388,0.134861323250807,"ssf","mf.is","exp","vonmises",15,"ssfOUT_120_1_3_BADGER","BADGER",3,1,120,"no effect"
"ssfOUT_120_1_3_BADGER.13",0.0304989855066417,-0.11059335357102,0.171591324584303,"ssf","mf.is","exp","vonmises",50,"ssfOUT_120_1_3_BADGER","BADGER",3,1,120,"no effect"
"ssfOUT_120_1_3_BADGER.14",-0.000699525003147139,-0.140383940803326,0.138984890797032,"ssf","mf.is","exp","vonmises",158,"ssfOUT_120_1_3_BADGER","BADGER",3,1,120,"no effect"
"ssfOUT_120_1_3_BADGER.15",0.0127181410822143,-0.126721699061218,0.152157981225647,"ssf","mf.is","exp","vonmises",500,"ssfOUT_120_1_3_BADGER","BADGER",3,1,120,"no effect"
"ssfOUT_120_1_3_BADGER.16",-0.114512124572013,-0.267714310192733,0.0386900610487075,"ssf","mf.is","exp","unif",5,"ssfOUT_120_1_3_BADGER","BADGER",3,1,120,"no effect"
"ssfOUT_120_1_3_BADGER.17",-0.0178421388183091,-0.161500995424144,0.125816717787526,"ssf","mf.is","exp","unif",15,"ssfOUT_120_1_3_BADGER","BADGER",3,1,120,"no effect"
"ssfOUT_120_1_3_BADGER.18",0.0223639609988879,-0.118902028560728,0.163629950558504,"ssf","mf.is","exp","unif",50,"ssfOUT_120_1_3_BADGER","BADGER",3,1,120,"no effect"
"ssfOUT_120_1_3_BADGER.19",0.00942162286035595,-0.130287664691603,0.149130910412315,"ssf","mf.is","exp","unif",158,"ssfOUT_120_1_3_BADGER","BADGER",3,1,120,"no effect"
"ssfOUT_120_1_3_BADGER.20",0.0174778225549175,-0.121933319561754,0.156888964671589,"ssf","mf.is","exp","unif",500,"ssfOUT_120_1_3_BADGER","BADGER",3,1,120,"no effect"
"ssfOUT_120_1_3_BADGER.21",-0.0564392300884478,-0.210681521628684,0.0978030614517886,"ssf","mf.ss","gamma","vonmises",5,"ssfOUT_120_1_3_BADGER","BADGER",3,1,120,"no effect"
"ssfOUT_120_1_3_BADGER.22",0.0161204929609534,-0.128118113289764,0.160359099211671,"ssf","mf.ss","gamma","vonmises",15,"ssfOUT_120_1_3_BADGER","BADGER",3,1,120,"no effect"
"ssfOUT_120_1_3_BADGER.23",0.00322573023261113,-0.137818831005308,0.14427029147053,"ssf","mf.ss","gamma","vonmises",50,"ssfOUT_120_1_3_BADGER","BADGER",3,1,120,"no effect"
"ssfOUT_120_1_3_BADGER.24",0.00815812916771944,-0.131788614691601,0.14810487302704,"ssf","mf.ss","gamma","vonmises",158,"ssfOUT_120_1_3_BADGER","BADGER",3,1,120,"no effect"
"ssfOUT_120_1_3_BADGER.25",0.0049911449692101,-0.134649252514337,0.144631542452758,"ssf","mf.ss","gamma","vonmises",500,"ssfOUT_120_1_3_BADGER","BADGER",3,1,120,"no effect"
"ssfOUT_120_1_3_BADGER.26",0.0804375569810332,-0.0738494134512666,0.234724527413333,"ssf","mf.ss","gamma","unif",5,"ssfOUT_120_1_3_BADGER","BADGER",3,1,120,"no effect"
"ssfOUT_120_1_3_BADGER.27",0.0494634095273081,-0.0941120386700095,0.193038857724626,"ssf","mf.ss","gamma","unif",15,"ssfOUT_120_1_3_BADGER","BADGER",3,1,120,"no effect"
"ssfOUT_120_1_3_BADGER.28",0.0106981716631241,-0.129737358247856,0.151133701574104,"ssf","mf.ss","gamma","unif",50,"ssfOUT_120_1_3_BADGER","BADGER",3,1,120,"no effect"
"ssfOUT_120_1_3_BADGER.29",-0.00107247734426704,-0.140763404938921,0.138618450250387,"ssf","mf.ss","gamma","unif",158,"ssfOUT_120_1_3_BADGER","BADGER",3,1,120,"no effect"
"ssfOUT_120_1_3_BADGER.30",0.0125835181621796,-0.126691873124873,0.151858909449232,"ssf","mf.ss","gamma","unif",500,"ssfOUT_120_1_3_BADGER","BADGER",3,1,120,"no effect"
"ssfOUT_120_1_3_BADGER.31",-0.0473798865818618,-0.201892831304227,0.107133058140503,"ssf","mf.ss","exp","vonmises",5,"ssfOUT_120_1_3_BADGER","BADGER",3,1,120,"no effect"
"ssfOUT_120_1_3_BADGER.32",-0.00700048206111761,-0.150856335774814,0.136855371652579,"ssf","mf.ss","exp","vonmises",15,"ssfOUT_120_1_3_BADGER","BADGER",3,1,120,"no effect"
"ssfOUT_120_1_3_BADGER.33",0.0382030149605632,-0.103251721474314,0.179657751395441,"ssf","mf.ss","exp","vonmises",50,"ssfOUT_120_1_3_BADGER","BADGER",3,1,120,"no effect"
"ssfOUT_120_1_3_BADGER.34",0.00561925333983859,-0.134429560797769,0.145668067477447,"ssf","mf.ss","exp","vonmises",158,"ssfOUT_120_1_3_BADGER","BADGER",3,1,120,"no effect"
"ssfOUT_120_1_3_BADGER.35",0.0205651472176154,-0.119224175385039,0.16035446982027,"ssf","mf.ss","exp","vonmises",500,"ssfOUT_120_1_3_BADGER","BADGER",3,1,120,"no effect"
"ssfOUT_120_1_3_BADGER.36",-0.114598100362737,-0.267331508922751,0.0381353081972784,"ssf","mf.ss","exp","unif",5,"ssfOUT_120_1_3_BADGER","BADGER",3,1,120,"no effect"
"ssfOUT_120_1_3_BADGER.37",-0.021748119338202,-0.165327473774292,0.121831235097888,"ssf","mf.ss","exp","unif",15,"ssfOUT_120_1_3_BADGER","BADGER",3,1,120,"no effect"
"ssfOUT_120_1_3_BADGER.38",0.0242476851753827,-0.116993262173637,0.165488632524402,"ssf","mf.ss","exp","unif",50,"ssfOUT_120_1_3_BADGER","BADGER",3,1,120,"no effect"
"ssfOUT_120_1_3_BADGER.39",0.0152177698778794,-0.124675056834397,0.155110596590156,"ssf","mf.ss","exp","unif",158,"ssfOUT_120_1_3_BADGER","BADGER",3,1,120,"no effect"
"ssfOUT_120_1_3_BADGER.40",0.0210861118783088,-0.118507264242101,0.160679487998718,"ssf","mf.ss","exp","unif",500,"ssfOUT_120_1_3_BADGER","BADGER",3,1,120,"no effect"
"ssfOUT_120_1_3_VULTURE.1",0.49705471344484,0.293347822963045,0.700761603926635,"ssf","mf.is","gamma","vonmises",5,"ssfOUT_120_1_3_VULTURE","VULTURE",3,1,120,"preference"
"ssfOUT_120_1_3_VULTURE.2",0.458926433224286,0.26236227147342,0.655490594975152,"ssf","mf.is","gamma","vonmises",15,"ssfOUT_120_1_3_VULTURE","VULTURE",3,1,120,"preference"
"ssfOUT_120_1_3_VULTURE.3",0.47706961174002,0.285075211344407,0.669064012135632,"ssf","mf.is","gamma","vonmises",50,"ssfOUT_120_1_3_VULTURE","VULTURE",3,1,120,"preference"
"ssfOUT_120_1_3_VULTURE.4",0.471415235415967,0.28048334036785,0.662347130464085,"ssf","mf.is","gamma","vonmises",158,"ssfOUT_120_1_3_VULTURE","VULTURE",3,1,120,"preference"
"ssfOUT_120_1_3_VULTURE.5",0.456873653168169,0.266250631538346,0.647496674797992,"ssf","mf.is","gamma","vonmises",500,"ssfOUT_120_1_3_VULTURE","VULTURE",3,1,120,"preference"
"ssfOUT_120_1_3_VULTURE.6",0.437004043339387,0.229704965333379,0.644303121345394,"ssf","mf.is","gamma","unif",5,"ssfOUT_120_1_3_VULTURE","VULTURE",3,1,120,"preference"
"ssfOUT_120_1_3_VULTURE.7",0.481450924311304,0.286771043190836,0.676130805431771,"ssf","mf.is","gamma","unif",15,"ssfOUT_120_1_3_VULTURE","VULTURE",3,1,120,"preference"
"ssfOUT_120_1_3_VULTURE.8",0.428445574453889,0.236460644512078,0.620430504395701,"ssf","mf.is","gamma","unif",50,"ssfOUT_120_1_3_VULTURE","VULTURE",3,1,120,"preference"
"ssfOUT_120_1_3_VULTURE.9",0.470575581620281,0.279725586378485,0.661425576862077,"ssf","mf.is","gamma","unif",158,"ssfOUT_120_1_3_VULTURE","VULTURE",3,1,120,"preference"
"ssfOUT_120_1_3_VULTURE.10",0.469649440454766,0.278924968917932,0.6603739119916,"ssf","mf.is","gamma","unif",500,"ssfOUT_120_1_3_VULTURE","VULTURE",3,1,120,"preference"
"ssfOUT_120_1_3_VULTURE.11",0.350637100982789,0.134705201255921,0.566569000709658,"ssf","mf.is","exp","vonmises",5,"ssfOUT_120_1_3_VULTURE","VULTURE",3,1,120,"preference"
"ssfOUT_120_1_3_VULTURE.12",0.486797922213747,0.289163854297784,0.68443199012971,"ssf","mf.is","exp","vonmises",15,"ssfOUT_120_1_3_VULTURE","VULTURE",3,1,120,"preference"
"ssfOUT_120_1_3_VULTURE.13",0.464593264479337,0.271980022542999,0.657206506415676,"ssf","mf.is","exp","vonmises",50,"ssfOUT_120_1_3_VULTURE","VULTURE",3,1,120,"preference"
"ssfOUT_120_1_3_VULTURE.14",0.451344381636414,0.259824572026178,0.64286419124665,"ssf","mf.is","exp","vonmises",158,"ssfOUT_120_1_3_VULTURE","VULTURE",3,1,120,"preference"
"ssfOUT_120_1_3_VULTURE.15",0.480762389799284,0.28992304107504,0.671601738523528,"ssf","mf.is","exp","vonmises",500,"ssfOUT_120_1_3_VULTURE","VULTURE",3,1,120,"preference"
"ssfOUT_120_1_3_VULTURE.16",0.606355451859002,0.398712533923348,0.813998369794657,"ssf","mf.is","exp","unif",5,"ssfOUT_120_1_3_VULTURE","VULTURE",3,1,120,"preference"
"ssfOUT_120_1_3_VULTURE.17",0.529863400556388,0.333002637153352,0.726724163959424,"ssf","mf.is","exp","unif",15,"ssfOUT_120_1_3_VULTURE","VULTURE",3,1,120,"preference"
"ssfOUT_120_1_3_VULTURE.18",0.453812216396548,0.261294121616612,0.646330311176484,"ssf","mf.is","exp","unif",50,"ssfOUT_120_1_3_VULTURE","VULTURE",3,1,120,"preference"
"ssfOUT_120_1_3_VULTURE.19",0.457972086857021,0.266881929012157,0.649062244701885,"ssf","mf.is","exp","unif",158,"ssfOUT_120_1_3_VULTURE","VULTURE",3,1,120,"preference"
"ssfOUT_120_1_3_VULTURE.20",0.46959286502747,0.278939436907698,0.660246293147242,"ssf","mf.is","exp","unif",500,"ssfOUT_120_1_3_VULTURE","VULTURE",3,1,120,"preference"
"ssfOUT_120_1_3_VULTURE.21",0.493956065589894,0.290311615700184,0.697600515479603,"ssf","mf.ss","gamma","vonmises",5,"ssfOUT_120_1_3_VULTURE","VULTURE",3,1,120,"preference"
"ssfOUT_120_1_3_VULTURE.22",0.458220707663119,0.261608714276224,0.654832701050013,"ssf","mf.ss","gamma","vonmises",15,"ssfOUT_120_1_3_VULTURE","VULTURE",3,1,120,"preference"
"ssfOUT_120_1_3_VULTURE.23",0.477069981380893,0.285020106073362,0.669119856688423,"ssf","mf.ss","gamma","vonmises",50,"ssfOUT_120_1_3_VULTURE","VULTURE",3,1,120,"preference"
"ssfOUT_120_1_3_VULTURE.24",0.469762148213349,0.278750513975548,0.66077378245115,"ssf","mf.ss","gamma","vonmises",158,"ssfOUT_120_1_3_VULTURE","VULTURE",3,1,120,"preference"
"ssfOUT_120_1_3_VULTURE.25",0.455048288192173,0.264358590486732,0.645737985897614,"ssf","mf.ss","gamma","vonmises",500,"ssfOUT_120_1_3_VULTURE","VULTURE",3,1,120,"preference"
"ssfOUT_120_1_3_VULTURE.26",0.442726572231191,0.235611703109072,0.649841441353309,"ssf","mf.ss","gamma","unif",5,"ssfOUT_120_1_3_VULTURE","VULTURE",3,1,120,"preference"
"ssfOUT_120_1_3_VULTURE.27",0.482636539191773,0.287924109703774,0.677348968679773,"ssf","mf.ss","gamma","unif",15,"ssfOUT_120_1_3_VULTURE","VULTURE",3,1,120,"preference"
"ssfOUT_120_1_3_VULTURE.28",0.427978660955686,0.235964068888218,0.619993253023154,"ssf","mf.ss","gamma","unif",50,"ssfOUT_120_1_3_VULTURE","VULTURE",3,1,120,"preference"
"ssfOUT_120_1_3_VULTURE.29",0.469033773671087,0.278122199880904,0.65994534746127,"ssf","mf.ss","gamma","unif",158,"ssfOUT_120_1_3_VULTURE","VULTURE",3,1,120,"preference"
"ssfOUT_120_1_3_VULTURE.30",0.469335784538439,0.278545339733885,0.660126229342994,"ssf","mf.ss","gamma","unif",500,"ssfOUT_120_1_3_VULTURE","VULTURE",3,1,120,"preference"
"ssfOUT_120_1_3_VULTURE.31",0.362293023541673,0.153963203373918,0.570622843709428,"ssf","mf.ss","exp","vonmises",5,"ssfOUT_120_1_3_VULTURE","VULTURE",3,1,120,"preference"
"ssfOUT_120_1_3_VULTURE.32",0.486129035798601,0.28934584769098,0.682912223906222,"ssf","mf.ss","exp","vonmises",15,"ssfOUT_120_1_3_VULTURE","VULTURE",3,1,120,"preference"
"ssfOUT_120_1_3_VULTURE.33",0.446527844337708,0.252951142126995,0.64010454654842,"ssf","mf.ss","exp","vonmises",50,"ssfOUT_120_1_3_VULTURE","VULTURE",3,1,120,"preference"
"ssfOUT_120_1_3_VULTURE.34",0.446577664450364,0.254406586119746,0.638748742780982,"ssf","mf.ss","exp","vonmises",158,"ssfOUT_120_1_3_VULTURE","VULTURE",3,1,120,"preference"
"ssfOUT_120_1_3_VULTURE.35",0.486487301743162,0.294628032854799,0.678346570631525,"ssf","mf.ss","exp","vonmises",500,"ssfOUT_120_1_3_VULTURE","VULTURE",3,1,120,"preference"
"ssfOUT_120_1_3_VULTURE.36",0.555187399297843,0.352173660358849,0.758201138236837,"ssf","mf.ss","exp","unif",5,"ssfOUT_120_1_3_VULTURE","VULTURE",3,1,120,"preference"
"ssfOUT_120_1_3_VULTURE.37",0.488167110205648,0.291832143675093,0.684502076736204,"ssf","mf.ss","exp","unif",15,"ssfOUT_120_1_3_VULTURE","VULTURE",3,1,120,"preference"
"ssfOUT_120_1_3_VULTURE.38",0.468021060947461,0.274735813984555,0.661306307910367,"ssf","mf.ss","exp","unif",50,"ssfOUT_120_1_3_VULTURE","VULTURE",3,1,120,"preference"
"ssfOUT_120_1_3_VULTURE.39",0.469369632368877,0.277279308928027,0.661459955809727,"ssf","mf.ss","exp","unif",158,"ssfOUT_120_1_3_VULTURE","VULTURE",3,1,120,"preference"
"ssfOUT_120_1_3_VULTURE.40",0.472158915398981,0.280496535314555,0.663821295483408,"ssf","mf.ss","exp","unif",500,"ssfOUT_120_1_3_VULTURE","VULTURE",3,1,120,"preference"
"ssfOUT_120_1_3_KINGCOBRA.1",0.43320532928305,-0.047726777895899,0.914137436461999,"ssf","mf.is","gamma","vonmises",5,"ssfOUT_120_1_3_KINGCOBRA","KINGCOBRA",3,1,120,"no effect"
"ssfOUT_120_1_3_KINGCOBRA.2",0.579220467392592,0.145234616371524,1.01320631841366,"ssf","mf.is","gamma","vonmises",15,"ssfOUT_120_1_3_KINGCOBRA","KINGCOBRA",3,1,120,"preference"
"ssfOUT_120_1_3_KINGCOBRA.3",0.563698525375753,0.141018924403147,0.986378126348358,"ssf","mf.is","gamma","vonmises",50,"ssfOUT_120_1_3_KINGCOBRA","KINGCOBRA",3,1,120,"preference"
"ssfOUT_120_1_3_KINGCOBRA.4",0.564529210745987,0.148542184086167,0.980516237405808,"ssf","mf.is","gamma","vonmises",158,"ssfOUT_120_1_3_KINGCOBRA","KINGCOBRA",3,1,120,"preference"
"ssfOUT_120_1_3_KINGCOBRA.5",0.557650619760326,0.137995644329197,0.977305595191455,"ssf","mf.is","gamma","vonmises",500,"ssfOUT_120_1_3_KINGCOBRA","KINGCOBRA",3,1,120,"preference"
"ssfOUT_120_1_3_KINGCOBRA.6",0.560421740703515,0.0769358194144379,1.04390766199259,"ssf","mf.is","gamma","unif",5,"ssfOUT_120_1_3_KINGCOBRA","KINGCOBRA",3,1,120,"preference"
"ssfOUT_120_1_3_KINGCOBRA.7",0.621921991992514,0.183406963744553,1.06043702024047,"ssf","mf.is","gamma","unif",15,"ssfOUT_120_1_3_KINGCOBRA","KINGCOBRA",3,1,120,"preference"
"ssfOUT_120_1_3_KINGCOBRA.8",0.568084099297207,0.142860411177838,0.993307787416575,"ssf","mf.is","gamma","unif",50,"ssfOUT_120_1_3_KINGCOBRA","KINGCOBRA",3,1,120,"preference"
"ssfOUT_120_1_3_KINGCOBRA.9",0.484135116606277,0.0626055017680962,0.905664731444457,"ssf","mf.is","gamma","unif",158,"ssfOUT_120_1_3_KINGCOBRA","KINGCOBRA",3,1,120,"preference"
"ssfOUT_120_1_3_KINGCOBRA.10",0.561111931731689,0.142210351128182,0.980013512335196,"ssf","mf.is","gamma","unif",500,"ssfOUT_120_1_3_KINGCOBRA","KINGCOBRA",3,1,120,"preference"
"ssfOUT_120_1_3_KINGCOBRA.11",0.894061063967918,0.44593087829565,1.34219124964019,"ssf","mf.is","exp","vonmises",5,"ssfOUT_120_1_3_KINGCOBRA","KINGCOBRA",3,1,120,"preference"
"ssfOUT_120_1_3_KINGCOBRA.12",0.170299793320548,-0.257038727952804,0.597638314593899,"ssf","mf.is","exp","vonmises",15,"ssfOUT_120_1_3_KINGCOBRA","KINGCOBRA",3,1,120,"no effect"
"ssfOUT_120_1_3_KINGCOBRA.13",0.259829505860621,-0.168896866867804,0.688555878589047,"ssf","mf.is","exp","vonmises",50,"ssfOUT_120_1_3_KINGCOBRA","KINGCOBRA",3,1,120,"no effect"
"ssfOUT_120_1_3_KINGCOBRA.14",0.58947105200535,0.156392120866837,1.02254998314386,"ssf","mf.is","exp","vonmises",158,"ssfOUT_120_1_3_KINGCOBRA","KINGCOBRA",3,1,120,"preference"
"ssfOUT_120_1_3_KINGCOBRA.15",0.603552632453746,0.17744801278009,1.0296572521274,"ssf","mf.is","exp","vonmises",500,"ssfOUT_120_1_3_KINGCOBRA","KINGCOBRA",3,1,120,"preference"
"ssfOUT_120_1_3_KINGCOBRA.16",0.337941292065335,-0.115465080984086,0.791347665114757,"ssf","mf.is","exp","unif",5,"ssfOUT_120_1_3_KINGCOBRA","KINGCOBRA",3,1,120,"no effect"
"ssfOUT_120_1_3_KINGCOBRA.17",0.374521951347345,-0.0712741841704665,0.820318086865157,"ssf","mf.is","exp","unif",15,"ssfOUT_120_1_3_KINGCOBRA","KINGCOBRA",3,1,120,"no effect"
"ssfOUT_120_1_3_KINGCOBRA.18",0.64223837786907,0.207742034891288,1.07673472084685,"ssf","mf.is","exp","unif",50,"ssfOUT_120_1_3_KINGCOBRA","KINGCOBRA",3,1,120,"preference"
"ssfOUT_120_1_3_KINGCOBRA.19",0.616824356287088,0.182940163534242,1.05070854903993,"ssf","mf.is","exp","unif",158,"ssfOUT_120_1_3_KINGCOBRA","KINGCOBRA",3,1,120,"preference"
"ssfOUT_120_1_3_KINGCOBRA.20",0.574543829587403,0.150850118644307,0.998237540530499,"ssf","mf.is","exp","unif",500,"ssfOUT_120_1_3_KINGCOBRA","KINGCOBRA",3,1,120,"preference"
"ssfOUT_120_1_3_KINGCOBRA.21",0.403267841388183,-0.0758701547039947,0.882405837480361,"ssf","mf.ss","gamma","vonmises",5,"ssfOUT_120_1_3_KINGCOBRA","KINGCOBRA",3,1,120,"no effect"
"ssfOUT_120_1_3_KINGCOBRA.22",0.538515319050509,0.103128128838536,0.973902509262482,"ssf","mf.ss","gamma","vonmises",15,"ssfOUT_120_1_3_KINGCOBRA","KINGCOBRA",3,1,120,"preference"
"ssfOUT_120_1_3_KINGCOBRA.23",0.533322254147669,0.108938615901664,0.957705892393674,"ssf","mf.ss","gamma","vonmises",50,"ssfOUT_120_1_3_KINGCOBRA","KINGCOBRA",3,1,120,"preference"
"ssfOUT_120_1_3_KINGCOBRA.24",0.533694333654557,0.115985632419613,0.9514030348895,"ssf","mf.ss","gamma","vonmises",158,"ssfOUT_120_1_3_KINGCOBRA","KINGCOBRA",3,1,120,"preference"
"ssfOUT_120_1_3_KINGCOBRA.25",0.52692933041201,0.105489209500208,0.948369451323811,"ssf","mf.ss","gamma","vonmises",500,"ssfOUT_120_1_3_KINGCOBRA","KINGCOBRA",3,1,120,"preference"
"ssfOUT_120_1_3_KINGCOBRA.26",0.532769572612043,0.047632537923338,1.01790660730075,"ssf","mf.ss","gamma","unif",5,"ssfOUT_120_1_3_KINGCOBRA","KINGCOBRA",3,1,120,"preference"
"ssfOUT_120_1_3_KINGCOBRA.27",0.589687042673544,0.148743038910089,1.030631046437,"ssf","mf.ss","gamma","unif",15,"ssfOUT_120_1_3_KINGCOBRA","KINGCOBRA",3,1,120,"preference"
"ssfOUT_120_1_3_KINGCOBRA.28",0.552203209857617,0.125336935698642,0.979069484016591,"ssf","mf.ss","gamma","unif",50,"ssfOUT_120_1_3_KINGCOBRA","KINGCOBRA",3,1,120,"preference"
"ssfOUT_120_1_3_KINGCOBRA.29",0.460309583167726,0.0367716145418153,0.883847551793636,"ssf","mf.ss","gamma","unif",158,"ssfOUT_120_1_3_KINGCOBRA","KINGCOBRA",3,1,120,"preference"
"ssfOUT_120_1_3_KINGCOBRA.30",0.537546000248746,0.116960219000558,0.958131781496933,"ssf","mf.ss","gamma","unif",500,"ssfOUT_120_1_3_KINGCOBRA","KINGCOBRA",3,1,120,"preference"
"ssfOUT_120_1_3_KINGCOBRA.31",0.695323634109792,0.262251255077191,1.12839601314239,"ssf","mf.ss","exp","vonmises",5,"ssfOUT_120_1_3_KINGCOBRA","KINGCOBRA",3,1,120,"preference"
"ssfOUT_120_1_3_KINGCOBRA.32",0.389405076654244,-0.0372199581622408,0.816030111470729,"ssf","mf.ss","exp","vonmises",15,"ssfOUT_120_1_3_KINGCOBRA","KINGCOBRA",3,1,120,"no effect"
"ssfOUT_120_1_3_KINGCOBRA.33",0.314619046948425,-0.103326550186867,0.732564644083716,"ssf","mf.ss","exp","vonmises",50,"ssfOUT_120_1_3_KINGCOBRA","KINGCOBRA",3,1,120,"no effect"
"ssfOUT_120_1_3_KINGCOBRA.34",0.431401361902078,0.0184796160894914,0.844323107714664,"ssf","mf.ss","exp","vonmises",158,"ssfOUT_120_1_3_KINGCOBRA","KINGCOBRA",3,1,120,"preference"
"ssfOUT_120_1_3_KINGCOBRA.35",0.403224451688426,-0.00974435339125412,0.816193256768106,"ssf","mf.ss","exp","vonmises",500,"ssfOUT_120_1_3_KINGCOBRA","KINGCOBRA",3,1,120,"no effect"
"ssfOUT_120_1_3_KINGCOBRA.36",0.516665417032257,0.0671753734070233,0.96615546065749,"ssf","mf.ss","exp","unif",5,"ssfOUT_120_1_3_KINGCOBRA","KINGCOBRA",3,1,120,"preference"
"ssfOUT_120_1_3_KINGCOBRA.37",0.333029824493139,-0.0986220244699081,0.764681673456187,"ssf","mf.ss","exp","unif",15,"ssfOUT_120_1_3_KINGCOBRA","KINGCOBRA",3,1,120,"no effect"
"ssfOUT_120_1_3_KINGCOBRA.38",0.447955792940615,0.0332116441032043,0.862699941778026,"ssf","mf.ss","exp","unif",50,"ssfOUT_120_1_3_KINGCOBRA","KINGCOBRA",3,1,120,"preference"
"ssfOUT_120_1_3_KINGCOBRA.39",0.418007206413757,0.0061124503854722,0.829901962442043,"ssf","mf.ss","exp","unif",158,"ssfOUT_120_1_3_KINGCOBRA","KINGCOBRA",3,1,120,"preference"
"ssfOUT_120_1_3_KINGCOBRA.40",0.431604632350407,0.0189584385222054,0.844250826178609,"ssf","mf.ss","exp","unif",500,"ssfOUT_120_1_3_KINGCOBRA","KINGCOBRA",3,1,120,"preference"
"ssfOUT_120_1_4_BADGER.1",0.465202644612959,0.293743341339341,0.636661947886577,"ssf","mf.is","gamma","vonmises",5,"ssfOUT_120_1_4_BADGER","BADGER",4,1,120,"preference"
"ssfOUT_120_1_4_BADGER.2",0.469574003013787,0.306796854421853,0.632351151605721,"ssf","mf.is","gamma","vonmises",15,"ssfOUT_120_1_4_BADGER","BADGER",4,1,120,"preference"
"ssfOUT_120_1_4_BADGER.3",0.420057339923296,0.261911038221713,0.57820364162488,"ssf","mf.is","gamma","vonmises",50,"ssfOUT_120_1_4_BADGER","BADGER",4,1,120,"preference"
"ssfOUT_120_1_4_BADGER.4",0.438802683104981,0.281156471041411,0.596448895168551,"ssf","mf.is","gamma","vonmises",158,"ssfOUT_120_1_4_BADGER","BADGER",4,1,120,"preference"
"ssfOUT_120_1_4_BADGER.5",0.444700210620619,0.287169164555571,0.602231256685668,"ssf","mf.is","gamma","vonmises",500,"ssfOUT_120_1_4_BADGER","BADGER",4,1,120,"preference"
"ssfOUT_120_1_4_BADGER.6",0.524930211246959,0.35401352616925,0.695846896324668,"ssf","mf.is","gamma","unif",5,"ssfOUT_120_1_4_BADGER","BADGER",4,1,120,"preference"
"ssfOUT_120_1_4_BADGER.7",0.442148161723738,0.280432285814034,0.603864037633442,"ssf","mf.is","gamma","unif",15,"ssfOUT_120_1_4_BADGER","BADGER",4,1,120,"preference"
"ssfOUT_120_1_4_BADGER.8",0.435756298033379,0.277280642173924,0.594231953892835,"ssf","mf.is","gamma","unif",50,"ssfOUT_120_1_4_BADGER","BADGER",4,1,120,"preference"
"ssfOUT_120_1_4_BADGER.9",0.439955586746195,0.28220113380492,0.597710039687469,"ssf","mf.is","gamma","unif",158,"ssfOUT_120_1_4_BADGER","BADGER",4,1,120,"preference"
"ssfOUT_120_1_4_BADGER.10",0.443320876984322,0.285570366563333,0.60107138740531,"ssf","mf.is","gamma","unif",500,"ssfOUT_120_1_4_BADGER","BADGER",4,1,120,"preference"
"ssfOUT_120_1_4_BADGER.11",0.497436518383333,0.328674873158859,0.666198163607806,"ssf","mf.is","exp","vonmises",5,"ssfOUT_120_1_4_BADGER","BADGER",4,1,120,"preference"
"ssfOUT_120_1_4_BADGER.12",0.39918707617422,0.236289957330577,0.562084195017864,"ssf","mf.is","exp","vonmises",15,"ssfOUT_120_1_4_BADGER","BADGER",4,1,120,"preference"
"ssfOUT_120_1_4_BADGER.13",0.454756448673042,0.296042993031523,0.613469904314561,"ssf","mf.is","exp","vonmises",50,"ssfOUT_120_1_4_BADGER","BADGER",4,1,120,"preference"
"ssfOUT_120_1_4_BADGER.14",0.456179553966377,0.298033866214696,0.614325241718059,"ssf","mf.is","exp","vonmises",158,"ssfOUT_120_1_4_BADGER","BADGER",4,1,120,"preference"
"ssfOUT_120_1_4_BADGER.15",0.451347278089295,0.29388919956852,0.608805356610071,"ssf","mf.is","exp","vonmises",500,"ssfOUT_120_1_4_BADGER","BADGER",4,1,120,"preference"
"ssfOUT_120_1_4_BADGER.16",0.47241517877173,0.303107381484455,0.641722976059005,"ssf","mf.is","exp","unif",5,"ssfOUT_120_1_4_BADGER","BADGER",4,1,120,"preference"
"ssfOUT_120_1_4_BADGER.17",0.38650820799234,0.224908453200601,0.548107962784079,"ssf","mf.is","exp","unif",15,"ssfOUT_120_1_4_BADGER","BADGER",4,1,120,"preference"
"ssfOUT_120_1_4_BADGER.18",0.465879373044378,0.306819475252626,0.624939270836131,"ssf","mf.is","exp","unif",50,"ssfOUT_120_1_4_BADGER","BADGER",4,1,120,"preference"
"ssfOUT_120_1_4_BADGER.19",0.457455812580251,0.299277297866191,0.615634327294312,"ssf","mf.is","exp","unif",158,"ssfOUT_120_1_4_BADGER","BADGER",4,1,120,"preference"
"ssfOUT_120_1_4_BADGER.20",0.451189848813047,0.293343850164104,0.60903584746199,"ssf","mf.is","exp","unif",500,"ssfOUT_120_1_4_BADGER","BADGER",4,1,120,"preference"
"ssfOUT_120_1_4_BADGER.21",0.459877679483851,0.288406628327201,0.631348730640501,"ssf","mf.ss","gamma","vonmises",5,"ssfOUT_120_1_4_BADGER","BADGER",4,1,120,"preference"
"ssfOUT_120_1_4_BADGER.22",0.465717176354345,0.302677290402101,0.628757062306589,"ssf","mf.ss","gamma","vonmises",15,"ssfOUT_120_1_4_BADGER","BADGER",4,1,120,"preference"
"ssfOUT_120_1_4_BADGER.23",0.416100688309725,0.257766387222959,0.574434989396491,"ssf","mf.ss","gamma","vonmises",50,"ssfOUT_120_1_4_BADGER","BADGER",4,1,120,"preference"
"ssfOUT_120_1_4_BADGER.24",0.435507923790942,0.277625243136933,0.59339060444495,"ssf","mf.ss","gamma","vonmises",158,"ssfOUT_120_1_4_BADGER","BADGER",4,1,120,"preference"
"ssfOUT_120_1_4_BADGER.25",0.441455226135781,0.283666442510733,0.599244009760829,"ssf","mf.ss","gamma","vonmises",500,"ssfOUT_120_1_4_BADGER","BADGER",4,1,120,"preference"
"ssfOUT_120_1_4_BADGER.26",0.519739754522993,0.348710184796685,0.690769324249301,"ssf","mf.ss","gamma","unif",5,"ssfOUT_120_1_4_BADGER","BADGER",4,1,120,"preference"
"ssfOUT_120_1_4_BADGER.27",0.442760041064809,0.280833069665693,0.604687012463925,"ssf","mf.ss","gamma","unif",15,"ssfOUT_120_1_4_BADGER","BADGER",4,1,120,"preference"
"ssfOUT_120_1_4_BADGER.28",0.43722726592981,0.278566791604962,0.595887740254658,"ssf","mf.ss","gamma","unif",50,"ssfOUT_120_1_4_BADGER","BADGER",4,1,120,"preference"
"ssfOUT_120_1_4_BADGER.29",0.441641171707791,0.283669608588081,0.5996127348275,"ssf","mf.ss","gamma","unif",158,"ssfOUT_120_1_4_BADGER","BADGER",4,1,120,"preference"
"ssfOUT_120_1_4_BADGER.30",0.445427089436893,0.287449417302529,0.603404761571256,"ssf","mf.ss","gamma","unif",500,"ssfOUT_120_1_4_BADGER","BADGER",4,1,120,"preference"
"ssfOUT_120_1_4_BADGER.31",0.506513723665049,0.337761314395203,0.675266132934896,"ssf","mf.ss","exp","vonmises",5,"ssfOUT_120_1_4_BADGER","BADGER",4,1,120,"preference"
"ssfOUT_120_1_4_BADGER.32",0.397049255782075,0.23419465133977,0.55990386022438,"ssf","mf.ss","exp","vonmises",15,"ssfOUT_120_1_4_BADGER","BADGER",4,1,120,"preference"
"ssfOUT_120_1_4_BADGER.33",0.45276863931244,0.29416486939396,0.61137240923092,"ssf","mf.ss","exp","vonmises",50,"ssfOUT_120_1_4_BADGER","BADGER",4,1,120,"preference"
"ssfOUT_120_1_4_BADGER.34",0.454028540504981,0.296054127119564,0.612002953890399,"ssf","mf.ss","exp","vonmises",158,"ssfOUT_120_1_4_BADGER","BADGER",4,1,120,"preference"
"ssfOUT_120_1_4_BADGER.35",0.449833186187666,0.292509571707896,0.607156800667437,"ssf","mf.ss","exp","vonmises",500,"ssfOUT_120_1_4_BADGER","BADGER",4,1,120,"preference"
"ssfOUT_120_1_4_BADGER.36",0.481158823446794,0.312172328265337,0.65014531862825,"ssf","mf.ss","exp","unif",5,"ssfOUT_120_1_4_BADGER","BADGER",4,1,120,"preference"
"ssfOUT_120_1_4_BADGER.37",0.39082954010158,0.229272022959866,0.552387057243294,"ssf","mf.ss","exp","unif",15,"ssfOUT_120_1_4_BADGER","BADGER",4,1,120,"preference"
"ssfOUT_120_1_4_BADGER.38",0.46945104267031,0.310450094643159,0.62845199069746,"ssf","mf.ss","exp","unif",50,"ssfOUT_120_1_4_BADGER","BADGER",4,1,120,"preference"
"ssfOUT_120_1_4_BADGER.39",0.458947774109243,0.300976660523262,0.616918887695223,"ssf","mf.ss","exp","unif",158,"ssfOUT_120_1_4_BADGER","BADGER",4,1,120,"preference"
"ssfOUT_120_1_4_BADGER.40",0.452232203142394,0.29454032585666,0.609924080428127,"ssf","mf.ss","exp","unif",500,"ssfOUT_120_1_4_BADGER","BADGER",4,1,120,"preference"
"ssfOUT_120_1_4_VULTURE.1",0.188104620268437,0.0296435730570593,0.346565667479815,"ssf","mf.is","gamma","vonmises",5,"ssfOUT_120_1_4_VULTURE","VULTURE",4,1,120,"preference"
"ssfOUT_120_1_4_VULTURE.2",0.15662711782168,0.00627685563442887,0.306977380008932,"ssf","mf.is","gamma","vonmises",15,"ssfOUT_120_1_4_VULTURE","VULTURE",4,1,120,"preference"
"ssfOUT_120_1_4_VULTURE.3",0.14966123992763,0.00229550769800865,0.297026972157251,"ssf","mf.is","gamma","vonmises",50,"ssfOUT_120_1_4_VULTURE","VULTURE",4,1,120,"preference"
"ssfOUT_120_1_4_VULTURE.4",0.164956034523363,0.0186275296889284,0.311284539357798,"ssf","mf.is","gamma","vonmises",158,"ssfOUT_120_1_4_VULTURE","VULTURE",4,1,120,"preference"
"ssfOUT_120_1_4_VULTURE.5",0.148150929738977,0.00207420687548338,0.294227652602471,"ssf","mf.is","gamma","vonmises",500,"ssfOUT_120_1_4_VULTURE","VULTURE",4,1,120,"preference"
"ssfOUT_120_1_4_VULTURE.6",0.0940911816870952,-0.064896958814147,0.253079322188337,"ssf","mf.is","gamma","unif",5,"ssfOUT_120_1_4_VULTURE","VULTURE",4,1,120,"no effect"
"ssfOUT_120_1_4_VULTURE.7",0.212381561482657,0.0618830412476747,0.362880081717638,"ssf","mf.is","gamma","unif",15,"ssfOUT_120_1_4_VULTURE","VULTURE",4,1,120,"preference"
"ssfOUT_120_1_4_VULTURE.8",0.148169908251368,0.00139147737528592,0.294948339127449,"ssf","mf.is","gamma","unif",50,"ssfOUT_120_1_4_VULTURE","VULTURE",4,1,120,"preference"
"ssfOUT_120_1_4_VULTURE.9",0.15804253566067,0.0116896306966006,0.304395440624739,"ssf","mf.is","gamma","unif",158,"ssfOUT_120_1_4_VULTURE","VULTURE",4,1,120,"preference"
"ssfOUT_120_1_4_VULTURE.10",0.147309456695429,0.00137682699607652,0.293242086394782,"ssf","mf.is","gamma","unif",500,"ssfOUT_120_1_4_VULTURE","VULTURE",4,1,120,"preference"
"ssfOUT_120_1_4_VULTURE.11",0.0977232873533007,-0.0667027283471398,0.262149303053741,"ssf","mf.is","exp","vonmises",5,"ssfOUT_120_1_4_VULTURE","VULTURE",4,1,120,"no effect"
"ssfOUT_120_1_4_VULTURE.12",0.104533191826583,-0.0476533724980291,0.256719756151194,"ssf","mf.is","exp","vonmises",15,"ssfOUT_120_1_4_VULTURE","VULTURE",4,1,120,"no effect"
"ssfOUT_120_1_4_VULTURE.13",0.172334724032939,0.02473769493577,0.319931753130109,"ssf","mf.is","exp","vonmises",50,"ssfOUT_120_1_4_VULTURE","VULTURE",4,1,120,"preference"
"ssfOUT_120_1_4_VULTURE.14",0.132929868983134,-0.0133956734339331,0.279255411400202,"ssf","mf.is","exp","vonmises",158,"ssfOUT_120_1_4_VULTURE","VULTURE",4,1,120,"no effect"
"ssfOUT_120_1_4_VULTURE.15",0.14481878690267,-0.00116133795214904,0.290798911757488,"ssf","mf.is","exp","vonmises",500,"ssfOUT_120_1_4_VULTURE","VULTURE",4,1,120,"no effect"
"ssfOUT_120_1_4_VULTURE.16",0.153956788284594,-0.00712108668943659,0.315034663258624,"ssf","mf.is","exp","unif",5,"ssfOUT_120_1_4_VULTURE","VULTURE",4,1,120,"no effect"
"ssfOUT_120_1_4_VULTURE.17",0.179832845511813,0.0285543178249311,0.331111373198694,"ssf","mf.is","exp","unif",15,"ssfOUT_120_1_4_VULTURE","VULTURE",4,1,120,"preference"
"ssfOUT_120_1_4_VULTURE.18",0.192737015320202,0.0448793141249482,0.340594716515457,"ssf","mf.is","exp","unif",50,"ssfOUT_120_1_4_VULTURE","VULTURE",4,1,120,"preference"
"ssfOUT_120_1_4_VULTURE.19",0.158986176583781,0.0127544221862457,0.305217930981316,"ssf","mf.is","exp","unif",158,"ssfOUT_120_1_4_VULTURE","VULTURE",4,1,120,"preference"
"ssfOUT_120_1_4_VULTURE.20",0.133114513695847,-0.0128524279423037,0.279081455333998,"ssf","mf.is","exp","unif",500,"ssfOUT_120_1_4_VULTURE","VULTURE",4,1,120,"no effect"
"ssfOUT_120_1_4_VULTURE.21",0.187792157771606,0.0293206554627821,0.34626366008043,"ssf","mf.ss","gamma","vonmises",5,"ssfOUT_120_1_4_VULTURE","VULTURE",4,1,120,"preference"
"ssfOUT_120_1_4_VULTURE.22",0.155820129533684,0.00545974487410242,0.306180514193267,"ssf","mf.ss","gamma","vonmises",15,"ssfOUT_120_1_4_VULTURE","VULTURE",4,1,120,"preference"
"ssfOUT_120_1_4_VULTURE.23",0.148159265124314,0.000776485129597299,0.295542045119031,"ssf","mf.ss","gamma","vonmises",50,"ssfOUT_120_1_4_VULTURE","VULTURE",4,1,120,"preference"
"ssfOUT_120_1_4_VULTURE.24",0.163157569906604,0.0168189681959182,0.309496171617291,"ssf","mf.ss","gamma","vonmises",158,"ssfOUT_120_1_4_VULTURE","VULTURE",4,1,120,"preference"
"ssfOUT_120_1_4_VULTURE.25",0.146926717618763,0.000840139877369583,0.293013295360156,"ssf","mf.ss","gamma","vonmises",500,"ssfOUT_120_1_4_VULTURE","VULTURE",4,1,120,"preference"
"ssfOUT_120_1_4_VULTURE.26",0.102035985370679,-0.0564262760334808,0.260498246774839,"ssf","mf.ss","gamma","unif",5,"ssfOUT_120_1_4_VULTURE","VULTURE",4,1,120,"no effect"
"ssfOUT_120_1_4_VULTURE.27",0.227262492532809,0.0770339318415672,0.37749105322405,"ssf","mf.ss","gamma","unif",15,"ssfOUT_120_1_4_VULTURE","VULTURE",4,1,120,"preference"
"ssfOUT_120_1_4_VULTURE.28",0.15108703273008,0.00443659815271591,0.297737467307445,"ssf","mf.ss","gamma","unif",50,"ssfOUT_120_1_4_VULTURE","VULTURE",4,1,120,"preference"
"ssfOUT_120_1_4_VULTURE.29",0.165179378839375,0.0189999238767327,0.311358833802017,"ssf","mf.ss","gamma","unif",158,"ssfOUT_120_1_4_VULTURE","VULTURE",4,1,120,"preference"
"ssfOUT_120_1_4_VULTURE.30",0.155161576589825,0.00934977629921627,0.300973376880435,"ssf","mf.ss","gamma","unif",500,"ssfOUT_120_1_4_VULTURE","VULTURE",4,1,120,"preference"
"ssfOUT_120_1_4_VULTURE.31",0.1662276574133,0.00665865185455863,0.325796662972042,"ssf","mf.ss","exp","vonmises",5,"ssfOUT_120_1_4_VULTURE","VULTURE",4,1,120,"preference"
"ssfOUT_120_1_4_VULTURE.32",0.138983016493961,-0.012115615905288,0.29008164889321,"ssf","mf.ss","exp","vonmises",15,"ssfOUT_120_1_4_VULTURE","VULTURE",4,1,120,"no effect"
"ssfOUT_120_1_4_VULTURE.33",0.198627355800979,0.0504970007606375,0.346757710841321,"ssf","mf.ss","exp","vonmises",50,"ssfOUT_120_1_4_VULTURE","VULTURE",4,1,120,"preference"
"ssfOUT_120_1_4_VULTURE.34",0.172270137127426,0.0247637610373412,0.31977651321751,"ssf","mf.ss","exp","vonmises",158,"ssfOUT_120_1_4_VULTURE","VULTURE",4,1,120,"preference"
"ssfOUT_120_1_4_VULTURE.35",0.184443751261248,0.0374323621161204,0.331455140406376,"ssf","mf.ss","exp","vonmises",500,"ssfOUT_120_1_4_VULTURE","VULTURE",4,1,120,"preference"
"ssfOUT_120_1_4_VULTURE.36",0.247393547938706,0.0904136450609513,0.404373450816462,"ssf","mf.ss","exp","unif",5,"ssfOUT_120_1_4_VULTURE","VULTURE",4,1,120,"preference"
"ssfOUT_120_1_4_VULTURE.37",0.248028101312426,0.0974545576879041,0.398601644936947,"ssf","mf.ss","exp","unif",15,"ssfOUT_120_1_4_VULTURE","VULTURE",4,1,120,"preference"
"ssfOUT_120_1_4_VULTURE.38",0.229445537009298,0.0811569819702292,0.377734092048367,"ssf","mf.ss","exp","unif",50,"ssfOUT_120_1_4_VULTURE","VULTURE",4,1,120,"preference"
"ssfOUT_120_1_4_VULTURE.39",0.209876028034716,0.0626303106450472,0.357121745424385,"ssf","mf.ss","exp","unif",158,"ssfOUT_120_1_4_VULTURE","VULTURE",4,1,120,"preference"
"ssfOUT_120_1_4_VULTURE.40",0.187737216234111,0.0407203275559429,0.334754104912279,"ssf","mf.ss","exp","unif",500,"ssfOUT_120_1_4_VULTURE","VULTURE",4,1,120,"preference"
"ssfOUT_120_1_4_KINGCOBRA.1",0.771683113756127,0.460127426145888,1.08323880136637,"ssf","mf.is","gamma","vonmises",5,"ssfOUT_120_1_4_KINGCOBRA","KINGCOBRA",4,1,120,"preference"
"ssfOUT_120_1_4_KINGCOBRA.2",0.790850147454333,0.485302218215042,1.09639807669362,"ssf","mf.is","gamma","vonmises",15,"ssfOUT_120_1_4_KINGCOBRA","KINGCOBRA",4,1,120,"preference"
"ssfOUT_120_1_4_KINGCOBRA.3",0.724976626015733,0.425288016550337,1.02466523548113,"ssf","mf.is","gamma","vonmises",50,"ssfOUT_120_1_4_KINGCOBRA","KINGCOBRA",4,1,120,"preference"
"ssfOUT_120_1_4_KINGCOBRA.4",0.739564540946564,0.440586229188505,1.03854285270462,"ssf","mf.is","gamma","vonmises",158,"ssfOUT_120_1_4_KINGCOBRA","KINGCOBRA",4,1,120,"preference"
"ssfOUT_120_1_4_KINGCOBRA.5",0.74087283518243,0.442231662177096,1.03951400818776,"ssf","mf.is","gamma","vonmises",500,"ssfOUT_120_1_4_KINGCOBRA","KINGCOBRA",4,1,120,"preference"
"ssfOUT_120_1_4_KINGCOBRA.6",0.830913856588156,0.519528815276174,1.14229889790014,"ssf","mf.is","gamma","unif",5,"ssfOUT_120_1_4_KINGCOBRA","KINGCOBRA",4,1,120,"preference"
"ssfOUT_120_1_4_KINGCOBRA.7",0.675266069079394,0.372377726577191,0.978154411581597,"ssf","mf.is","gamma","unif",15,"ssfOUT_120_1_4_KINGCOBRA","KINGCOBRA",4,1,120,"preference"
"ssfOUT_120_1_4_KINGCOBRA.8",0.730770198650158,0.432031592765429,1.02950880453489,"ssf","mf.is","gamma","unif",50,"ssfOUT_120_1_4_KINGCOBRA","KINGCOBRA",4,1,120,"preference"
"ssfOUT_120_1_4_KINGCOBRA.9",0.728245519992657,0.429708933659248,1.02678210632607,"ssf","mf.is","gamma","unif",158,"ssfOUT_120_1_4_KINGCOBRA","KINGCOBRA",4,1,120,"preference"
"ssfOUT_120_1_4_KINGCOBRA.10",0.750578259984817,0.451798190572397,1.04935832939724,"ssf","mf.is","gamma","unif",500,"ssfOUT_120_1_4_KINGCOBRA","KINGCOBRA",4,1,120,"preference"
"ssfOUT_120_1_4_KINGCOBRA.11",0.595114309861707,0.267395662244831,0.922832957478584,"ssf","mf.is","exp","vonmises",5,"ssfOUT_120_1_4_KINGCOBRA","KINGCOBRA",4,1,120,"preference"
"ssfOUT_120_1_4_KINGCOBRA.12",0.87063919802563,0.567568231866625,1.17371016418464,"ssf","mf.is","exp","vonmises",15,"ssfOUT_120_1_4_KINGCOBRA","KINGCOBRA",4,1,120,"preference"
"ssfOUT_120_1_4_KINGCOBRA.13",0.770936718486464,0.465725644771674,1.07614779220125,"ssf","mf.is","exp","vonmises",50,"ssfOUT_120_1_4_KINGCOBRA","KINGCOBRA",4,1,120,"preference"
"ssfOUT_120_1_4_KINGCOBRA.14",0.793325111698491,0.492259836145218,1.09439038725177,"ssf","mf.is","exp","vonmises",158,"ssfOUT_120_1_4_KINGCOBRA","KINGCOBRA",4,1,120,"preference"
"ssfOUT_120_1_4_KINGCOBRA.15",0.694498604281898,0.395707196605364,0.993290011958431,"ssf","mf.is","exp","vonmises",500,"ssfOUT_120_1_4_KINGCOBRA","KINGCOBRA",4,1,120,"preference"
"ssfOUT_120_1_4_KINGCOBRA.16",0.827268435092169,0.507307582871436,1.1472292873129,"ssf","mf.is","exp","unif",5,"ssfOUT_120_1_4_KINGCOBRA","KINGCOBRA",4,1,120,"preference"
"ssfOUT_120_1_4_KINGCOBRA.17",0.854806036789461,0.54714884612858,1.16246322745034,"ssf","mf.is","exp","unif",15,"ssfOUT_120_1_4_KINGCOBRA","KINGCOBRA",4,1,120,"preference"
"ssfOUT_120_1_4_KINGCOBRA.18",0.795206578183685,0.490639280920413,1.09977387544696,"ssf","mf.is","exp","unif",50,"ssfOUT_120_1_4_KINGCOBRA","KINGCOBRA",4,1,120,"preference"
"ssfOUT_120_1_4_KINGCOBRA.19",0.729652315318718,0.430872755883235,1.0284318747542,"ssf","mf.is","exp","unif",158,"ssfOUT_120_1_4_KINGCOBRA","KINGCOBRA",4,1,120,"preference"
"ssfOUT_120_1_4_KINGCOBRA.20",0.781938987059392,0.479403260736809,1.08447471338197,"ssf","mf.is","exp","unif",500,"ssfOUT_120_1_4_KINGCOBRA","KINGCOBRA",4,1,120,"preference"
"ssfOUT_120_1_4_KINGCOBRA.21",0.75013386516018,0.439712043612248,1.06055568670811,"ssf","mf.ss","gamma","vonmises",5,"ssfOUT_120_1_4_KINGCOBRA","KINGCOBRA",4,1,120,"preference"
"ssfOUT_120_1_4_KINGCOBRA.22",0.776436418079382,0.471416356209848,1.08145647994892,"ssf","mf.ss","gamma","vonmises",15,"ssfOUT_120_1_4_KINGCOBRA","KINGCOBRA",4,1,120,"preference"
"ssfOUT_120_1_4_KINGCOBRA.23",0.725072022434147,0.425705933046725,1.02443811182157,"ssf","mf.ss","gamma","vonmises",50,"ssfOUT_120_1_4_KINGCOBRA","KINGCOBRA",4,1,120,"preference"
"ssfOUT_120_1_4_KINGCOBRA.24",0.736608202247156,0.437907945368384,1.03530845912593,"ssf","mf.ss","gamma","vonmises",158,"ssfOUT_120_1_4_KINGCOBRA","KINGCOBRA",4,1,120,"preference"
"ssfOUT_120_1_4_KINGCOBRA.25",0.736208906276066,0.43779621594962,1.03462159660251,"ssf","mf.ss","gamma","vonmises",500,"ssfOUT_120_1_4_KINGCOBRA","KINGCOBRA",4,1,120,"preference"
"ssfOUT_120_1_4_KINGCOBRA.26",0.835712217303151,0.525034596358538,1.14638983824776,"ssf","mf.ss","gamma","unif",5,"ssfOUT_120_1_4_KINGCOBRA","KINGCOBRA",4,1,120,"preference"
"ssfOUT_120_1_4_KINGCOBRA.27",0.663857001101971,0.36144797726172,0.966266024942222,"ssf","mf.ss","gamma","unif",15,"ssfOUT_120_1_4_KINGCOBRA","KINGCOBRA",4,1,120,"preference"
"ssfOUT_120_1_4_KINGCOBRA.28",0.731389332779463,0.433075348119075,1.02970331743985,"ssf","mf.ss","gamma","unif",50,"ssfOUT_120_1_4_KINGCOBRA","KINGCOBRA",4,1,120,"preference"
"ssfOUT_120_1_4_KINGCOBRA.29",0.723773735126329,0.425464352938201,1.02208311731446,"ssf","mf.ss","gamma","unif",158,"ssfOUT_120_1_4_KINGCOBRA","KINGCOBRA",4,1,120,"preference"
"ssfOUT_120_1_4_KINGCOBRA.30",0.748679948090749,0.450220335867494,1.047139560314,"ssf","mf.ss","gamma","unif",500,"ssfOUT_120_1_4_KINGCOBRA","KINGCOBRA",4,1,120,"preference"
"ssfOUT_120_1_4_KINGCOBRA.31",0.520143045085857,0.205152207366048,0.835133882805666,"ssf","mf.ss","exp","vonmises",5,"ssfOUT_120_1_4_KINGCOBRA","KINGCOBRA",4,1,120,"preference"
"ssfOUT_120_1_4_KINGCOBRA.32",0.762086040590479,0.463095358412918,1.06107672276804,"ssf","mf.ss","exp","vonmises",15,"ssfOUT_120_1_4_KINGCOBRA","KINGCOBRA",4,1,120,"preference"
"ssfOUT_120_1_4_KINGCOBRA.33",0.662916665368479,0.366503039622917,0.959330291114042,"ssf","mf.ss","exp","vonmises",50,"ssfOUT_120_1_4_KINGCOBRA","KINGCOBRA",4,1,120,"preference"
"ssfOUT_120_1_4_KINGCOBRA.34",0.66527458791696,0.370089230045283,0.960459945788637,"ssf","mf.ss","exp","vonmises",158,"ssfOUT_120_1_4_KINGCOBRA","KINGCOBRA",4,1,120,"preference"
"ssfOUT_120_1_4_KINGCOBRA.35",0.664587476502002,0.370197983466685,0.958976969537318,"ssf","mf.ss","exp","vonmises",500,"ssfOUT_120_1_4_KINGCOBRA","KINGCOBRA",4,1,120,"preference"
"ssfOUT_120_1_4_KINGCOBRA.36",0.650971702471492,0.34300134720845,0.958942057734535,"ssf","mf.ss","exp","unif",5,"ssfOUT_120_1_4_KINGCOBRA","KINGCOBRA",4,1,120,"preference"
"ssfOUT_120_1_4_KINGCOBRA.37",0.668487443802516,0.369606267047962,0.967368620557071,"ssf","mf.ss","exp","unif",15,"ssfOUT_120_1_4_KINGCOBRA","KINGCOBRA",4,1,120,"preference"
"ssfOUT_120_1_4_KINGCOBRA.38",0.662349157264138,0.366951222561168,0.957747091967107,"ssf","mf.ss","exp","unif",50,"ssfOUT_120_1_4_KINGCOBRA","KINGCOBRA",4,1,120,"preference"
"ssfOUT_120_1_4_KINGCOBRA.39",0.690176925045986,0.395529683158751,0.984824166933222,"ssf","mf.ss","exp","unif",158,"ssfOUT_120_1_4_KINGCOBRA","KINGCOBRA",4,1,120,"preference"
"ssfOUT_120_1_4_KINGCOBRA.40",0.668090622439691,0.373628895198227,0.962552349681155,"ssf","mf.ss","exp","unif",500,"ssfOUT_120_1_4_KINGCOBRA","KINGCOBRA",4,1,120,"preference"
"ssfOUT_120_2_1_BADGER.1",0.872877972517608,0.505557247281895,1.24019869775332,"ssf","mf.is","gamma","vonmises",5,"ssfOUT_120_2_1_BADGER","BADGER",1,0.5,120,"preference"
"ssfOUT_120_2_1_BADGER.2",0.623033157820908,0.2615218954731,0.984544420168715,"ssf","mf.is","gamma","vonmises",15,"ssfOUT_120_2_1_BADGER","BADGER",1,0.5,120,"preference"
"ssfOUT_120_2_1_BADGER.3",0.698947649358971,0.352480637590111,1.04541466112783,"ssf","mf.is","gamma","vonmises",50,"ssfOUT_120_2_1_BADGER","BADGER",1,0.5,120,"preference"
"ssfOUT_120_2_1_BADGER.4",0.704226988829396,0.358111287088087,1.0503426905707,"ssf","mf.is","gamma","vonmises",158,"ssfOUT_120_2_1_BADGER","BADGER",1,0.5,120,"preference"
"ssfOUT_120_2_1_BADGER.5",0.682924580298862,0.33695703826781,1.02889212232991,"ssf","mf.is","gamma","vonmises",500,"ssfOUT_120_2_1_BADGER","BADGER",1,0.5,120,"preference"
"ssfOUT_120_2_1_BADGER.6",0.641734460279591,0.276874920567997,1.00659399999118,"ssf","mf.is","gamma","unif",5,"ssfOUT_120_2_1_BADGER","BADGER",1,0.5,120,"preference"
"ssfOUT_120_2_1_BADGER.7",0.761824725250538,0.410767912363864,1.11288153813721,"ssf","mf.is","gamma","unif",15,"ssfOUT_120_2_1_BADGER","BADGER",1,0.5,120,"preference"
"ssfOUT_120_2_1_BADGER.8",0.650498289470508,0.302161533868119,0.998835045072897,"ssf","mf.is","gamma","unif",50,"ssfOUT_120_2_1_BADGER","BADGER",1,0.5,120,"preference"
"ssfOUT_120_2_1_BADGER.9",0.673341097067669,0.326298221521671,1.02038397261367,"ssf","mf.is","gamma","unif",158,"ssfOUT_120_2_1_BADGER","BADGER",1,0.5,120,"preference"
"ssfOUT_120_2_1_BADGER.10",0.678736545614075,0.333218803458504,1.02425428776965,"ssf","mf.is","gamma","unif",500,"ssfOUT_120_2_1_BADGER","BADGER",1,0.5,120,"preference"
"ssfOUT_120_2_1_BADGER.11",0.400534716862696,0.0251569609994954,0.775912472725896,"ssf","mf.is","exp","vonmises",5,"ssfOUT_120_2_1_BADGER","BADGER",1,0.5,120,"preference"
"ssfOUT_120_2_1_BADGER.12",0.696451379350546,0.341698593795803,1.05120416490529,"ssf","mf.is","exp","vonmises",15,"ssfOUT_120_2_1_BADGER","BADGER",1,0.5,120,"preference"
"ssfOUT_120_2_1_BADGER.13",0.752235250559481,0.403965567709143,1.10050493340982,"ssf","mf.is","exp","vonmises",50,"ssfOUT_120_2_1_BADGER","BADGER",1,0.5,120,"preference"
"ssfOUT_120_2_1_BADGER.14",0.669903883404909,0.324938462698287,1.01486930411153,"ssf","mf.is","exp","vonmises",158,"ssfOUT_120_2_1_BADGER","BADGER",1,0.5,120,"preference"
"ssfOUT_120_2_1_BADGER.15",0.704625364178563,0.359349346998989,1.04990138135814,"ssf","mf.is","exp","vonmises",500,"ssfOUT_120_2_1_BADGER","BADGER",1,0.5,120,"preference"
"ssfOUT_120_2_1_BADGER.16",0.689558490308432,0.324249403178428,1.05486757743844,"ssf","mf.is","exp","unif",5,"ssfOUT_120_2_1_BADGER","BADGER",1,0.5,120,"preference"
"ssfOUT_120_2_1_BADGER.17",0.711831477304637,0.354998623956598,1.06866433065268,"ssf","mf.is","exp","unif",15,"ssfOUT_120_2_1_BADGER","BADGER",1,0.5,120,"preference"
"ssfOUT_120_2_1_BADGER.18",0.693660641944575,0.347430538846746,1.0398907450424,"ssf","mf.is","exp","unif",50,"ssfOUT_120_2_1_BADGER","BADGER",1,0.5,120,"preference"
"ssfOUT_120_2_1_BADGER.19",0.672060566094071,0.325882412347691,1.01823871984045,"ssf","mf.is","exp","unif",158,"ssfOUT_120_2_1_BADGER","BADGER",1,0.5,120,"preference"
"ssfOUT_120_2_1_BADGER.20",0.680437888009945,0.33524657575415,1.02562920026574,"ssf","mf.is","exp","unif",500,"ssfOUT_120_2_1_BADGER","BADGER",1,0.5,120,"preference"
"ssfOUT_120_2_1_BADGER.21",0.844354186538607,0.477324394666198,1.21138397841102,"ssf","mf.ss","gamma","vonmises",5,"ssfOUT_120_2_1_BADGER","BADGER",1,0.5,120,"preference"
"ssfOUT_120_2_1_BADGER.22",0.611398107406172,0.251773631199387,0.971022583612958,"ssf","mf.ss","gamma","vonmises",15,"ssfOUT_120_2_1_BADGER","BADGER",1,0.5,120,"preference"
"ssfOUT_120_2_1_BADGER.23",0.681497881901797,0.334890907966072,1.02810485583752,"ssf","mf.ss","gamma","vonmises",50,"ssfOUT_120_2_1_BADGER","BADGER",1,0.5,120,"preference"
"ssfOUT_120_2_1_BADGER.24",0.682319731787248,0.33634264311858,1.02829682045592,"ssf","mf.ss","gamma","vonmises",158,"ssfOUT_120_2_1_BADGER","BADGER",1,0.5,120,"preference"
"ssfOUT_120_2_1_BADGER.25",0.655949294460879,0.310061111624509,1.00183747729725,"ssf","mf.ss","gamma","vonmises",500,"ssfOUT_120_2_1_BADGER","BADGER",1,0.5,120,"preference"
"ssfOUT_120_2_1_BADGER.26",0.60700760331368,0.243140269698613,0.970874936928747,"ssf","mf.ss","gamma","unif",5,"ssfOUT_120_2_1_BADGER","BADGER",1,0.5,120,"preference"
"ssfOUT_120_2_1_BADGER.27",0.736704485962312,0.386047286536408,1.08736168538822,"ssf","mf.ss","gamma","unif",15,"ssfOUT_120_2_1_BADGER","BADGER",1,0.5,120,"preference"
"ssfOUT_120_2_1_BADGER.28",0.62958035020867,0.281361741652954,0.977798958764387,"ssf","mf.ss","gamma","unif",50,"ssfOUT_120_2_1_BADGER","BADGER",1,0.5,120,"preference"
"ssfOUT_120_2_1_BADGER.29",0.661224991157936,0.314378594463324,1.00807138785255,"ssf","mf.ss","gamma","unif",158,"ssfOUT_120_2_1_BADGER","BADGER",1,0.5,120,"preference"
"ssfOUT_120_2_1_BADGER.30",0.668798408208534,0.323415467909269,1.0141813485078,"ssf","mf.ss","gamma","unif",500,"ssfOUT_120_2_1_BADGER","BADGER",1,0.5,120,"preference"
"ssfOUT_120_2_1_BADGER.31",0.366575901286968,-0.00744482324618945,0.740596625820125,"ssf","mf.ss","exp","vonmises",5,"ssfOUT_120_2_1_BADGER","BADGER",1,0.5,120,"no effect"
"ssfOUT_120_2_1_BADGER.32",0.663600394842486,0.309175169935529,1.01802561974944,"ssf","mf.ss","exp","vonmises",15,"ssfOUT_120_2_1_BADGER","BADGER",1,0.5,120,"preference"
"ssfOUT_120_2_1_BADGER.33",0.715609821534053,0.3679007663174,1.06331887675071,"ssf","mf.ss","exp","vonmises",50,"ssfOUT_120_2_1_BADGER","BADGER",1,0.5,120,"preference"
"ssfOUT_120_2_1_BADGER.34",0.646422850716214,0.30163129610594,0.991214405326489,"ssf","mf.ss","exp","vonmises",158,"ssfOUT_120_2_1_BADGER","BADGER",1,0.5,120,"preference"
"ssfOUT_120_2_1_BADGER.35",0.670809136663412,0.325895172152507,1.01572310117432,"ssf","mf.ss","exp","vonmises",500,"ssfOUT_120_2_1_BADGER","BADGER",1,0.5,120,"preference"
"ssfOUT_120_2_1_BADGER.36",0.685079878257815,0.321065390931739,1.04909436558389,"ssf","mf.ss","exp","unif",5,"ssfOUT_120_2_1_BADGER","BADGER",1,0.5,120,"preference"
"ssfOUT_120_2_1_BADGER.37",0.685196730146462,0.329462926256767,1.04093053403616,"ssf","mf.ss","exp","unif",15,"ssfOUT_120_2_1_BADGER","BADGER",1,0.5,120,"preference"
"ssfOUT_120_2_1_BADGER.38",0.677791900315857,0.331743430489238,1.02384037014248,"ssf","mf.ss","exp","unif",50,"ssfOUT_120_2_1_BADGER","BADGER",1,0.5,120,"preference"
"ssfOUT_120_2_1_BADGER.39",0.654257852561537,0.308388363375085,1.00012734174799,"ssf","mf.ss","exp","unif",158,"ssfOUT_120_2_1_BADGER","BADGER",1,0.5,120,"preference"
"ssfOUT_120_2_1_BADGER.40",0.659812876642322,0.315123222900752,1.00450253038389,"ssf","mf.ss","exp","unif",500,"ssfOUT_120_2_1_BADGER","BADGER",1,0.5,120,"preference"
"ssfOUT_120_2_1_VULTURE.1",-0.00271840588862257,-0.274052140930694,0.268615329153449,"ssf","mf.is","gamma","vonmises",5,"ssfOUT_120_2_1_VULTURE","VULTURE",1,0.5,120,"no effect"
"ssfOUT_120_2_1_VULTURE.2",0.178219449780788,-0.0741935581313128,0.430632457692889,"ssf","mf.is","gamma","vonmises",15,"ssfOUT_120_2_1_VULTURE","VULTURE",1,0.5,120,"no effect"
"ssfOUT_120_2_1_VULTURE.3",0.0929631767408169,-0.155122091455189,0.341048444936823,"ssf","mf.is","gamma","vonmises",50,"ssfOUT_120_2_1_VULTURE","VULTURE",1,0.5,120,"no effect"
"ssfOUT_120_2_1_VULTURE.4",0.0790919125444575,-0.16652844144878,0.324712266537695,"ssf","mf.is","gamma","vonmises",158,"ssfOUT_120_2_1_VULTURE","VULTURE",1,0.5,120,"no effect"
"ssfOUT_120_2_1_VULTURE.5",0.0671201540393388,-0.177857025655156,0.312097333733833,"ssf","mf.is","gamma","vonmises",500,"ssfOUT_120_2_1_VULTURE","VULTURE",1,0.5,120,"no effect"
"ssfOUT_120_2_1_VULTURE.6",-0.129587396589005,-0.400963274411718,0.141788481233707,"ssf","mf.is","gamma","unif",5,"ssfOUT_120_2_1_VULTURE","VULTURE",1,0.5,120,"no effect"
"ssfOUT_120_2_1_VULTURE.7",0.105010732817867,-0.147050183179246,0.35707164881498,"ssf","mf.is","gamma","unif",15,"ssfOUT_120_2_1_VULTURE","VULTURE",1,0.5,120,"no effect"
"ssfOUT_120_2_1_VULTURE.8",0.104264297180087,-0.143577292700334,0.352105887060507,"ssf","mf.is","gamma","unif",50,"ssfOUT_120_2_1_VULTURE","VULTURE",1,0.5,120,"no effect"
"ssfOUT_120_2_1_VULTURE.9",0.0696375024507129,-0.175973052607302,0.315248057508727,"ssf","mf.is","gamma","unif",158,"ssfOUT_120_2_1_VULTURE","VULTURE",1,0.5,120,"no effect"
"ssfOUT_120_2_1_VULTURE.10",0.0889362474910723,-0.156063189362903,0.333935684345047,"ssf","mf.is","gamma","unif",500,"ssfOUT_120_2_1_VULTURE","VULTURE",1,0.5,120,"no effect"
"ssfOUT_120_2_1_VULTURE.11",0.0759345721385516,-0.198097575107337,0.34996671938444,"ssf","mf.is","exp","vonmises",5,"ssfOUT_120_2_1_VULTURE","VULTURE",1,0.5,120,"no effect"
"ssfOUT_120_2_1_VULTURE.12",0.00312334135089301,-0.252068839003666,0.258315521705452,"ssf","mf.is","exp","vonmises",15,"ssfOUT_120_2_1_VULTURE","VULTURE",1,0.5,120,"no effect"
"ssfOUT_120_2_1_VULTURE.13",0.120228867201437,-0.127637687245045,0.368095421647919,"ssf","mf.is","exp","vonmises",50,"ssfOUT_120_2_1_VULTURE","VULTURE",1,0.5,120,"no effect"
"ssfOUT_120_2_1_VULTURE.14",0.0908698861544906,-0.1545406027033,0.336280375012281,"ssf","mf.is","exp","vonmises",158,"ssfOUT_120_2_1_VULTURE","VULTURE",1,0.5,120,"no effect"
"ssfOUT_120_2_1_VULTURE.15",0.109888648383378,-0.135293514807392,0.355070811574148,"ssf","mf.is","exp","vonmises",500,"ssfOUT_120_2_1_VULTURE","VULTURE",1,0.5,120,"no effect"
"ssfOUT_120_2_1_VULTURE.16",0.115620822000646,-0.152824232774719,0.384065876776011,"ssf","mf.is","exp","unif",5,"ssfOUT_120_2_1_VULTURE","VULTURE",1,0.5,120,"no effect"
"ssfOUT_120_2_1_VULTURE.17",0.0885779172402015,-0.166306889658105,0.343462724138508,"ssf","mf.is","exp","unif",15,"ssfOUT_120_2_1_VULTURE","VULTURE",1,0.5,120,"no effect"
"ssfOUT_120_2_1_VULTURE.18",0.114195371790406,-0.133411134403612,0.361801877984423,"ssf","mf.is","exp","unif",50,"ssfOUT_120_2_1_VULTURE","VULTURE",1,0.5,120,"no effect"
"ssfOUT_120_2_1_VULTURE.19",0.110870282523412,-0.135010276421586,0.35675084146841,"ssf","mf.is","exp","unif",158,"ssfOUT_120_2_1_VULTURE","VULTURE",1,0.5,120,"no effect"
"ssfOUT_120_2_1_VULTURE.20",0.0884059470106722,-0.156567327477224,0.333379221498569,"ssf","mf.is","exp","unif",500,"ssfOUT_120_2_1_VULTURE","VULTURE",1,0.5,120,"no effect"
"ssfOUT_120_2_1_VULTURE.21",-0.00113820208535736,-0.272324414878967,0.270048010708252,"ssf","mf.ss","gamma","vonmises",5,"ssfOUT_120_2_1_VULTURE","VULTURE",1,0.5,120,"no effect"
"ssfOUT_120_2_1_VULTURE.22",0.174252854852556,-0.0781570031249112,0.426662712830024,"ssf","mf.ss","gamma","vonmises",15,"ssfOUT_120_2_1_VULTURE","VULTURE",1,0.5,120,"no effect"
"ssfOUT_120_2_1_VULTURE.23",0.0897066329570878,-0.158338220472599,0.337751486386775,"ssf","mf.ss","gamma","vonmises",50,"ssfOUT_120_2_1_VULTURE","VULTURE",1,0.5,120,"no effect"
"ssfOUT_120_2_1_VULTURE.24",0.0753262857824018,-0.170324952646961,0.320977524211765,"ssf","mf.ss","gamma","vonmises",158,"ssfOUT_120_2_1_VULTURE","VULTURE",1,0.5,120,"no effect"
"ssfOUT_120_2_1_VULTURE.25",0.0636557688229508,-0.18133796229792,0.308649499943822,"ssf","mf.ss","gamma","vonmises",500,"ssfOUT_120_2_1_VULTURE","VULTURE",1,0.5,120,"no effect"
"ssfOUT_120_2_1_VULTURE.26",-0.131922626238713,-0.403094937562876,0.13924968508545,"ssf","mf.ss","gamma","unif",5,"ssfOUT_120_2_1_VULTURE","VULTURE",1,0.5,120,"no effect"
"ssfOUT_120_2_1_VULTURE.27",0.104614391899975,-0.147339091814756,0.356567875614706,"ssf","mf.ss","gamma","unif",15,"ssfOUT_120_2_1_VULTURE","VULTURE",1,0.5,120,"no effect"
"ssfOUT_120_2_1_VULTURE.28",0.103474355559275,-0.144354432705282,0.351303143823833,"ssf","mf.ss","gamma","unif",50,"ssfOUT_120_2_1_VULTURE","VULTURE",1,0.5,120,"no effect"
"ssfOUT_120_2_1_VULTURE.29",0.0665866477076163,-0.179016137228077,0.312189432643309,"ssf","mf.ss","gamma","unif",158,"ssfOUT_120_2_1_VULTURE","VULTURE",1,0.5,120,"no effect"
"ssfOUT_120_2_1_VULTURE.30",0.086288014119608,-0.158727630532788,0.331303658772004,"ssf","mf.ss","gamma","unif",500,"ssfOUT_120_2_1_VULTURE","VULTURE",1,0.5,120,"no effect"
"ssfOUT_120_2_1_VULTURE.31",0.124191193324352,-0.144026005411453,0.392408392060157,"ssf","mf.ss","exp","vonmises",5,"ssfOUT_120_2_1_VULTURE","VULTURE",1,0.5,120,"no effect"
"ssfOUT_120_2_1_VULTURE.32",0.025541796157699,-0.228881091521973,0.279964683837371,"ssf","mf.ss","exp","vonmises",15,"ssfOUT_120_2_1_VULTURE","VULTURE",1,0.5,120,"no effect"
"ssfOUT_120_2_1_VULTURE.33",0.200945901793519,-0.0485554990150626,0.450447302602101,"ssf","mf.ss","exp","vonmises",50,"ssfOUT_120_2_1_VULTURE","VULTURE",1,0.5,120,"no effect"
"ssfOUT_120_2_1_VULTURE.34",0.177607519646456,-0.0694619948184099,0.424677034111322,"ssf","mf.ss","exp","vonmises",158,"ssfOUT_120_2_1_VULTURE","VULTURE",1,0.5,120,"no effect"
"ssfOUT_120_2_1_VULTURE.35",0.190792635115466,-0.0562748912342552,0.437860161465186,"ssf","mf.ss","exp","vonmises",500,"ssfOUT_120_2_1_VULTURE","VULTURE",1,0.5,120,"no effect"
"ssfOUT_120_2_1_VULTURE.36",0.203449068264317,-0.060703310557867,0.4676014470865,"ssf","mf.ss","exp","unif",5,"ssfOUT_120_2_1_VULTURE","VULTURE",1,0.5,120,"no effect"
"ssfOUT_120_2_1_VULTURE.37",0.116261454009433,-0.13812905677255,0.370651964791417,"ssf","mf.ss","exp","unif",15,"ssfOUT_120_2_1_VULTURE","VULTURE",1,0.5,120,"no effect"
"ssfOUT_120_2_1_VULTURE.38",0.211508967486956,-0.0370125699372858,0.460030504911197,"ssf","mf.ss","exp","unif",50,"ssfOUT_120_2_1_VULTURE","VULTURE",1,0.5,120,"no effect"
"ssfOUT_120_2_1_VULTURE.39",0.201980431198763,-0.0455756105653897,0.449536472962916,"ssf","mf.ss","exp","unif",158,"ssfOUT_120_2_1_VULTURE","VULTURE",1,0.5,120,"no effect"
"ssfOUT_120_2_1_VULTURE.40",0.177435295289583,-0.0692909535644759,0.424161544143642,"ssf","mf.ss","exp","unif",500,"ssfOUT_120_2_1_VULTURE","VULTURE",1,0.5,120,"no effect"
"ssfOUT_120_2_1_KINGCOBRA.1",0.247598234431036,-0.232389543824997,0.727586012687068,"ssf","mf.is","gamma","vonmises",5,"ssfOUT_120_2_1_KINGCOBRA","KINGCOBRA",1,0.5,120,"no effect"
"ssfOUT_120_2_1_KINGCOBRA.2",0.621692921712991,0.171978509832317,1.07140733359367,"ssf","mf.is","gamma","vonmises",15,"ssfOUT_120_2_1_KINGCOBRA","KINGCOBRA",1,0.5,120,"preference"
"ssfOUT_120_2_1_KINGCOBRA.3",0.637576764441554,0.202575194420392,1.07257833446272,"ssf","mf.is","gamma","vonmises",50,"ssfOUT_120_2_1_KINGCOBRA","KINGCOBRA",1,0.5,120,"preference"
"ssfOUT_120_2_1_KINGCOBRA.4",0.62857517850795,0.193747403974133,1.06340295304177,"ssf","mf.is","gamma","vonmises",158,"ssfOUT_120_2_1_KINGCOBRA","KINGCOBRA",1,0.5,120,"preference"
"ssfOUT_120_2_1_KINGCOBRA.5",0.628216266110311,0.190243817984776,1.06618871423585,"ssf","mf.is","gamma","vonmises",500,"ssfOUT_120_2_1_KINGCOBRA","KINGCOBRA",1,0.5,120,"preference"
"ssfOUT_120_2_1_KINGCOBRA.6",0.530014489025004,0.058586297034503,1.00144268101551,"ssf","mf.is","gamma","unif",5,"ssfOUT_120_2_1_KINGCOBRA","KINGCOBRA",1,0.5,120,"preference"
"ssfOUT_120_2_1_KINGCOBRA.7",0.599824086591441,0.158315661242003,1.04133251194088,"ssf","mf.is","gamma","unif",15,"ssfOUT_120_2_1_KINGCOBRA","KINGCOBRA",1,0.5,120,"preference"
"ssfOUT_120_2_1_KINGCOBRA.8",0.646354628553038,0.20704408919392,1.08566516791216,"ssf","mf.is","gamma","unif",50,"ssfOUT_120_2_1_KINGCOBRA","KINGCOBRA",1,0.5,120,"preference"
"ssfOUT_120_2_1_KINGCOBRA.9",0.660367745051586,0.22526335355573,1.09547213654744,"ssf","mf.is","gamma","unif",158,"ssfOUT_120_2_1_KINGCOBRA","KINGCOBRA",1,0.5,120,"preference"
"ssfOUT_120_2_1_KINGCOBRA.10",0.605996748053643,0.171473224718862,1.04052027138842,"ssf","mf.is","gamma","unif",500,"ssfOUT_120_2_1_KINGCOBRA","KINGCOBRA",1,0.5,120,"preference"
"ssfOUT_120_2_1_KINGCOBRA.11",0.408602810532759,-0.0899626475614033,0.907168268626922,"ssf","mf.is","exp","vonmises",5,"ssfOUT_120_2_1_KINGCOBRA","KINGCOBRA",1,0.5,120,"no effect"
"ssfOUT_120_2_1_KINGCOBRA.12",0.392097970528615,-0.064373011904468,0.848568952961698,"ssf","mf.is","exp","vonmises",15,"ssfOUT_120_2_1_KINGCOBRA","KINGCOBRA",1,0.5,120,"no effect"
"ssfOUT_120_2_1_KINGCOBRA.13",0.713228135392874,0.27349722284854,1.15295904793721,"ssf","mf.is","exp","vonmises",50,"ssfOUT_120_2_1_KINGCOBRA","KINGCOBRA",1,0.5,120,"preference"
"ssfOUT_120_2_1_KINGCOBRA.14",0.487718034532199,0.0452450166666744,0.930191052397723,"ssf","mf.is","exp","vonmises",158,"ssfOUT_120_2_1_KINGCOBRA","KINGCOBRA",1,0.5,120,"preference"
"ssfOUT_120_2_1_KINGCOBRA.15",0.697701892637654,0.247868011793363,1.14753577348195,"ssf","mf.is","exp","vonmises",500,"ssfOUT_120_2_1_KINGCOBRA","KINGCOBRA",1,0.5,120,"preference"
"ssfOUT_120_2_1_KINGCOBRA.16",-0.142809594816157,-0.621450093284708,0.335830903652394,"ssf","mf.is","exp","unif",5,"ssfOUT_120_2_1_KINGCOBRA","KINGCOBRA",1,0.5,120,"no effect"
"ssfOUT_120_2_1_KINGCOBRA.17",0.421072838971094,-0.0325249249004707,0.874670602842659,"ssf","mf.is","exp","unif",15,"ssfOUT_120_2_1_KINGCOBRA","KINGCOBRA",1,0.5,120,"no effect"
"ssfOUT_120_2_1_KINGCOBRA.18",0.632005345573701,0.193223900945534,1.07078679020187,"ssf","mf.is","exp","unif",50,"ssfOUT_120_2_1_KINGCOBRA","KINGCOBRA",1,0.5,120,"preference"
"ssfOUT_120_2_1_KINGCOBRA.19",0.681268011134474,0.237962269285255,1.12457375298369,"ssf","mf.is","exp","unif",158,"ssfOUT_120_2_1_KINGCOBRA","KINGCOBRA",1,0.5,120,"preference"
"ssfOUT_120_2_1_KINGCOBRA.20",0.615974918345271,0.180180636483191,1.05176920020735,"ssf","mf.is","exp","unif",500,"ssfOUT_120_2_1_KINGCOBRA","KINGCOBRA",1,0.5,120,"preference"
"ssfOUT_120_2_1_KINGCOBRA.21",0.385902064749732,-0.0890565241445668,0.860860653644031,"ssf","mf.ss","gamma","vonmises",5,"ssfOUT_120_2_1_KINGCOBRA","KINGCOBRA",1,0.5,120,"no effect"
"ssfOUT_120_2_1_KINGCOBRA.22",0.726161245851948,0.275200227112455,1.17712226459144,"ssf","mf.ss","gamma","vonmises",15,"ssfOUT_120_2_1_KINGCOBRA","KINGCOBRA",1,0.5,120,"preference"
"ssfOUT_120_2_1_KINGCOBRA.23",0.719154250331514,0.278065900872656,1.16024259979037,"ssf","mf.ss","gamma","vonmises",50,"ssfOUT_120_2_1_KINGCOBRA","KINGCOBRA",1,0.5,120,"preference"
"ssfOUT_120_2_1_KINGCOBRA.24",0.722620612218739,0.281011507582485,1.16422971685499,"ssf","mf.ss","gamma","vonmises",158,"ssfOUT_120_2_1_KINGCOBRA","KINGCOBRA",1,0.5,120,"preference"
"ssfOUT_120_2_1_KINGCOBRA.25",0.717570795327215,0.272381862466333,1.1627597281881,"ssf","mf.ss","gamma","vonmises",500,"ssfOUT_120_2_1_KINGCOBRA","KINGCOBRA",1,0.5,120,"preference"
"ssfOUT_120_2_1_KINGCOBRA.26",0.622552706112839,0.152904952739406,1.09220045948627,"ssf","mf.ss","gamma","unif",5,"ssfOUT_120_2_1_KINGCOBRA","KINGCOBRA",1,0.5,120,"preference"
"ssfOUT_120_2_1_KINGCOBRA.27",0.664821152237006,0.221691950885075,1.10795035358894,"ssf","mf.ss","gamma","unif",15,"ssfOUT_120_2_1_KINGCOBRA","KINGCOBRA",1,0.5,120,"preference"
"ssfOUT_120_2_1_KINGCOBRA.28",0.750570698353716,0.304622328408352,1.19651906829908,"ssf","mf.ss","gamma","unif",50,"ssfOUT_120_2_1_KINGCOBRA","KINGCOBRA",1,0.5,120,"preference"
"ssfOUT_120_2_1_KINGCOBRA.29",0.735248392873463,0.295774995249558,1.17472179049737,"ssf","mf.ss","gamma","unif",158,"ssfOUT_120_2_1_KINGCOBRA","KINGCOBRA",1,0.5,120,"preference"
"ssfOUT_120_2_1_KINGCOBRA.30",0.695882291182289,0.255551082347583,1.13621350001699,"ssf","mf.ss","gamma","unif",500,"ssfOUT_120_2_1_KINGCOBRA","KINGCOBRA",1,0.5,120,"preference"
"ssfOUT_120_2_1_KINGCOBRA.31",0.40436150708204,-0.0598891441321964,0.868612158296276,"ssf","mf.ss","exp","vonmises",5,"ssfOUT_120_2_1_KINGCOBRA","KINGCOBRA",1,0.5,120,"no effect"
"ssfOUT_120_2_1_KINGCOBRA.32",0.55009188251696,0.101573808543598,0.998609956490323,"ssf","mf.ss","exp","vonmises",15,"ssfOUT_120_2_1_KINGCOBRA","KINGCOBRA",1,0.5,120,"preference"
"ssfOUT_120_2_1_KINGCOBRA.33",0.604449075485955,0.170325519591819,1.03857263138009,"ssf","mf.ss","exp","vonmises",50,"ssfOUT_120_2_1_KINGCOBRA","KINGCOBRA",1,0.5,120,"preference"
"ssfOUT_120_2_1_KINGCOBRA.34",0.528919674441465,0.0932380349510089,0.964601313931922,"ssf","mf.ss","exp","vonmises",158,"ssfOUT_120_2_1_KINGCOBRA","KINGCOBRA",1,0.5,120,"preference"
"ssfOUT_120_2_1_KINGCOBRA.35",0.557161289714769,0.125581059228164,0.988741520201374,"ssf","mf.ss","exp","vonmises",500,"ssfOUT_120_2_1_KINGCOBRA","KINGCOBRA",1,0.5,120,"preference"
"ssfOUT_120_2_1_KINGCOBRA.36",0.51028934424646,0.0270427701503481,0.993535918342572,"ssf","mf.ss","exp","unif",5,"ssfOUT_120_2_1_KINGCOBRA","KINGCOBRA",1,0.5,120,"preference"
"ssfOUT_120_2_1_KINGCOBRA.37",0.450818270203067,0.0159682897203026,0.885668250685831,"ssf","mf.ss","exp","unif",15,"ssfOUT_120_2_1_KINGCOBRA","KINGCOBRA",1,0.5,120,"preference"
"ssfOUT_120_2_1_KINGCOBRA.38",0.618372656978273,0.189017591520281,1.04772772243627,"ssf","mf.ss","exp","unif",50,"ssfOUT_120_2_1_KINGCOBRA","KINGCOBRA",1,0.5,120,"preference"
"ssfOUT_120_2_1_KINGCOBRA.39",0.51911102277095,0.0888020428480493,0.94942000269385,"ssf","mf.ss","exp","unif",158,"ssfOUT_120_2_1_KINGCOBRA","KINGCOBRA",1,0.5,120,"preference"
"ssfOUT_120_2_1_KINGCOBRA.40",0.538774399445543,0.109260966286216,0.96828783260487,"ssf","mf.ss","exp","unif",500,"ssfOUT_120_2_1_KINGCOBRA","KINGCOBRA",1,0.5,120,"preference"
"ssfOUT_120_2_2_BADGER.1",0.711943474864037,0.461638986628429,0.962247963099645,"ssf","mf.is","gamma","vonmises",5,"ssfOUT_120_2_2_BADGER","BADGER",2,0.5,120,"preference"
"ssfOUT_120_2_2_BADGER.2",0.725529646931348,0.484321836283903,0.966737457578792,"ssf","mf.is","gamma","vonmises",15,"ssfOUT_120_2_2_BADGER","BADGER",2,0.5,120,"preference"
"ssfOUT_120_2_2_BADGER.3",0.779958412615055,0.542372462544998,1.01754436268511,"ssf","mf.is","gamma","vonmises",50,"ssfOUT_120_2_2_BADGER","BADGER",2,0.5,120,"preference"
"ssfOUT_120_2_2_BADGER.4",0.734042228829559,0.496957233054221,0.971127224604898,"ssf","mf.is","gamma","vonmises",158,"ssfOUT_120_2_2_BADGER","BADGER",2,0.5,120,"preference"
"ssfOUT_120_2_2_BADGER.5",0.761357427272542,0.525082438779351,0.997632415765733,"ssf","mf.is","gamma","vonmises",500,"ssfOUT_120_2_2_BADGER","BADGER",2,0.5,120,"preference"
"ssfOUT_120_2_2_BADGER.6",0.575623258889214,0.322414936369061,0.828831581409367,"ssf","mf.is","gamma","unif",5,"ssfOUT_120_2_2_BADGER","BADGER",2,0.5,120,"preference"
"ssfOUT_120_2_2_BADGER.7",0.807549199644787,0.565449832500357,1.04964856678922,"ssf","mf.is","gamma","unif",15,"ssfOUT_120_2_2_BADGER","BADGER",2,0.5,120,"preference"
"ssfOUT_120_2_2_BADGER.8",0.77038143656617,0.532996199775992,1.00776667335635,"ssf","mf.is","gamma","unif",50,"ssfOUT_120_2_2_BADGER","BADGER",2,0.5,120,"preference"
"ssfOUT_120_2_2_BADGER.9",0.749152824422469,0.512886437312754,0.985419211532184,"ssf","mf.is","gamma","unif",158,"ssfOUT_120_2_2_BADGER","BADGER",2,0.5,120,"preference"
"ssfOUT_120_2_2_BADGER.10",0.741969824226612,0.505969555883762,0.977970092569463,"ssf","mf.is","gamma","unif",500,"ssfOUT_120_2_2_BADGER","BADGER",2,0.5,120,"preference"
"ssfOUT_120_2_2_BADGER.11",0.625949612350379,0.374245747593507,0.877653477107251,"ssf","mf.is","exp","vonmises",5,"ssfOUT_120_2_2_BADGER","BADGER",2,0.5,120,"preference"
"ssfOUT_120_2_2_BADGER.12",0.659625049088425,0.417913139827443,0.901336958349407,"ssf","mf.is","exp","vonmises",15,"ssfOUT_120_2_2_BADGER","BADGER",2,0.5,120,"preference"
"ssfOUT_120_2_2_BADGER.13",0.796634212922113,0.558928481152397,1.03433994469183,"ssf","mf.is","exp","vonmises",50,"ssfOUT_120_2_2_BADGER","BADGER",2,0.5,120,"preference"
"ssfOUT_120_2_2_BADGER.14",0.752355306167178,0.515168046525456,0.989542565808901,"ssf","mf.is","exp","vonmises",158,"ssfOUT_120_2_2_BADGER","BADGER",2,0.5,120,"preference"
"ssfOUT_120_2_2_BADGER.15",0.734622732852525,0.497989241668523,0.971256224036526,"ssf","mf.is","exp","vonmises",500,"ssfOUT_120_2_2_BADGER","BADGER",2,0.5,120,"preference"
"ssfOUT_120_2_2_BADGER.16",0.60321028406591,0.351091689100592,0.855328879031228,"ssf","mf.is","exp","unif",5,"ssfOUT_120_2_2_BADGER","BADGER",2,0.5,120,"preference"
"ssfOUT_120_2_2_BADGER.17",0.802031851130327,0.561622621065441,1.04244108119521,"ssf","mf.is","exp","unif",15,"ssfOUT_120_2_2_BADGER","BADGER",2,0.5,120,"preference"
"ssfOUT_120_2_2_BADGER.18",0.70913612194212,0.471721636855616,0.946550607028623,"ssf","mf.is","exp","unif",50,"ssfOUT_120_2_2_BADGER","BADGER",2,0.5,120,"preference"
"ssfOUT_120_2_2_BADGER.19",0.736809692805301,0.500102074545822,0.97351731106478,"ssf","mf.is","exp","unif",158,"ssfOUT_120_2_2_BADGER","BADGER",2,0.5,120,"preference"
"ssfOUT_120_2_2_BADGER.20",0.741980556461138,0.505578377811621,0.978382735110654,"ssf","mf.is","exp","unif",500,"ssfOUT_120_2_2_BADGER","BADGER",2,0.5,120,"preference"
"ssfOUT_120_2_2_BADGER.21",0.701559240208074,0.4508499023798,0.952268578036349,"ssf","mf.ss","gamma","vonmises",5,"ssfOUT_120_2_2_BADGER","BADGER",2,0.5,120,"preference"
"ssfOUT_120_2_2_BADGER.22",0.704872428526344,0.463102953079713,0.946641903972975,"ssf","mf.ss","gamma","vonmises",15,"ssfOUT_120_2_2_BADGER","BADGER",2,0.5,120,"preference"
"ssfOUT_120_2_2_BADGER.23",0.761438545590852,0.52330291053565,0.999574180646054,"ssf","mf.ss","gamma","vonmises",50,"ssfOUT_120_2_2_BADGER","BADGER",2,0.5,120,"preference"
"ssfOUT_120_2_2_BADGER.24",0.718627623530148,0.481002295740035,0.95625295132026,"ssf","mf.ss","gamma","vonmises",158,"ssfOUT_120_2_2_BADGER","BADGER",2,0.5,120,"preference"
"ssfOUT_120_2_2_BADGER.25",0.745466977465182,0.508692196967767,0.982241757962597,"ssf","mf.ss","gamma","vonmises",500,"ssfOUT_120_2_2_BADGER","BADGER",2,0.5,120,"preference"
"ssfOUT_120_2_2_BADGER.26",0.558524253982563,0.305459318119342,0.811589189845784,"ssf","mf.ss","gamma","unif",5,"ssfOUT_120_2_2_BADGER","BADGER",2,0.5,120,"preference"
"ssfOUT_120_2_2_BADGER.27",0.786962341979111,0.544508556328741,1.02941612762948,"ssf","mf.ss","gamma","unif",15,"ssfOUT_120_2_2_BADGER","BADGER",2,0.5,120,"preference"
"ssfOUT_120_2_2_BADGER.28",0.760938640339581,0.523059372952889,0.998817907726273,"ssf","mf.ss","gamma","unif",50,"ssfOUT_120_2_2_BADGER","BADGER",2,0.5,120,"preference"
"ssfOUT_120_2_2_BADGER.29",0.735288153945158,0.498545975424819,0.972030332465496,"ssf","mf.ss","gamma","unif",158,"ssfOUT_120_2_2_BADGER","BADGER",2,0.5,120,"preference"
"ssfOUT_120_2_2_BADGER.30",0.729695727342929,0.493206428244531,0.966185026441328,"ssf","mf.ss","gamma","unif",500,"ssfOUT_120_2_2_BADGER","BADGER",2,0.5,120,"preference"
"ssfOUT_120_2_2_BADGER.31",0.642123322076436,0.390989101629208,0.893257542523664,"ssf","mf.ss","exp","vonmises",5,"ssfOUT_120_2_2_BADGER","BADGER",2,0.5,120,"preference"
"ssfOUT_120_2_2_BADGER.32",0.666872042369397,0.425247373414962,0.908496711323831,"ssf","mf.ss","exp","vonmises",15,"ssfOUT_120_2_2_BADGER","BADGER",2,0.5,120,"preference"
"ssfOUT_120_2_2_BADGER.33",0.799506964094687,0.562039438653179,1.03697448953619,"ssf","mf.ss","exp","vonmises",50,"ssfOUT_120_2_2_BADGER","BADGER",2,0.5,120,"preference"
"ssfOUT_120_2_2_BADGER.34",0.753716213971693,0.516857534496478,0.990574893446908,"ssf","mf.ss","exp","vonmises",158,"ssfOUT_120_2_2_BADGER","BADGER",2,0.5,120,"preference"
"ssfOUT_120_2_2_BADGER.35",0.735340076639611,0.49899226514864,0.971687888130582,"ssf","mf.ss","exp","vonmises",500,"ssfOUT_120_2_2_BADGER","BADGER",2,0.5,120,"preference"
"ssfOUT_120_2_2_BADGER.36",0.616658682549686,0.364555393543795,0.868761971555576,"ssf","mf.ss","exp","unif",5,"ssfOUT_120_2_2_BADGER","BADGER",2,0.5,120,"preference"
"ssfOUT_120_2_2_BADGER.37",0.805106700245304,0.565051240547392,1.04516215994322,"ssf","mf.ss","exp","unif",15,"ssfOUT_120_2_2_BADGER","BADGER",2,0.5,120,"preference"
"ssfOUT_120_2_2_BADGER.38",0.711071462649984,0.473897899117298,0.94824502618267,"ssf","mf.ss","exp","unif",50,"ssfOUT_120_2_2_BADGER","BADGER",2,0.5,120,"preference"
"ssfOUT_120_2_2_BADGER.39",0.738712810208811,0.50238020461909,0.975045415798532,"ssf","mf.ss","exp","unif",158,"ssfOUT_120_2_2_BADGER","BADGER",2,0.5,120,"preference"
"ssfOUT_120_2_2_BADGER.40",0.745723478657567,0.509591096934402,0.981855860380732,"ssf","mf.ss","exp","unif",500,"ssfOUT_120_2_2_BADGER","BADGER",2,0.5,120,"preference"
"ssfOUT_120_2_2_VULTURE.1",0.891740708818104,0.595723343221858,1.18775807441435,"ssf","mf.is","gamma","vonmises",5,"ssfOUT_120_2_2_VULTURE","VULTURE",2,0.5,120,"preference"
"ssfOUT_120_2_2_VULTURE.2",0.847652354460972,0.560870228721888,1.13443448020006,"ssf","mf.is","gamma","vonmises",15,"ssfOUT_120_2_2_VULTURE","VULTURE",2,0.5,120,"preference"
"ssfOUT_120_2_2_VULTURE.3",0.823117005805,0.539757725312361,1.10647628629764,"ssf","mf.is","gamma","vonmises",50,"ssfOUT_120_2_2_VULTURE","VULTURE",2,0.5,120,"preference"
"ssfOUT_120_2_2_VULTURE.4",0.842773324722529,0.56043201601718,1.12511463342788,"ssf","mf.is","gamma","vonmises",158,"ssfOUT_120_2_2_VULTURE","VULTURE",2,0.5,120,"preference"
"ssfOUT_120_2_2_VULTURE.5",0.829525358564429,0.547563780664893,1.11148693646396,"ssf","mf.is","gamma","vonmises",500,"ssfOUT_120_2_2_VULTURE","VULTURE",2,0.5,120,"preference"
"ssfOUT_120_2_2_VULTURE.6",0.735010150740832,0.436429954433064,1.0335903470486,"ssf","mf.is","gamma","unif",5,"ssfOUT_120_2_2_VULTURE","VULTURE",2,0.5,120,"preference"
"ssfOUT_120_2_2_VULTURE.7",0.915910660639964,0.629445925172126,1.2023753961078,"ssf","mf.is","gamma","unif",15,"ssfOUT_120_2_2_VULTURE","VULTURE",2,0.5,120,"preference"
"ssfOUT_120_2_2_VULTURE.8",0.821153059681826,0.537939923814869,1.10436619554878,"ssf","mf.is","gamma","unif",50,"ssfOUT_120_2_2_VULTURE","VULTURE",2,0.5,120,"preference"
"ssfOUT_120_2_2_VULTURE.9",0.839493452674813,0.557167657917119,1.12181924743251,"ssf","mf.is","gamma","unif",158,"ssfOUT_120_2_2_VULTURE","VULTURE",2,0.5,120,"preference"
"ssfOUT_120_2_2_VULTURE.10",0.842509064801753,0.560504580390613,1.12451354921289,"ssf","mf.is","gamma","unif",500,"ssfOUT_120_2_2_VULTURE","VULTURE",2,0.5,120,"preference"
"ssfOUT_120_2_2_VULTURE.11",0.787438341417649,0.488875510473199,1.0860011723621,"ssf","mf.is","exp","vonmises",5,"ssfOUT_120_2_2_VULTURE","VULTURE",2,0.5,120,"preference"
"ssfOUT_120_2_2_VULTURE.12",0.833017010613652,0.54481318165578,1.12122083957152,"ssf","mf.is","exp","vonmises",15,"ssfOUT_120_2_2_VULTURE","VULTURE",2,0.5,120,"preference"
"ssfOUT_120_2_2_VULTURE.13",0.875816726283064,0.592292710341325,1.1593407422248,"ssf","mf.is","exp","vonmises",50,"ssfOUT_120_2_2_VULTURE","VULTURE",2,0.5,120,"preference"
"ssfOUT_120_2_2_VULTURE.14",0.872699805348292,0.590331485861792,1.15506812483479,"ssf","mf.is","exp","vonmises",158,"ssfOUT_120_2_2_VULTURE","VULTURE",2,0.5,120,"preference"
"ssfOUT_120_2_2_VULTURE.15",0.827328685177786,0.545084637886462,1.10957273246911,"ssf","mf.is","exp","vonmises",500,"ssfOUT_120_2_2_VULTURE","VULTURE",2,0.5,120,"preference"
"ssfOUT_120_2_2_VULTURE.16",0.904392549012034,0.603243737093517,1.20554136093055,"ssf","mf.is","exp","unif",5,"ssfOUT_120_2_2_VULTURE","VULTURE",2,0.5,120,"preference"
"ssfOUT_120_2_2_VULTURE.17",0.79697006381407,0.509013346526619,1.08492678110152,"ssf","mf.is","exp","unif",15,"ssfOUT_120_2_2_VULTURE","VULTURE",2,0.5,120,"preference"
"ssfOUT_120_2_2_VULTURE.18",0.821286213151756,0.537681783326054,1.10489064297746,"ssf","mf.is","exp","unif",50,"ssfOUT_120_2_2_VULTURE","VULTURE",2,0.5,120,"preference"
"ssfOUT_120_2_2_VULTURE.19",0.880991313104927,0.59865718013227,1.16332544607759,"ssf","mf.is","exp","unif",158,"ssfOUT_120_2_2_VULTURE","VULTURE",2,0.5,120,"preference"
"ssfOUT_120_2_2_VULTURE.20",0.827869558557554,0.545818662679967,1.10992045443514,"ssf","mf.is","exp","unif",500,"ssfOUT_120_2_2_VULTURE","VULTURE",2,0.5,120,"preference"
"ssfOUT_120_2_2_VULTURE.21",0.890127993082048,0.594207786568646,1.18604819959545,"ssf","mf.ss","gamma","vonmises",5,"ssfOUT_120_2_2_VULTURE","VULTURE",2,0.5,120,"preference"
"ssfOUT_120_2_2_VULTURE.22",0.844968293017257,0.558269469603018,1.1316671164315,"ssf","mf.ss","gamma","vonmises",15,"ssfOUT_120_2_2_VULTURE","VULTURE",2,0.5,120,"preference"
"ssfOUT_120_2_2_VULTURE.23",0.819612662800914,0.536275009487267,1.10295031611456,"ssf","mf.ss","gamma","vonmises",50,"ssfOUT_120_2_2_VULTURE","VULTURE",2,0.5,120,"preference"
"ssfOUT_120_2_2_VULTURE.24",0.840030361663222,0.557712948545341,1.1223477747811,"ssf","mf.ss","gamma","vonmises",158,"ssfOUT_120_2_2_VULTURE","VULTURE",2,0.5,120,"preference"
"ssfOUT_120_2_2_VULTURE.25",0.827290845093652,0.545362294898354,1.10921939528895,"ssf","mf.ss","gamma","vonmises",500,"ssfOUT_120_2_2_VULTURE","VULTURE",2,0.5,120,"preference"
"ssfOUT_120_2_2_VULTURE.26",0.730856443032632,0.432506092391772,1.02920679367349,"ssf","mf.ss","gamma","unif",5,"ssfOUT_120_2_2_VULTURE","VULTURE",2,0.5,120,"preference"
"ssfOUT_120_2_2_VULTURE.27",0.917886007076889,0.631409747244254,1.20436226690952,"ssf","mf.ss","gamma","unif",15,"ssfOUT_120_2_2_VULTURE","VULTURE",2,0.5,120,"preference"
"ssfOUT_120_2_2_VULTURE.28",0.82755818119617,0.544387831431451,1.11072853096089,"ssf","mf.ss","gamma","unif",50,"ssfOUT_120_2_2_VULTURE","VULTURE",2,0.5,120,"preference"
"ssfOUT_120_2_2_VULTURE.29",0.846537705678319,0.564223398432293,1.12885201292434,"ssf","mf.ss","gamma","unif",158,"ssfOUT_120_2_2_VULTURE","VULTURE",2,0.5,120,"preference"
"ssfOUT_120_2_2_VULTURE.30",0.85006161039395,0.568085446993862,1.13203777379404,"ssf","mf.ss","gamma","unif",500,"ssfOUT_120_2_2_VULTURE","VULTURE",2,0.5,120,"preference"
"ssfOUT_120_2_2_VULTURE.31",0.717721833201685,0.422453687347898,1.01298997905547,"ssf","mf.ss","exp","vonmises",5,"ssfOUT_120_2_2_VULTURE","VULTURE",2,0.5,120,"preference"
"ssfOUT_120_2_2_VULTURE.32",0.790616977935154,0.503243718887187,1.07799023698312,"ssf","mf.ss","exp","vonmises",15,"ssfOUT_120_2_2_VULTURE","VULTURE",2,0.5,120,"preference"
"ssfOUT_120_2_2_VULTURE.33",0.851018723201496,0.566906890364222,1.13513055603877,"ssf","mf.ss","exp","vonmises",50,"ssfOUT_120_2_2_VULTURE","VULTURE",2,0.5,120,"preference"
"ssfOUT_120_2_2_VULTURE.34",0.853385072980863,0.569948913972881,1.13682123198884,"ssf","mf.ss","exp","vonmises",158,"ssfOUT_120_2_2_VULTURE","VULTURE",2,0.5,120,"preference"
"ssfOUT_120_2_2_VULTURE.35",0.805547201022134,0.522378558254169,1.0887158437901,"ssf","mf.ss","exp","vonmises",500,"ssfOUT_120_2_2_VULTURE","VULTURE",2,0.5,120,"preference"
"ssfOUT_120_2_2_VULTURE.36",0.867923683849422,0.568627800723988,1.16721956697486,"ssf","mf.ss","exp","unif",5,"ssfOUT_120_2_2_VULTURE","VULTURE",2,0.5,120,"preference"
"ssfOUT_120_2_2_VULTURE.37",0.789149361787448,0.501447210523093,1.0768515130518,"ssf","mf.ss","exp","unif",15,"ssfOUT_120_2_2_VULTURE","VULTURE",2,0.5,120,"preference"
"ssfOUT_120_2_2_VULTURE.38",0.803645847583012,0.51936036902155,1.08793132614447,"ssf","mf.ss","exp","unif",50,"ssfOUT_120_2_2_VULTURE","VULTURE",2,0.5,120,"preference"
"ssfOUT_120_2_2_VULTURE.39",0.861478585628526,0.577953083971368,1.14500408728568,"ssf","mf.ss","exp","unif",158,"ssfOUT_120_2_2_VULTURE","VULTURE",2,0.5,120,"preference"
"ssfOUT_120_2_2_VULTURE.40",0.81857470643788,0.535502569024293,1.10164684385147,"ssf","mf.ss","exp","unif",500,"ssfOUT_120_2_2_VULTURE","VULTURE",2,0.5,120,"preference"
"ssfOUT_120_2_2_KINGCOBRA.1",0.556956038166047,0.251740168158655,0.862171908173438,"ssf","mf.is","gamma","vonmises",5,"ssfOUT_120_2_2_KINGCOBRA","KINGCOBRA",2,0.5,120,"preference"
"ssfOUT_120_2_2_KINGCOBRA.2",0.523921786081183,0.224091810514269,0.823751761648097,"ssf","mf.is","gamma","vonmises",15,"ssfOUT_120_2_2_KINGCOBRA","KINGCOBRA",2,0.5,120,"preference"
"ssfOUT_120_2_2_KINGCOBRA.3",0.690985384080386,0.398424640442528,0.983546127718244,"ssf","mf.is","gamma","vonmises",50,"ssfOUT_120_2_2_KINGCOBRA","KINGCOBRA",2,0.5,120,"preference"
"ssfOUT_120_2_2_KINGCOBRA.4",0.648871163566892,0.359837094846494,0.937905232287291,"ssf","mf.is","gamma","vonmises",158,"ssfOUT_120_2_2_KINGCOBRA","KINGCOBRA",2,0.5,120,"preference"
"ssfOUT_120_2_2_KINGCOBRA.5",0.665293494586127,0.37635624668566,0.954230742486594,"ssf","mf.is","gamma","vonmises",500,"ssfOUT_120_2_2_KINGCOBRA","KINGCOBRA",2,0.5,120,"preference"
"ssfOUT_120_2_2_KINGCOBRA.6",0.712739191119875,0.405406330020337,1.02007205221941,"ssf","mf.is","gamma","unif",5,"ssfOUT_120_2_2_KINGCOBRA","KINGCOBRA",2,0.5,120,"preference"
"ssfOUT_120_2_2_KINGCOBRA.7",0.520174120278489,0.225447424866539,0.814900815690439,"ssf","mf.is","gamma","unif",15,"ssfOUT_120_2_2_KINGCOBRA","KINGCOBRA",2,0.5,120,"preference"
"ssfOUT_120_2_2_KINGCOBRA.8",0.660196713550143,0.369655229726362,0.950738197373924,"ssf","mf.is","gamma","unif",50,"ssfOUT_120_2_2_KINGCOBRA","KINGCOBRA",2,0.5,120,"preference"
"ssfOUT_120_2_2_KINGCOBRA.9",0.66638514097728,0.376210039837332,0.956560242117228,"ssf","mf.is","gamma","unif",158,"ssfOUT_120_2_2_KINGCOBRA","KINGCOBRA",2,0.5,120,"preference"
"ssfOUT_120_2_2_KINGCOBRA.10",0.668250032697229,0.379006908518336,0.957493156876122,"ssf","mf.is","gamma","unif",500,"ssfOUT_120_2_2_KINGCOBRA","KINGCOBRA",2,0.5,120,"preference"
"ssfOUT_120_2_2_KINGCOBRA.11",0.488130074083994,0.170686892706972,0.805573255461016,"ssf","mf.is","exp","vonmises",5,"ssfOUT_120_2_2_KINGCOBRA","KINGCOBRA",2,0.5,120,"preference"
"ssfOUT_120_2_2_KINGCOBRA.12",0.661603112586263,0.365420921040964,0.957785304131562,"ssf","mf.is","exp","vonmises",15,"ssfOUT_120_2_2_KINGCOBRA","KINGCOBRA",2,0.5,120,"preference"
"ssfOUT_120_2_2_KINGCOBRA.13",0.54930402595271,0.257944631803709,0.840663420101711,"ssf","mf.is","exp","vonmises",50,"ssfOUT_120_2_2_KINGCOBRA","KINGCOBRA",2,0.5,120,"preference"
"ssfOUT_120_2_2_KINGCOBRA.14",0.627277928923835,0.337948060778006,0.916607797069664,"ssf","mf.is","exp","vonmises",158,"ssfOUT_120_2_2_KINGCOBRA","KINGCOBRA",2,0.5,120,"preference"
"ssfOUT_120_2_2_KINGCOBRA.15",0.561613826018141,0.273412961153475,0.849814690882808,"ssf","mf.is","exp","vonmises",500,"ssfOUT_120_2_2_KINGCOBRA","KINGCOBRA",2,0.5,120,"preference"
"ssfOUT_120_2_2_KINGCOBRA.16",0.396216907025613,0.093624737386823,0.698809076664402,"ssf","mf.is","exp","unif",5,"ssfOUT_120_2_2_KINGCOBRA","KINGCOBRA",2,0.5,120,"preference"
"ssfOUT_120_2_2_KINGCOBRA.17",0.559942814435066,0.262555444789358,0.857330184080773,"ssf","mf.is","exp","unif",15,"ssfOUT_120_2_2_KINGCOBRA","KINGCOBRA",2,0.5,120,"preference"
"ssfOUT_120_2_2_KINGCOBRA.18",0.641726818298007,0.344821658046957,0.938631978549057,"ssf","mf.is","exp","unif",50,"ssfOUT_120_2_2_KINGCOBRA","KINGCOBRA",2,0.5,120,"preference"
"ssfOUT_120_2_2_KINGCOBRA.19",0.661105424117699,0.369269075071223,0.952941773164175,"ssf","mf.is","exp","unif",158,"ssfOUT_120_2_2_KINGCOBRA","KINGCOBRA",2,0.5,120,"preference"
"ssfOUT_120_2_2_KINGCOBRA.20",0.610927768300225,0.321259255269716,0.900596281330735,"ssf","mf.is","exp","unif",500,"ssfOUT_120_2_2_KINGCOBRA","KINGCOBRA",2,0.5,120,"preference"
"ssfOUT_120_2_2_KINGCOBRA.21",0.554918684402034,0.248591206043937,0.861246162760131,"ssf","mf.ss","gamma","vonmises",5,"ssfOUT_120_2_2_KINGCOBRA","KINGCOBRA",2,0.5,120,"preference"
"ssfOUT_120_2_2_KINGCOBRA.22",0.56052975534359,0.260565954908507,0.860493555778673,"ssf","mf.ss","gamma","vonmises",15,"ssfOUT_120_2_2_KINGCOBRA","KINGCOBRA",2,0.5,120,"preference"
"ssfOUT_120_2_2_KINGCOBRA.23",0.700664948940445,0.407607443767219,0.99372245411367,"ssf","mf.ss","gamma","vonmises",50,"ssfOUT_120_2_2_KINGCOBRA","KINGCOBRA",2,0.5,120,"preference"
"ssfOUT_120_2_2_KINGCOBRA.24",0.649063057350414,0.359554569133507,0.938571545567322,"ssf","mf.ss","gamma","vonmises",158,"ssfOUT_120_2_2_KINGCOBRA","KINGCOBRA",2,0.5,120,"preference"
"ssfOUT_120_2_2_KINGCOBRA.25",0.658018891571966,0.368342617359771,0.947695165784162,"ssf","mf.ss","gamma","vonmises",500,"ssfOUT_120_2_2_KINGCOBRA","KINGCOBRA",2,0.5,120,"preference"
"ssfOUT_120_2_2_KINGCOBRA.26",0.710314232253986,0.403167439916625,1.01746102459135,"ssf","mf.ss","gamma","unif",5,"ssfOUT_120_2_2_KINGCOBRA","KINGCOBRA",2,0.5,120,"preference"
"ssfOUT_120_2_2_KINGCOBRA.27",0.517812274424232,0.223321933115386,0.812302615733077,"ssf","mf.ss","gamma","unif",15,"ssfOUT_120_2_2_KINGCOBRA","KINGCOBRA",2,0.5,120,"preference"
"ssfOUT_120_2_2_KINGCOBRA.28",0.663372132727629,0.372371100227413,0.954373165227845,"ssf","mf.ss","gamma","unif",50,"ssfOUT_120_2_2_KINGCOBRA","KINGCOBRA",2,0.5,120,"preference"
"ssfOUT_120_2_2_KINGCOBRA.29",0.668320886416165,0.377774207109665,0.958867565722665,"ssf","mf.ss","gamma","unif",158,"ssfOUT_120_2_2_KINGCOBRA","KINGCOBRA",2,0.5,120,"preference"
"ssfOUT_120_2_2_KINGCOBRA.30",0.671591064900893,0.382079981686791,0.961102148114995,"ssf","mf.ss","gamma","unif",500,"ssfOUT_120_2_2_KINGCOBRA","KINGCOBRA",2,0.5,120,"preference"
"ssfOUT_120_2_2_KINGCOBRA.31",0.708982470117706,0.403823335046564,1.01414160518885,"ssf","mf.ss","exp","vonmises",5,"ssfOUT_120_2_2_KINGCOBRA","KINGCOBRA",2,0.5,120,"preference"
"ssfOUT_120_2_2_KINGCOBRA.32",0.81714484469347,0.533159295365895,1.10113039402105,"ssf","mf.ss","exp","vonmises",15,"ssfOUT_120_2_2_KINGCOBRA","KINGCOBRA",2,0.5,120,"preference"
"ssfOUT_120_2_2_KINGCOBRA.33",0.762367762707111,0.48240102354974,1.04233450186448,"ssf","mf.ss","exp","vonmises",50,"ssfOUT_120_2_2_KINGCOBRA","KINGCOBRA",2,0.5,120,"preference"
"ssfOUT_120_2_2_KINGCOBRA.34",0.748344103460111,0.468912742914609,1.02777546400561,"ssf","mf.ss","exp","vonmises",158,"ssfOUT_120_2_2_KINGCOBRA","KINGCOBRA",2,0.5,120,"preference"
"ssfOUT_120_2_2_KINGCOBRA.35",0.749117574588779,0.470067940004037,1.02816720917352,"ssf","mf.ss","exp","vonmises",500,"ssfOUT_120_2_2_KINGCOBRA","KINGCOBRA",2,0.5,120,"preference"
"ssfOUT_120_2_2_KINGCOBRA.36",0.663673705856743,0.369444370835986,0.9579030408775,"ssf","mf.ss","exp","unif",5,"ssfOUT_120_2_2_KINGCOBRA","KINGCOBRA",2,0.5,120,"preference"
"ssfOUT_120_2_2_KINGCOBRA.37",0.730371909468037,0.446028584351143,1.01471523458493,"ssf","mf.ss","exp","unif",15,"ssfOUT_120_2_2_KINGCOBRA","KINGCOBRA",2,0.5,120,"preference"
"ssfOUT_120_2_2_KINGCOBRA.38",0.728480819812808,0.447001233949298,1.00996040567632,"ssf","mf.ss","exp","unif",50,"ssfOUT_120_2_2_KINGCOBRA","KINGCOBRA",2,0.5,120,"preference"
"ssfOUT_120_2_2_KINGCOBRA.39",0.751381257039976,0.472805286984407,1.02995722709555,"ssf","mf.ss","exp","unif",158,"ssfOUT_120_2_2_KINGCOBRA","KINGCOBRA",2,0.5,120,"preference"
"ssfOUT_120_2_2_KINGCOBRA.40",0.751388369053948,0.473043582174487,1.02973315593341,"ssf","mf.ss","exp","unif",500,"ssfOUT_120_2_2_KINGCOBRA","KINGCOBRA",2,0.5,120,"preference"
"ssfOUT_120_2_3_BADGER.1",0.125400973150477,-0.0806048158302968,0.331406762131251,"ssf","mf.is","gamma","vonmises",5,"ssfOUT_120_2_3_BADGER","BADGER",3,0.5,120,"no effect"
"ssfOUT_120_2_3_BADGER.2",0.0444597223685665,-0.147259568075957,0.236179012813089,"ssf","mf.is","gamma","vonmises",15,"ssfOUT_120_2_3_BADGER","BADGER",3,0.5,120,"no effect"
"ssfOUT_120_2_3_BADGER.3",0.0299864401031206,-0.158103628484962,0.218076508691204,"ssf","mf.is","gamma","vonmises",50,"ssfOUT_120_2_3_BADGER","BADGER",3,0.5,120,"no effect"
"ssfOUT_120_2_3_BADGER.4",0.0148704385056932,-0.171759883658,0.201500760669386,"ssf","mf.is","gamma","vonmises",158,"ssfOUT_120_2_3_BADGER","BADGER",3,0.5,120,"no effect"
"ssfOUT_120_2_3_BADGER.5",0.0136066213281681,-0.172832449143703,0.200045691800039,"ssf","mf.is","gamma","vonmises",500,"ssfOUT_120_2_3_BADGER","BADGER",3,0.5,120,"no effect"
"ssfOUT_120_2_3_BADGER.6",0.161036869454376,-0.0447696251028235,0.366843364011575,"ssf","mf.is","gamma","unif",5,"ssfOUT_120_2_3_BADGER","BADGER",3,0.5,120,"no effect"
"ssfOUT_120_2_3_BADGER.7",0.079684155151981,-0.113005475371284,0.272373785675246,"ssf","mf.is","gamma","unif",15,"ssfOUT_120_2_3_BADGER","BADGER",3,0.5,120,"no effect"
"ssfOUT_120_2_3_BADGER.8",0.0253060281903217,-0.162758748350978,0.213370804731621,"ssf","mf.is","gamma","unif",50,"ssfOUT_120_2_3_BADGER","BADGER",3,0.5,120,"no effect"
"ssfOUT_120_2_3_BADGER.9",0.0230966038874059,-0.164149164280541,0.210342372055352,"ssf","mf.is","gamma","unif",158,"ssfOUT_120_2_3_BADGER","BADGER",3,0.5,120,"no effect"
"ssfOUT_120_2_3_BADGER.10",0.0186325845613095,-0.167726375117041,0.20499154423966,"ssf","mf.is","gamma","unif",500,"ssfOUT_120_2_3_BADGER","BADGER",3,0.5,120,"no effect"
"ssfOUT_120_2_3_BADGER.11",0.0568124598451237,-0.149399945157732,0.263024864847979,"ssf","mf.is","exp","vonmises",5,"ssfOUT_120_2_3_BADGER","BADGER",3,0.5,120,"no effect"
"ssfOUT_120_2_3_BADGER.12",-0.0582625446676256,-0.250169977377876,0.133644888042625,"ssf","mf.is","exp","vonmises",15,"ssfOUT_120_2_3_BADGER","BADGER",3,0.5,120,"no effect"
"ssfOUT_120_2_3_BADGER.13",-0.00799095908283836,-0.196725902269505,0.180743984103828,"ssf","mf.is","exp","vonmises",50,"ssfOUT_120_2_3_BADGER","BADGER",3,0.5,120,"no effect"
"ssfOUT_120_2_3_BADGER.14",0.0178845667237613,-0.169209580871219,0.204978714318742,"ssf","mf.is","exp","vonmises",158,"ssfOUT_120_2_3_BADGER","BADGER",3,0.5,120,"no effect"
"ssfOUT_120_2_3_BADGER.15",0.0178218325894935,-0.168607079801408,0.204250744980394,"ssf","mf.is","exp","vonmises",500,"ssfOUT_120_2_3_BADGER","BADGER",3,0.5,120,"no effect"
"ssfOUT_120_2_3_BADGER.16",0.0446779562633221,-0.160908566065291,0.250264478591936,"ssf","mf.is","exp","unif",5,"ssfOUT_120_2_3_BADGER","BADGER",3,0.5,120,"no effect"
"ssfOUT_120_2_3_BADGER.17",-0.0252066040512713,-0.218224127459228,0.167810919356685,"ssf","mf.is","exp","unif",15,"ssfOUT_120_2_3_BADGER","BADGER",3,0.5,120,"no effect"
"ssfOUT_120_2_3_BADGER.18",0.0606261408242264,-0.127643201092486,0.248895482740939,"ssf","mf.is","exp","unif",50,"ssfOUT_120_2_3_BADGER","BADGER",3,0.5,120,"no effect"
"ssfOUT_120_2_3_BADGER.19",0.0322676843774456,-0.154345554944664,0.218880923699555,"ssf","mf.is","exp","unif",158,"ssfOUT_120_2_3_BADGER","BADGER",3,0.5,120,"no effect"
"ssfOUT_120_2_3_BADGER.20",0.00863560285524686,-0.177969979084457,0.195241184794951,"ssf","mf.is","exp","unif",500,"ssfOUT_120_2_3_BADGER","BADGER",3,0.5,120,"no effect"
"ssfOUT_120_2_3_BADGER.21",0.125423666859183,-0.0804746762204703,0.331322009938837,"ssf","mf.ss","gamma","vonmises",5,"ssfOUT_120_2_3_BADGER","BADGER",3,0.5,120,"no effect"
"ssfOUT_120_2_3_BADGER.22",0.0444040079975958,-0.147290463547081,0.236098479542272,"ssf","mf.ss","gamma","vonmises",15,"ssfOUT_120_2_3_BADGER","BADGER",3,0.5,120,"no effect"
"ssfOUT_120_2_3_BADGER.23",0.0301140306139267,-0.158009046008275,0.218237107236129,"ssf","mf.ss","gamma","vonmises",50,"ssfOUT_120_2_3_BADGER","BADGER",3,0.5,120,"no effect"
"ssfOUT_120_2_3_BADGER.24",0.0152000962005645,-0.171482518173774,0.201882710574903,"ssf","mf.ss","gamma","vonmises",158,"ssfOUT_120_2_3_BADGER","BADGER",3,0.5,120,"no effect"
"ssfOUT_120_2_3_BADGER.25",0.0142265034494339,-0.172240033070696,0.200693039969563,"ssf","mf.ss","gamma","vonmises",500,"ssfOUT_120_2_3_BADGER","BADGER",3,0.5,120,"no effect"
"ssfOUT_120_2_3_BADGER.26",0.16612397745751,-0.0394042517606806,0.3716522066757,"ssf","mf.ss","gamma","unif",5,"ssfOUT_120_2_3_BADGER","BADGER",3,0.5,120,"no effect"
"ssfOUT_120_2_3_BADGER.27",0.0723084064569111,-0.120357455075109,0.264974267988931,"ssf","mf.ss","gamma","unif",15,"ssfOUT_120_2_3_BADGER","BADGER",3,0.5,120,"no effect"
"ssfOUT_120_2_3_BADGER.28",0.0282346854853453,-0.159751820589254,0.216221191559945,"ssf","mf.ss","gamma","unif",50,"ssfOUT_120_2_3_BADGER","BADGER",3,0.5,120,"no effect"
"ssfOUT_120_2_3_BADGER.29",0.0207442807740493,-0.166458124404401,0.2079466859525,"ssf","mf.ss","gamma","unif",158,"ssfOUT_120_2_3_BADGER","BADGER",3,0.5,120,"no effect"
"ssfOUT_120_2_3_BADGER.30",0.0146944011602846,-0.171613259446289,0.201002061766858,"ssf","mf.ss","gamma","unif",500,"ssfOUT_120_2_3_BADGER","BADGER",3,0.5,120,"no effect"
"ssfOUT_120_2_3_BADGER.31",0.0552283769220293,-0.151429312053189,0.261886065897248,"ssf","mf.ss","exp","vonmises",5,"ssfOUT_120_2_3_BADGER","BADGER",3,0.5,120,"no effect"
"ssfOUT_120_2_3_BADGER.32",-0.038172971582835,-0.230599237054401,0.154253293888731,"ssf","mf.ss","exp","vonmises",15,"ssfOUT_120_2_3_BADGER","BADGER",3,0.5,120,"no effect"
"ssfOUT_120_2_3_BADGER.33",0.0159687503032894,-0.173754021919362,0.205691522525941,"ssf","mf.ss","exp","vonmises",50,"ssfOUT_120_2_3_BADGER","BADGER",3,0.5,120,"no effect"
"ssfOUT_120_2_3_BADGER.34",0.0356726456539821,-0.152339863380701,0.223685154688665,"ssf","mf.ss","exp","vonmises",158,"ssfOUT_120_2_3_BADGER","BADGER",3,0.5,120,"no effect"
"ssfOUT_120_2_3_BADGER.35",0.0378709917474717,-0.149555526300652,0.225297509795595,"ssf","mf.ss","exp","vonmises",500,"ssfOUT_120_2_3_BADGER","BADGER",3,0.5,120,"no effect"
"ssfOUT_120_2_3_BADGER.36",0.0785410138406521,-0.12598826273604,0.283070290417345,"ssf","mf.ss","exp","unif",5,"ssfOUT_120_2_3_BADGER","BADGER",3,0.5,120,"no effect"
"ssfOUT_120_2_3_BADGER.37",-0.0166041172228379,-0.209943884350909,0.176735649905234,"ssf","mf.ss","exp","unif",15,"ssfOUT_120_2_3_BADGER","BADGER",3,0.5,120,"no effect"
"ssfOUT_120_2_3_BADGER.38",0.0719434873797256,-0.116928395098771,0.260815369858222,"ssf","mf.ss","exp","unif",50,"ssfOUT_120_2_3_BADGER","BADGER",3,0.5,120,"no effect"
"ssfOUT_120_2_3_BADGER.39",0.0466106196747004,-0.140790730172156,0.234011969521557,"ssf","mf.ss","exp","unif",158,"ssfOUT_120_2_3_BADGER","BADGER",3,0.5,120,"no effect"
"ssfOUT_120_2_3_BADGER.40",0.026326503545824,-0.161216859712069,0.213869866803717,"ssf","mf.ss","exp","unif",500,"ssfOUT_120_2_3_BADGER","BADGER",3,0.5,120,"no effect"
"ssfOUT_120_2_3_VULTURE.1",0.420787600930438,0.165189231857898,0.676385970002977,"ssf","mf.is","gamma","vonmises",5,"ssfOUT_120_2_3_VULTURE","VULTURE",3,0.5,120,"preference"
"ssfOUT_120_2_3_VULTURE.2",0.350853881862387,0.108057469622847,0.593650294101927,"ssf","mf.is","gamma","vonmises",15,"ssfOUT_120_2_3_VULTURE","VULTURE",3,0.5,120,"preference"
"ssfOUT_120_2_3_VULTURE.3",0.35114781277022,0.112479373475739,0.589816252064701,"ssf","mf.is","gamma","vonmises",50,"ssfOUT_120_2_3_VULTURE","VULTURE",3,0.5,120,"preference"
"ssfOUT_120_2_3_VULTURE.4",0.367813161893788,0.130438923197892,0.605187400589683,"ssf","mf.is","gamma","vonmises",158,"ssfOUT_120_2_3_VULTURE","VULTURE",3,0.5,120,"preference"
"ssfOUT_120_2_3_VULTURE.5",0.349617378695355,0.112530855467399,0.58670390192331,"ssf","mf.is","gamma","vonmises",500,"ssfOUT_120_2_3_VULTURE","VULTURE",3,0.5,120,"preference"
"ssfOUT_120_2_3_VULTURE.6",0.337743829882448,0.0806971912359354,0.594790468528961,"ssf","mf.is","gamma","unif",5,"ssfOUT_120_2_3_VULTURE","VULTURE",3,0.5,120,"preference"
"ssfOUT_120_2_3_VULTURE.7",0.402118334864745,0.159391551516063,0.644845118213427,"ssf","mf.is","gamma","unif",15,"ssfOUT_120_2_3_VULTURE","VULTURE",3,0.5,120,"preference"
"ssfOUT_120_2_3_VULTURE.8",0.326406076229056,0.0876959594632167,0.565116192994895,"ssf","mf.is","gamma","unif",50,"ssfOUT_120_2_3_VULTURE","VULTURE",3,0.5,120,"preference"
"ssfOUT_120_2_3_VULTURE.9",0.356792295258948,0.119187389879633,0.594397200638262,"ssf","mf.is","gamma","unif",158,"ssfOUT_120_2_3_VULTURE","VULTURE",3,0.5,120,"preference"
"ssfOUT_120_2_3_VULTURE.10",0.34586998644591,0.108722127062289,0.583017845829531,"ssf","mf.is","gamma","unif",500,"ssfOUT_120_2_3_VULTURE","VULTURE",3,0.5,120,"preference"
"ssfOUT_120_2_3_VULTURE.11",0.319597164963854,0.0523108717051122,0.586883458222596,"ssf","mf.is","exp","vonmises",5,"ssfOUT_120_2_3_VULTURE","VULTURE",3,0.5,120,"preference"
"ssfOUT_120_2_3_VULTURE.12",0.291446459770167,0.0456447064355813,0.537248213104752,"ssf","mf.is","exp","vonmises",15,"ssfOUT_120_2_3_VULTURE","VULTURE",3,0.5,120,"preference"
"ssfOUT_120_2_3_VULTURE.13",0.391288461493448,0.152313136838897,0.630263786147999,"ssf","mf.is","exp","vonmises",50,"ssfOUT_120_2_3_VULTURE","VULTURE",3,0.5,120,"preference"
"ssfOUT_120_2_3_VULTURE.14",0.374487469067302,0.13678809431043,0.612186843824173,"ssf","mf.is","exp","vonmises",158,"ssfOUT_120_2_3_VULTURE","VULTURE",3,0.5,120,"preference"
"ssfOUT_120_2_3_VULTURE.15",0.356203691540068,0.118875943649437,0.5935314394307,"ssf","mf.is","exp","vonmises",500,"ssfOUT_120_2_3_VULTURE","VULTURE",3,0.5,120,"preference"
"ssfOUT_120_2_3_VULTURE.16",0.370210880480857,0.105683399170324,0.634738361791389,"ssf","mf.is","exp","unif",5,"ssfOUT_120_2_3_VULTURE","VULTURE",3,0.5,120,"preference"
"ssfOUT_120_2_3_VULTURE.17",0.262844571996312,0.0159605895546694,0.509728554437955,"ssf","mf.is","exp","unif",15,"ssfOUT_120_2_3_VULTURE","VULTURE",3,0.5,120,"preference"
"ssfOUT_120_2_3_VULTURE.18",0.373051220669712,0.134080726957591,0.612021714381833,"ssf","mf.is","exp","unif",50,"ssfOUT_120_2_3_VULTURE","VULTURE",3,0.5,120,"preference"
"ssfOUT_120_2_3_VULTURE.19",0.354223591126674,0.116717073989007,0.591730108264341,"ssf","mf.is","exp","unif",158,"ssfOUT_120_2_3_VULTURE","VULTURE",3,0.5,120,"preference"
"ssfOUT_120_2_3_VULTURE.20",0.352655583856239,0.115424175067411,0.589886992645066,"ssf","mf.is","exp","unif",500,"ssfOUT_120_2_3_VULTURE","VULTURE",3,0.5,120,"preference"
"ssfOUT_120_2_3_VULTURE.21",0.41239601035844,0.156972743149815,0.667819277567065,"ssf","mf.ss","gamma","vonmises",5,"ssfOUT_120_2_3_VULTURE","VULTURE",3,0.5,120,"preference"
"ssfOUT_120_2_3_VULTURE.22",0.345907918264943,0.103108467005239,0.588707369524647,"ssf","mf.ss","gamma","vonmises",15,"ssfOUT_120_2_3_VULTURE","VULTURE",3,0.5,120,"preference"
"ssfOUT_120_2_3_VULTURE.23",0.34628061285324,0.107640243690276,0.584920982016204,"ssf","mf.ss","gamma","vonmises",50,"ssfOUT_120_2_3_VULTURE","VULTURE",3,0.5,120,"preference"
"ssfOUT_120_2_3_VULTURE.24",0.357772431006636,0.120397389998941,0.595147472014331,"ssf","mf.ss","gamma","vonmises",158,"ssfOUT_120_2_3_VULTURE","VULTURE",3,0.5,120,"preference"
"ssfOUT_120_2_3_VULTURE.25",0.341129331303113,0.10402581765231,0.578232844953917,"ssf","mf.ss","gamma","vonmises",500,"ssfOUT_120_2_3_VULTURE","VULTURE",3,0.5,120,"preference"
"ssfOUT_120_2_3_VULTURE.26",0.33900408676999,0.0822173175372192,0.595790856002761,"ssf","mf.ss","gamma","unif",5,"ssfOUT_120_2_3_VULTURE","VULTURE",3,0.5,120,"preference"
"ssfOUT_120_2_3_VULTURE.27",0.400263234791459,0.157653157688426,0.642873311894491,"ssf","mf.ss","gamma","unif",15,"ssfOUT_120_2_3_VULTURE","VULTURE",3,0.5,120,"preference"
"ssfOUT_120_2_3_VULTURE.28",0.325808632066944,0.0871609640593893,0.564456300074498,"ssf","mf.ss","gamma","unif",50,"ssfOUT_120_2_3_VULTURE","VULTURE",3,0.5,120,"preference"
"ssfOUT_120_2_3_VULTURE.29",0.353881233626666,0.116297309168075,0.591465158085257,"ssf","mf.ss","gamma","unif",158,"ssfOUT_120_2_3_VULTURE","VULTURE",3,0.5,120,"preference"
"ssfOUT_120_2_3_VULTURE.30",0.342601907460471,0.105470060189848,0.579733754731094,"ssf","mf.ss","gamma","unif",500,"ssfOUT_120_2_3_VULTURE","VULTURE",3,0.5,120,"preference"
"ssfOUT_120_2_3_VULTURE.31",0.365363975878126,0.104239480361651,0.6264884713946,"ssf","mf.ss","exp","vonmises",5,"ssfOUT_120_2_3_VULTURE","VULTURE",3,0.5,120,"preference"
"ssfOUT_120_2_3_VULTURE.32",0.330774610073904,0.0863376569869034,0.575211563160904,"ssf","mf.ss","exp","vonmises",15,"ssfOUT_120_2_3_VULTURE","VULTURE",3,0.5,120,"preference"
"ssfOUT_120_2_3_VULTURE.33",0.403247564095553,0.163348413983768,0.643146714207339,"ssf","mf.ss","exp","vonmises",50,"ssfOUT_120_2_3_VULTURE","VULTURE",3,0.5,120,"preference"
"ssfOUT_120_2_3_VULTURE.34",0.401684021088373,0.163047233351915,0.640320808824831,"ssf","mf.ss","exp","vonmises",158,"ssfOUT_120_2_3_VULTURE","VULTURE",3,0.5,120,"preference"
"ssfOUT_120_2_3_VULTURE.35",0.376510846235655,0.137931247892248,0.615090444579062,"ssf","mf.ss","exp","vonmises",500,"ssfOUT_120_2_3_VULTURE","VULTURE",3,0.5,120,"preference"
"ssfOUT_120_2_3_VULTURE.36",0.303313831828245,0.042795298784867,0.563832364871624,"ssf","mf.ss","exp","unif",5,"ssfOUT_120_2_3_VULTURE","VULTURE",3,0.5,120,"preference"
"ssfOUT_120_2_3_VULTURE.37",0.33280978210646,0.0872139171517357,0.578405647061184,"ssf","mf.ss","exp","unif",15,"ssfOUT_120_2_3_VULTURE","VULTURE",3,0.5,120,"preference"
"ssfOUT_120_2_3_VULTURE.38",0.395304352925916,0.155842091789569,0.634766614062262,"ssf","mf.ss","exp","unif",50,"ssfOUT_120_2_3_VULTURE","VULTURE",3,0.5,120,"preference"
"ssfOUT_120_2_3_VULTURE.39",0.388104267179404,0.149742310859948,0.626466223498861,"ssf","mf.ss","exp","unif",158,"ssfOUT_120_2_3_VULTURE","VULTURE",3,0.5,120,"preference"
"ssfOUT_120_2_3_VULTURE.40",0.389059917731865,0.150538608625327,0.627581226838404,"ssf","mf.ss","exp","unif",500,"ssfOUT_120_2_3_VULTURE","VULTURE",3,0.5,120,"preference"
"ssfOUT_120_2_3_KINGCOBRA.1",0.427634006148138,-0.0974614037521448,0.95272941604842,"ssf","mf.is","gamma","vonmises",5,"ssfOUT_120_2_3_KINGCOBRA","KINGCOBRA",3,0.5,120,"no effect"
"ssfOUT_120_2_3_KINGCOBRA.2",0.563250494432486,0.0554003088765644,1.07110067998841,"ssf","mf.is","gamma","vonmises",15,"ssfOUT_120_2_3_KINGCOBRA","KINGCOBRA",3,0.5,120,"preference"
"ssfOUT_120_2_3_KINGCOBRA.3",0.517572406511714,0.0258059055994108,1.00933890742402,"ssf","mf.is","gamma","vonmises",50,"ssfOUT_120_2_3_KINGCOBRA","KINGCOBRA",3,0.5,120,"preference"
"ssfOUT_120_2_3_KINGCOBRA.4",0.524201311196845,0.0312505370747217,1.01715208531897,"ssf","mf.is","gamma","vonmises",158,"ssfOUT_120_2_3_KINGCOBRA","KINGCOBRA",3,0.5,120,"preference"
"ssfOUT_120_2_3_KINGCOBRA.5",0.521423678561994,0.0365845801548419,1.00626277696915,"ssf","mf.is","gamma","vonmises",500,"ssfOUT_120_2_3_KINGCOBRA","KINGCOBRA",3,0.5,120,"preference"
"ssfOUT_120_2_3_KINGCOBRA.6",0.468464570557386,-0.045366244056059,0.982295385170832,"ssf","mf.is","gamma","unif",5,"ssfOUT_120_2_3_KINGCOBRA","KINGCOBRA",3,0.5,120,"no effect"
"ssfOUT_120_2_3_KINGCOBRA.7",0.670367851787553,0.173161749416098,1.16757395415901,"ssf","mf.is","gamma","unif",15,"ssfOUT_120_2_3_KINGCOBRA","KINGCOBRA",3,0.5,120,"preference"
"ssfOUT_120_2_3_KINGCOBRA.8",0.495325142981551,-0.00066344035355681,0.99131372631666,"ssf","mf.is","gamma","unif",50,"ssfOUT_120_2_3_KINGCOBRA","KINGCOBRA",3,0.5,120,"no effect"
"ssfOUT_120_2_3_KINGCOBRA.9",0.515822521010643,0.026698976231747,1.00494606578954,"ssf","mf.is","gamma","unif",158,"ssfOUT_120_2_3_KINGCOBRA","KINGCOBRA",3,0.5,120,"preference"
"ssfOUT_120_2_3_KINGCOBRA.10",0.52266764536297,0.0358376946292482,1.00949759609669,"ssf","mf.is","gamma","unif",500,"ssfOUT_120_2_3_KINGCOBRA","KINGCOBRA",3,0.5,120,"preference"
"ssfOUT_120_2_3_KINGCOBRA.11",0.165578508778868,-0.389202221948636,0.720359239506372,"ssf","mf.is","exp","vonmises",5,"ssfOUT_120_2_3_KINGCOBRA","KINGCOBRA",3,0.5,120,"no effect"
"ssfOUT_120_2_3_KINGCOBRA.12",-0.0548714630189623,-0.583275785085813,0.473532859047889,"ssf","mf.is","exp","vonmises",15,"ssfOUT_120_2_3_KINGCOBRA","KINGCOBRA",3,0.5,120,"no effect"
"ssfOUT_120_2_3_KINGCOBRA.13",0.670073868073706,0.170312689511064,1.16983504663635,"ssf","mf.is","exp","vonmises",50,"ssfOUT_120_2_3_KINGCOBRA","KINGCOBRA",3,0.5,120,"preference"
"ssfOUT_120_2_3_KINGCOBRA.14",0.626481336046486,0.118009149571845,1.13495352252113,"ssf","mf.is","exp","vonmises",158,"ssfOUT_120_2_3_KINGCOBRA","KINGCOBRA",3,0.5,120,"preference"
"ssfOUT_120_2_3_KINGCOBRA.15",0.464908082562877,-0.0242137230425729,0.954029888168327,"ssf","mf.is","exp","vonmises",500,"ssfOUT_120_2_3_KINGCOBRA","KINGCOBRA",3,0.5,120,"no effect"
"ssfOUT_120_2_3_KINGCOBRA.16",-0.00718786742502303,-0.581636927040964,0.567261192190919,"ssf","mf.is","exp","unif",5,"ssfOUT_120_2_3_KINGCOBRA","KINGCOBRA",3,0.5,120,"no effect"
"ssfOUT_120_2_3_KINGCOBRA.17",0.577608497682098,0.0637671577511962,1.091449837613,"ssf","mf.is","exp","unif",15,"ssfOUT_120_2_3_KINGCOBRA","KINGCOBRA",3,0.5,120,"preference"
"ssfOUT_120_2_3_KINGCOBRA.18",0.568590053453419,0.0716821878539326,1.06549791905291,"ssf","mf.is","exp","unif",50,"ssfOUT_120_2_3_KINGCOBRA","KINGCOBRA",3,0.5,120,"preference"
"ssfOUT_120_2_3_KINGCOBRA.19",0.820071102912294,0.331500102891868,1.30864210293272,"ssf","mf.is","exp","unif",158,"ssfOUT_120_2_3_KINGCOBRA","KINGCOBRA",3,0.5,120,"preference"
"ssfOUT_120_2_3_KINGCOBRA.20",0.532615680626541,0.0405222199093017,1.02470914134378,"ssf","mf.is","exp","unif",500,"ssfOUT_120_2_3_KINGCOBRA","KINGCOBRA",3,0.5,120,"preference"
"ssfOUT_120_2_3_KINGCOBRA.21",0.419399561440981,-0.107236000747571,0.946035123629533,"ssf","mf.ss","gamma","vonmises",5,"ssfOUT_120_2_3_KINGCOBRA","KINGCOBRA",3,0.5,120,"no effect"
"ssfOUT_120_2_3_KINGCOBRA.22",0.494018522416854,-0.0187666321410623,1.00680367697477,"ssf","mf.ss","gamma","vonmises",15,"ssfOUT_120_2_3_KINGCOBRA","KINGCOBRA",3,0.5,120,"no effect"
"ssfOUT_120_2_3_KINGCOBRA.23",0.441811582252706,-0.0514674207769243,0.935090585282337,"ssf","mf.ss","gamma","vonmises",50,"ssfOUT_120_2_3_KINGCOBRA","KINGCOBRA",3,0.5,120,"no effect"
"ssfOUT_120_2_3_KINGCOBRA.24",0.465838799770747,-0.0313033181852476,0.962980917726742,"ssf","mf.ss","gamma","vonmises",158,"ssfOUT_120_2_3_KINGCOBRA","KINGCOBRA",3,0.5,120,"no effect"
"ssfOUT_120_2_3_KINGCOBRA.25",0.468107515616376,-0.0212525651229133,0.957467596355665,"ssf","mf.ss","gamma","vonmises",500,"ssfOUT_120_2_3_KINGCOBRA","KINGCOBRA",3,0.5,120,"no effect"
"ssfOUT_120_2_3_KINGCOBRA.26",0.490825298004595,-0.0235862186865859,1.00523681469578,"ssf","mf.ss","gamma","unif",5,"ssfOUT_120_2_3_KINGCOBRA","KINGCOBRA",3,0.5,120,"no effect"
"ssfOUT_120_2_3_KINGCOBRA.27",0.64382156970918,0.144222880248408,1.14342025916995,"ssf","mf.ss","gamma","unif",15,"ssfOUT_120_2_3_KINGCOBRA","KINGCOBRA",3,0.5,120,"preference"
"ssfOUT_120_2_3_KINGCOBRA.28",0.463402933357898,-0.0346767999852326,0.961482666701029,"ssf","mf.ss","gamma","unif",50,"ssfOUT_120_2_3_KINGCOBRA","KINGCOBRA",3,0.5,120,"no effect"
"ssfOUT_120_2_3_KINGCOBRA.29",0.479796716911103,-0.0128435201804351,0.972436954002641,"ssf","mf.ss","gamma","unif",158,"ssfOUT_120_2_3_KINGCOBRA","KINGCOBRA",3,0.5,120,"no effect"
"ssfOUT_120_2_3_KINGCOBRA.30",0.479959970324105,-0.0101620561503042,0.970081996798514,"ssf","mf.ss","gamma","unif",500,"ssfOUT_120_2_3_KINGCOBRA","KINGCOBRA",3,0.5,120,"no effect"
"ssfOUT_120_2_3_KINGCOBRA.31",0.167155188717861,-0.355256681744274,0.689567059179996,"ssf","mf.ss","exp","vonmises",5,"ssfOUT_120_2_3_KINGCOBRA","KINGCOBRA",3,0.5,120,"no effect"
"ssfOUT_120_2_3_KINGCOBRA.32",0.0101659895980625,-0.504416457996609,0.524748437192734,"ssf","mf.ss","exp","vonmises",15,"ssfOUT_120_2_3_KINGCOBRA","KINGCOBRA",3,0.5,120,"no effect"
"ssfOUT_120_2_3_KINGCOBRA.33",0.259021723314999,-0.223585683954926,0.741629130584923,"ssf","mf.ss","exp","vonmises",50,"ssfOUT_120_2_3_KINGCOBRA","KINGCOBRA",3,0.5,120,"no effect"
"ssfOUT_120_2_3_KINGCOBRA.34",0.264653151833379,-0.216624631259125,0.745930934925883,"ssf","mf.ss","exp","vonmises",158,"ssfOUT_120_2_3_KINGCOBRA","KINGCOBRA",3,0.5,120,"no effect"
"ssfOUT_120_2_3_KINGCOBRA.35",0.214234260354833,-0.267996168208649,0.696464688918315,"ssf","mf.ss","exp","vonmises",500,"ssfOUT_120_2_3_KINGCOBRA","KINGCOBRA",3,0.5,120,"no effect"
"ssfOUT_120_2_3_KINGCOBRA.36",0.174838787707225,-0.378292250737881,0.727969826152332,"ssf","mf.ss","exp","unif",5,"ssfOUT_120_2_3_KINGCOBRA","KINGCOBRA",3,0.5,120,"no effect"
"ssfOUT_120_2_3_KINGCOBRA.37",0.296620977290669,-0.196180657003044,0.789422611584383,"ssf","mf.ss","exp","unif",15,"ssfOUT_120_2_3_KINGCOBRA","KINGCOBRA",3,0.5,120,"no effect"
"ssfOUT_120_2_3_KINGCOBRA.38",0.300995898661852,-0.180786819089057,0.782778616412761,"ssf","mf.ss","exp","unif",50,"ssfOUT_120_2_3_KINGCOBRA","KINGCOBRA",3,0.5,120,"no effect"
"ssfOUT_120_2_3_KINGCOBRA.39",0.321676871782166,-0.160100697133413,0.803454440697745,"ssf","mf.ss","exp","unif",158,"ssfOUT_120_2_3_KINGCOBRA","KINGCOBRA",3,0.5,120,"no effect"
"ssfOUT_120_2_3_KINGCOBRA.40",0.254786890253831,-0.227254754988234,0.736828535495896,"ssf","mf.ss","exp","unif",500,"ssfOUT_120_2_3_KINGCOBRA","KINGCOBRA",3,0.5,120,"no effect"
"ssfOUT_120_2_4_BADGER.1",0.55361049543904,0.330322753832,0.776898237046081,"ssf","mf.is","gamma","vonmises",5,"ssfOUT_120_2_4_BADGER","BADGER",4,0.5,120,"preference"
"ssfOUT_120_2_4_BADGER.2",0.417470061554528,0.203019709967546,0.63192041314151,"ssf","mf.is","gamma","vonmises",15,"ssfOUT_120_2_4_BADGER","BADGER",4,0.5,120,"preference"
"ssfOUT_120_2_4_BADGER.3",0.489357564652371,0.280150470288293,0.698564659016449,"ssf","mf.is","gamma","vonmises",50,"ssfOUT_120_2_4_BADGER","BADGER",4,0.5,120,"preference"
"ssfOUT_120_2_4_BADGER.4",0.432428691313363,0.224875895003814,0.639981487622911,"ssf","mf.is","gamma","vonmises",158,"ssfOUT_120_2_4_BADGER","BADGER",4,0.5,120,"preference"
"ssfOUT_120_2_4_BADGER.5",0.470706152122321,0.26333539391831,0.678076910326333,"ssf","mf.is","gamma","vonmises",500,"ssfOUT_120_2_4_BADGER","BADGER",4,0.5,120,"preference"
"ssfOUT_120_2_4_BADGER.6",0.558048519410401,0.335067737433208,0.781029301387595,"ssf","mf.is","gamma","unif",5,"ssfOUT_120_2_4_BADGER","BADGER",4,0.5,120,"preference"
"ssfOUT_120_2_4_BADGER.7",0.439071827000064,0.22564828073674,0.652495373263387,"ssf","mf.is","gamma","unif",15,"ssfOUT_120_2_4_BADGER","BADGER",4,0.5,120,"preference"
"ssfOUT_120_2_4_BADGER.8",0.449207905568289,0.24066305631334,0.657752754823238,"ssf","mf.is","gamma","unif",50,"ssfOUT_120_2_4_BADGER","BADGER",4,0.5,120,"preference"
"ssfOUT_120_2_4_BADGER.9",0.449624184672356,0.241783177751468,0.657465191593245,"ssf","mf.is","gamma","unif",158,"ssfOUT_120_2_4_BADGER","BADGER",4,0.5,120,"preference"
"ssfOUT_120_2_4_BADGER.10",0.463844035910374,0.256969976952913,0.670718094867835,"ssf","mf.is","gamma","unif",500,"ssfOUT_120_2_4_BADGER","BADGER",4,0.5,120,"preference"
"ssfOUT_120_2_4_BADGER.11",0.414074906477523,0.19195442077831,0.636195392176736,"ssf","mf.is","exp","vonmises",5,"ssfOUT_120_2_4_BADGER","BADGER",4,0.5,120,"preference"
"ssfOUT_120_2_4_BADGER.12",0.371988428720451,0.15899338153499,0.584983475905911,"ssf","mf.is","exp","vonmises",15,"ssfOUT_120_2_4_BADGER","BADGER",4,0.5,120,"preference"
"ssfOUT_120_2_4_BADGER.13",0.426265445121074,0.217774688995945,0.634756201246203,"ssf","mf.is","exp","vonmises",50,"ssfOUT_120_2_4_BADGER","BADGER",4,0.5,120,"preference"
"ssfOUT_120_2_4_BADGER.14",0.449078476477195,0.241272569639952,0.656884383314439,"ssf","mf.is","exp","vonmises",158,"ssfOUT_120_2_4_BADGER","BADGER",4,0.5,120,"preference"
"ssfOUT_120_2_4_BADGER.15",0.462331770774852,0.255139411002489,0.669524130547214,"ssf","mf.is","exp","vonmises",500,"ssfOUT_120_2_4_BADGER","BADGER",4,0.5,120,"preference"
"ssfOUT_120_2_4_BADGER.16",0.411482471663367,0.187674593297594,0.63529035002914,"ssf","mf.is","exp","unif",5,"ssfOUT_120_2_4_BADGER","BADGER",4,0.5,120,"preference"
"ssfOUT_120_2_4_BADGER.17",0.461629390728028,0.248009054298773,0.675249727157283,"ssf","mf.is","exp","unif",15,"ssfOUT_120_2_4_BADGER","BADGER",4,0.5,120,"preference"
"ssfOUT_120_2_4_BADGER.18",0.471285506347465,0.262820744643006,0.679750268051925,"ssf","mf.is","exp","unif",50,"ssfOUT_120_2_4_BADGER","BADGER",4,0.5,120,"preference"
"ssfOUT_120_2_4_BADGER.19",0.460821886834198,0.253309372101707,0.668334401566689,"ssf","mf.is","exp","unif",158,"ssfOUT_120_2_4_BADGER","BADGER",4,0.5,120,"preference"
"ssfOUT_120_2_4_BADGER.20",0.45805132532283,0.250719128950262,0.665383521695397,"ssf","mf.is","exp","unif",500,"ssfOUT_120_2_4_BADGER","BADGER",4,0.5,120,"preference"
"ssfOUT_120_2_4_BADGER.21",0.543917311914952,0.320456625720204,0.7673779981097,"ssf","mf.ss","gamma","vonmises",5,"ssfOUT_120_2_4_BADGER","BADGER",4,0.5,120,"preference"
"ssfOUT_120_2_4_BADGER.22",0.411111439912254,0.196473150821149,0.625749729003359,"ssf","mf.ss","gamma","vonmises",15,"ssfOUT_120_2_4_BADGER","BADGER",4,0.5,120,"preference"
"ssfOUT_120_2_4_BADGER.23",0.48433220918408,0.274969215347384,0.693695203020776,"ssf","mf.ss","gamma","vonmises",50,"ssfOUT_120_2_4_BADGER","BADGER",4,0.5,120,"preference"
"ssfOUT_120_2_4_BADGER.24",0.428155431082167,0.220436015614283,0.63587484655005,"ssf","mf.ss","gamma","vonmises",158,"ssfOUT_120_2_4_BADGER","BADGER",4,0.5,120,"preference"
"ssfOUT_120_2_4_BADGER.25",0.466740040162746,0.259198065560788,0.674282014764704,"ssf","mf.ss","gamma","vonmises",500,"ssfOUT_120_2_4_BADGER","BADGER",4,0.5,120,"preference"
"ssfOUT_120_2_4_BADGER.26",0.549811954454488,0.326783421872073,0.772840487036903,"ssf","mf.ss","gamma","unif",5,"ssfOUT_120_2_4_BADGER","BADGER",4,0.5,120,"preference"
"ssfOUT_120_2_4_BADGER.27",0.4356434313717,0.221831901402012,0.649454961341388,"ssf","mf.ss","gamma","unif",15,"ssfOUT_120_2_4_BADGER","BADGER",4,0.5,120,"preference"
"ssfOUT_120_2_4_BADGER.28",0.443967134171173,0.235132321674702,0.652801946667643,"ssf","mf.ss","gamma","unif",50,"ssfOUT_120_2_4_BADGER","BADGER",4,0.5,120,"preference"
"ssfOUT_120_2_4_BADGER.29",0.447478267896205,0.239412920555563,0.655543615236846,"ssf","mf.ss","gamma","unif",158,"ssfOUT_120_2_4_BADGER","BADGER",4,0.5,120,"preference"
"ssfOUT_120_2_4_BADGER.30",0.46119299084826,0.254133244550877,0.668252737145643,"ssf","mf.ss","gamma","unif",500,"ssfOUT_120_2_4_BADGER","BADGER",4,0.5,120,"preference"
"ssfOUT_120_2_4_BADGER.31",0.405602380445388,0.183277565882342,0.627927195008434,"ssf","mf.ss","exp","vonmises",5,"ssfOUT_120_2_4_BADGER","BADGER",4,0.5,120,"preference"
"ssfOUT_120_2_4_BADGER.32",0.361741390919801,0.148275380500116,0.575207401339485,"ssf","mf.ss","exp","vonmises",15,"ssfOUT_120_2_4_BADGER","BADGER",4,0.5,120,"preference"
"ssfOUT_120_2_4_BADGER.33",0.416325347402045,0.207288945262058,0.625361749542033,"ssf","mf.ss","exp","vonmises",50,"ssfOUT_120_2_4_BADGER","BADGER",4,0.5,120,"preference"
"ssfOUT_120_2_4_BADGER.34",0.43565193959206,0.227220303279118,0.644083575905003,"ssf","mf.ss","exp","vonmises",158,"ssfOUT_120_2_4_BADGER","BADGER",4,0.5,120,"preference"
"ssfOUT_120_2_4_BADGER.35",0.4518598703059,0.243944621183328,0.659775119428472,"ssf","mf.ss","exp","vonmises",500,"ssfOUT_120_2_4_BADGER","BADGER",4,0.5,120,"preference"
"ssfOUT_120_2_4_BADGER.36",0.401410361342193,0.177299921304478,0.625520801379908,"ssf","mf.ss","exp","unif",5,"ssfOUT_120_2_4_BADGER","BADGER",4,0.5,120,"preference"
"ssfOUT_120_2_4_BADGER.37",0.458579048243796,0.244313630969711,0.672844465517881,"ssf","mf.ss","exp","unif",15,"ssfOUT_120_2_4_BADGER","BADGER",4,0.5,120,"preference"
"ssfOUT_120_2_4_BADGER.38",0.462902902345404,0.253896607606489,0.671909197084318,"ssf","mf.ss","exp","unif",50,"ssfOUT_120_2_4_BADGER","BADGER",4,0.5,120,"preference"
"ssfOUT_120_2_4_BADGER.39",0.454105205132653,0.245925601571313,0.662284808693993,"ssf","mf.ss","exp","unif",158,"ssfOUT_120_2_4_BADGER","BADGER",4,0.5,120,"preference"
"ssfOUT_120_2_4_BADGER.40",0.45200772232141,0.244004833852598,0.660010610790222,"ssf","mf.ss","exp","unif",500,"ssfOUT_120_2_4_BADGER","BADGER",4,0.5,120,"preference"
"ssfOUT_120_2_4_VULTURE.1",0.321636609382603,0.104220978241335,0.539052240523871,"ssf","mf.is","gamma","vonmises",5,"ssfOUT_120_2_4_VULTURE","VULTURE",4,0.5,120,"preference"
"ssfOUT_120_2_4_VULTURE.2",0.305494895199601,0.097827603296016,0.513162187103186,"ssf","mf.is","gamma","vonmises",15,"ssfOUT_120_2_4_VULTURE","VULTURE",4,0.5,120,"preference"
"ssfOUT_120_2_4_VULTURE.3",0.31697489031447,0.112838587637397,0.521111192991543,"ssf","mf.is","gamma","vonmises",50,"ssfOUT_120_2_4_VULTURE","VULTURE",4,0.5,120,"preference"
"ssfOUT_120_2_4_VULTURE.4",0.285690417935406,0.0828029614745463,0.488577874396265,"ssf","mf.is","gamma","vonmises",158,"ssfOUT_120_2_4_VULTURE","VULTURE",4,0.5,120,"preference"
"ssfOUT_120_2_4_VULTURE.5",0.30664311526345,0.104200182362093,0.509086048164806,"ssf","mf.is","gamma","vonmises",500,"ssfOUT_120_2_4_VULTURE","VULTURE",4,0.5,120,"preference"
"ssfOUT_120_2_4_VULTURE.6",0.237729924293812,0.0187676653348463,0.456692183252778,"ssf","mf.is","gamma","unif",5,"ssfOUT_120_2_4_VULTURE","VULTURE",4,0.5,120,"preference"
"ssfOUT_120_2_4_VULTURE.7",0.275630512986747,0.0679917920367154,0.483269233936778,"ssf","mf.is","gamma","unif",15,"ssfOUT_120_2_4_VULTURE","VULTURE",4,0.5,120,"preference"
"ssfOUT_120_2_4_VULTURE.8",0.278424648580167,0.0742552003351525,0.482594096825181,"ssf","mf.is","gamma","unif",50,"ssfOUT_120_2_4_VULTURE","VULTURE",4,0.5,120,"preference"
"ssfOUT_120_2_4_VULTURE.9",0.301154744862536,0.0982543082052791,0.504055181519793,"ssf","mf.is","gamma","unif",158,"ssfOUT_120_2_4_VULTURE","VULTURE",4,0.5,120,"preference"
"ssfOUT_120_2_4_VULTURE.10",0.299406860066616,0.0968893740857252,0.501924346047506,"ssf","mf.is","gamma","unif",500,"ssfOUT_120_2_4_VULTURE","VULTURE",4,0.5,120,"preference"
"ssfOUT_120_2_4_VULTURE.11",0.328743425142542,0.107528503688319,0.549958346596764,"ssf","mf.is","exp","vonmises",5,"ssfOUT_120_2_4_VULTURE","VULTURE",4,0.5,120,"preference"
"ssfOUT_120_2_4_VULTURE.12",0.243039435148283,0.0334623562776077,0.452616514018959,"ssf","mf.is","exp","vonmises",15,"ssfOUT_120_2_4_VULTURE","VULTURE",4,0.5,120,"preference"
"ssfOUT_120_2_4_VULTURE.13",0.3349186872014,0.130457350372605,0.539380024030196,"ssf","mf.is","exp","vonmises",50,"ssfOUT_120_2_4_VULTURE","VULTURE",4,0.5,120,"preference"
"ssfOUT_120_2_4_VULTURE.14",0.292765988019439,0.0898242028849642,0.495707773153913,"ssf","mf.is","exp","vonmises",158,"ssfOUT_120_2_4_VULTURE","VULTURE",4,0.5,120,"preference"
"ssfOUT_120_2_4_VULTURE.15",0.294464858214793,0.0919217987742252,0.497007917655361,"ssf","mf.is","exp","vonmises",500,"ssfOUT_120_2_4_VULTURE","VULTURE",4,0.5,120,"preference"
"ssfOUT_120_2_4_VULTURE.16",0.248732091174149,0.0229765371188264,0.474487645229471,"ssf","mf.is","exp","unif",5,"ssfOUT_120_2_4_VULTURE","VULTURE",4,0.5,120,"preference"
"ssfOUT_120_2_4_VULTURE.17",0.275600650504973,0.06599075059103,0.485210550418915,"ssf","mf.is","exp","unif",15,"ssfOUT_120_2_4_VULTURE","VULTURE",4,0.5,120,"preference"
"ssfOUT_120_2_4_VULTURE.18",0.332147845870477,0.127677703647066,0.536617988093889,"ssf","mf.is","exp","unif",50,"ssfOUT_120_2_4_VULTURE","VULTURE",4,0.5,120,"preference"
"ssfOUT_120_2_4_VULTURE.19",0.329039749771072,0.126086871553388,0.531992627988757,"ssf","mf.is","exp","unif",158,"ssfOUT_120_2_4_VULTURE","VULTURE",4,0.5,120,"preference"
"ssfOUT_120_2_4_VULTURE.20",0.280394441202734,0.0777548196037508,0.483034062801716,"ssf","mf.is","exp","unif",500,"ssfOUT_120_2_4_VULTURE","VULTURE",4,0.5,120,"preference"
"ssfOUT_120_2_4_VULTURE.21",0.320202938739473,0.102866368428617,0.537539509050328,"ssf","mf.ss","gamma","vonmises",5,"ssfOUT_120_2_4_VULTURE","VULTURE",4,0.5,120,"preference"
"ssfOUT_120_2_4_VULTURE.22",0.306543360972738,0.0989586867720518,0.514128035173424,"ssf","mf.ss","gamma","vonmises",15,"ssfOUT_120_2_4_VULTURE","VULTURE",4,0.5,120,"preference"
"ssfOUT_120_2_4_VULTURE.23",0.316880761187484,0.112815844253095,0.520945678121873,"ssf","mf.ss","gamma","vonmises",50,"ssfOUT_120_2_4_VULTURE","VULTURE",4,0.5,120,"preference"
"ssfOUT_120_2_4_VULTURE.24",0.286154552343173,0.0833453553600269,0.488963749326319,"ssf","mf.ss","gamma","vonmises",158,"ssfOUT_120_2_4_VULTURE","VULTURE",4,0.5,120,"preference"
"ssfOUT_120_2_4_VULTURE.25",0.305976870724952,0.103584643580947,0.508369097868957,"ssf","mf.ss","gamma","vonmises",500,"ssfOUT_120_2_4_VULTURE","VULTURE",4,0.5,120,"preference"
"ssfOUT_120_2_4_VULTURE.26",0.229386582099204,0.0110106210616159,0.447762543136793,"ssf","mf.ss","gamma","unif",5,"ssfOUT_120_2_4_VULTURE","VULTURE",4,0.5,120,"preference"
"ssfOUT_120_2_4_VULTURE.27",0.289400735126706,0.0818867781609882,0.496914692092424,"ssf","mf.ss","gamma","unif",15,"ssfOUT_120_2_4_VULTURE","VULTURE",4,0.5,120,"preference"
"ssfOUT_120_2_4_VULTURE.28",0.280314248802461,0.0762911605605841,0.484337337044337,"ssf","mf.ss","gamma","unif",50,"ssfOUT_120_2_4_VULTURE","VULTURE",4,0.5,120,"preference"
"ssfOUT_120_2_4_VULTURE.29",0.305250955535122,0.102462803941572,0.508039107128672,"ssf","mf.ss","gamma","unif",158,"ssfOUT_120_2_4_VULTURE","VULTURE",4,0.5,120,"preference"
"ssfOUT_120_2_4_VULTURE.30",0.303678703919016,0.101248661628885,0.506108746209147,"ssf","mf.ss","gamma","unif",500,"ssfOUT_120_2_4_VULTURE","VULTURE",4,0.5,120,"preference"
"ssfOUT_120_2_4_VULTURE.31",0.344507498243903,0.127601953935649,0.561413042552157,"ssf","mf.ss","exp","vonmises",5,"ssfOUT_120_2_4_VULTURE","VULTURE",4,0.5,120,"preference"
"ssfOUT_120_2_4_VULTURE.32",0.291455263813742,0.0830324454190271,0.499878082208456,"ssf","mf.ss","exp","vonmises",15,"ssfOUT_120_2_4_VULTURE","VULTURE",4,0.5,120,"preference"
"ssfOUT_120_2_4_VULTURE.33",0.340957097613854,0.135972275261604,0.545941919966103,"ssf","mf.ss","exp","vonmises",50,"ssfOUT_120_2_4_VULTURE","VULTURE",4,0.5,120,"preference"
"ssfOUT_120_2_4_VULTURE.34",0.313149503006721,0.109334221973019,0.516964784040424,"ssf","mf.ss","exp","vonmises",158,"ssfOUT_120_2_4_VULTURE","VULTURE",4,0.5,120,"preference"
"ssfOUT_120_2_4_VULTURE.35",0.319444844417313,0.115705583139896,0.523184105694729,"ssf","mf.ss","exp","vonmises",500,"ssfOUT_120_2_4_VULTURE","VULTURE",4,0.5,120,"preference"
"ssfOUT_120_2_4_VULTURE.36",0.319632437521854,0.10009348500283,0.539171390040877,"ssf","mf.ss","exp","unif",5,"ssfOUT_120_2_4_VULTURE","VULTURE",4,0.5,120,"preference"
"ssfOUT_120_2_4_VULTURE.37",0.287298193404949,0.0785372996782826,0.496059087131616,"ssf","mf.ss","exp","unif",15,"ssfOUT_120_2_4_VULTURE","VULTURE",4,0.5,120,"preference"
"ssfOUT_120_2_4_VULTURE.38",0.345526147120431,0.140631159326324,0.550421134914539,"ssf","mf.ss","exp","unif",50,"ssfOUT_120_2_4_VULTURE","VULTURE",4,0.5,120,"preference"
"ssfOUT_120_2_4_VULTURE.39",0.338704915124144,0.134694622810104,0.542715207438185,"ssf","mf.ss","exp","unif",158,"ssfOUT_120_2_4_VULTURE","VULTURE",4,0.5,120,"preference"
"ssfOUT_120_2_4_VULTURE.40",0.306014619220571,0.102250256360719,0.509778982080423,"ssf","mf.ss","exp","unif",500,"ssfOUT_120_2_4_VULTURE","VULTURE",4,0.5,120,"preference"
"ssfOUT_120_2_4_KINGCOBRA.1",1.30963615809762,0.788288832670801,1.83098348352444,"ssf","mf.is","gamma","vonmises",5,"ssfOUT_120_2_4_KINGCOBRA","KINGCOBRA",4,0.5,120,"preference"
"ssfOUT_120_2_4_KINGCOBRA.2",1.37220543859769,0.861663921486441,1.88274695570895,"ssf","mf.is","gamma","vonmises",15,"ssfOUT_120_2_4_KINGCOBRA","KINGCOBRA",4,0.5,120,"preference"
"ssfOUT_120_2_4_KINGCOBRA.3",1.32300447837653,0.814754602416503,1.83125435433657,"ssf","mf.is","gamma","vonmises",50,"ssfOUT_120_2_4_KINGCOBRA","KINGCOBRA",4,0.5,120,"preference"
"ssfOUT_120_2_4_KINGCOBRA.4",1.28175109521227,0.775038848128653,1.78846334229588,"ssf","mf.is","gamma","vonmises",158,"ssfOUT_120_2_4_KINGCOBRA","KINGCOBRA",4,0.5,120,"preference"
"ssfOUT_120_2_4_KINGCOBRA.5",1.28798875993285,0.78154890516463,1.79442861470107,"ssf","mf.is","gamma","vonmises",500,"ssfOUT_120_2_4_KINGCOBRA","KINGCOBRA",4,0.5,120,"preference"
"ssfOUT_120_2_4_KINGCOBRA.6",1.42948122143235,0.908571644549576,1.95039079831512,"ssf","mf.is","gamma","unif",5,"ssfOUT_120_2_4_KINGCOBRA","KINGCOBRA",4,0.5,120,"preference"
"ssfOUT_120_2_4_KINGCOBRA.7",1.25530800425055,0.745638340639482,1.76497766786161,"ssf","mf.is","gamma","unif",15,"ssfOUT_120_2_4_KINGCOBRA","KINGCOBRA",4,0.5,120,"preference"
"ssfOUT_120_2_4_KINGCOBRA.8",1.24273417249115,0.734787116798275,1.75068122818402,"ssf","mf.is","gamma","unif",50,"ssfOUT_120_2_4_KINGCOBRA","KINGCOBRA",4,0.5,120,"preference"
"ssfOUT_120_2_4_KINGCOBRA.9",1.25684536138404,0.749707992018935,1.76398273074915,"ssf","mf.is","gamma","unif",158,"ssfOUT_120_2_4_KINGCOBRA","KINGCOBRA",4,0.5,120,"preference"
"ssfOUT_120_2_4_KINGCOBRA.10",1.278598702496,0.771952152367017,1.78524525262499,"ssf","mf.is","gamma","unif",500,"ssfOUT_120_2_4_KINGCOBRA","KINGCOBRA",4,0.5,120,"preference"
"ssfOUT_120_2_4_KINGCOBRA.11",1.12216003822178,0.598584620382177,1.64573545606138,"ssf","mf.is","exp","vonmises",5,"ssfOUT_120_2_4_KINGCOBRA","KINGCOBRA",4,0.5,120,"preference"
"ssfOUT_120_2_4_KINGCOBRA.12",1.26545388256241,0.754577145834455,1.77633061929036,"ssf","mf.is","exp","vonmises",15,"ssfOUT_120_2_4_KINGCOBRA","KINGCOBRA",4,0.5,120,"preference"
"ssfOUT_120_2_4_KINGCOBRA.13",1.35076630391439,0.834876721530669,1.86665588629812,"ssf","mf.is","exp","vonmises",50,"ssfOUT_120_2_4_KINGCOBRA","KINGCOBRA",4,0.5,120,"preference"
"ssfOUT_120_2_4_KINGCOBRA.14",1.27697780509015,0.768576782017951,1.78537882816235,"ssf","mf.is","exp","vonmises",158,"ssfOUT_120_2_4_KINGCOBRA","KINGCOBRA",4,0.5,120,"preference"
"ssfOUT_120_2_4_KINGCOBRA.15",1.2683030820902,0.759200999975107,1.77740516420529,"ssf","mf.is","exp","vonmises",500,"ssfOUT_120_2_4_KINGCOBRA","KINGCOBRA",4,0.5,120,"preference"
"ssfOUT_120_2_4_KINGCOBRA.16",1.4139575526972,0.886687802502276,1.94122730289213,"ssf","mf.is","exp","unif",5,"ssfOUT_120_2_4_KINGCOBRA","KINGCOBRA",4,0.5,120,"preference"
"ssfOUT_120_2_4_KINGCOBRA.17",1.3108931834363,0.795103811454973,1.82668255541763,"ssf","mf.is","exp","unif",15,"ssfOUT_120_2_4_KINGCOBRA","KINGCOBRA",4,0.5,120,"preference"
"ssfOUT_120_2_4_KINGCOBRA.18",1.3686127065772,0.857160046748709,1.88006536640569,"ssf","mf.is","exp","unif",50,"ssfOUT_120_2_4_KINGCOBRA","KINGCOBRA",4,0.5,120,"preference"
"ssfOUT_120_2_4_KINGCOBRA.19",1.35556937751141,0.821916093224397,1.88922266179842,"ssf","mf.is","exp","unif",158,"ssfOUT_120_2_4_KINGCOBRA","KINGCOBRA",4,0.5,120,"preference"
"ssfOUT_120_2_4_KINGCOBRA.20",1.21916466731819,0.711048036721437,1.72728129791494,"ssf","mf.is","exp","unif",500,"ssfOUT_120_2_4_KINGCOBRA","KINGCOBRA",4,0.5,120,"preference"
"ssfOUT_120_2_4_KINGCOBRA.21",1.29357369265996,0.774452482122367,1.81269490319755,"ssf","mf.ss","gamma","vonmises",5,"ssfOUT_120_2_4_KINGCOBRA","KINGCOBRA",4,0.5,120,"preference"
"ssfOUT_120_2_4_KINGCOBRA.22",1.30767891454348,0.798512472322035,1.81684535676493,"ssf","mf.ss","gamma","vonmises",15,"ssfOUT_120_2_4_KINGCOBRA","KINGCOBRA",4,0.5,120,"preference"
"ssfOUT_120_2_4_KINGCOBRA.23",1.29843435274819,0.790353843019703,1.80651486247668,"ssf","mf.ss","gamma","vonmises",50,"ssfOUT_120_2_4_KINGCOBRA","KINGCOBRA",4,0.5,120,"preference"
"ssfOUT_120_2_4_KINGCOBRA.24",1.2847605829486,0.778106975699098,1.79141419019809,"ssf","mf.ss","gamma","vonmises",158,"ssfOUT_120_2_4_KINGCOBRA","KINGCOBRA",4,0.5,120,"preference"
"ssfOUT_120_2_4_KINGCOBRA.25",1.28091480811162,0.774647907467683,1.78718170875555,"ssf","mf.ss","gamma","vonmises",500,"ssfOUT_120_2_4_KINGCOBRA","KINGCOBRA",4,0.5,120,"preference"
"ssfOUT_120_2_4_KINGCOBRA.26",1.44429758514134,0.922349938524443,1.96624523175823,"ssf","mf.ss","gamma","unif",5,"ssfOUT_120_2_4_KINGCOBRA","KINGCOBRA",4,0.5,120,"preference"
"ssfOUT_120_2_4_KINGCOBRA.27",1.25962220816121,0.750346504075874,1.76889791224654,"ssf","mf.ss","gamma","unif",15,"ssfOUT_120_2_4_KINGCOBRA","KINGCOBRA",4,0.5,120,"preference"
"ssfOUT_120_2_4_KINGCOBRA.28",1.23074031627207,0.723120516502485,1.73836011604166,"ssf","mf.ss","gamma","unif",50,"ssfOUT_120_2_4_KINGCOBRA","KINGCOBRA",4,0.5,120,"preference"
"ssfOUT_120_2_4_KINGCOBRA.29",1.24985934399326,0.743042632231705,1.75667605575481,"ssf","mf.ss","gamma","unif",158,"ssfOUT_120_2_4_KINGCOBRA","KINGCOBRA",4,0.5,120,"preference"
"ssfOUT_120_2_4_KINGCOBRA.30",1.27161781929772,0.765327781142237,1.7779078574532,"ssf","mf.ss","gamma","unif",500,"ssfOUT_120_2_4_KINGCOBRA","KINGCOBRA",4,0.5,120,"preference"
"ssfOUT_120_2_4_KINGCOBRA.31",1.27519291572007,0.758080586352866,1.79230524508727,"ssf","mf.ss","exp","vonmises",5,"ssfOUT_120_2_4_KINGCOBRA","KINGCOBRA",4,0.5,120,"preference"
"ssfOUT_120_2_4_KINGCOBRA.32",1.38005853017423,0.872854047497276,1.88726301285119,"ssf","mf.ss","exp","vonmises",15,"ssfOUT_120_2_4_KINGCOBRA","KINGCOBRA",4,0.5,120,"preference"
"ssfOUT_120_2_4_KINGCOBRA.33",1.34911109334648,0.844090519758175,1.85413166693479,"ssf","mf.ss","exp","vonmises",50,"ssfOUT_120_2_4_KINGCOBRA","KINGCOBRA",4,0.5,120,"preference"
"ssfOUT_120_2_4_KINGCOBRA.34",1.38327463086804,0.879605217126451,1.88694404460963,"ssf","mf.ss","exp","vonmises",158,"ssfOUT_120_2_4_KINGCOBRA","KINGCOBRA",4,0.5,120,"preference"
"ssfOUT_120_2_4_KINGCOBRA.35",1.37605619287415,0.872477496468635,1.87963488927967,"ssf","mf.ss","exp","vonmises",500,"ssfOUT_120_2_4_KINGCOBRA","KINGCOBRA",4,0.5,120,"preference"
"ssfOUT_120_2_4_KINGCOBRA.36",1.39998431773977,0.885475214597304,1.91449342088223,"ssf","mf.ss","exp","unif",5,"ssfOUT_120_2_4_KINGCOBRA","KINGCOBRA",4,0.5,120,"preference"
"ssfOUT_120_2_4_KINGCOBRA.37",1.34338300539422,0.835391235097669,1.85137477569077,"ssf","mf.ss","exp","unif",15,"ssfOUT_120_2_4_KINGCOBRA","KINGCOBRA",4,0.5,120,"preference"
"ssfOUT_120_2_4_KINGCOBRA.38",1.4463668356822,0.941580986939302,1.95115268442511,"ssf","mf.ss","exp","unif",50,"ssfOUT_120_2_4_KINGCOBRA","KINGCOBRA",4,0.5,120,"preference"
"ssfOUT_120_2_4_KINGCOBRA.39",1.33695488040557,0.833206549543266,1.84070321126788,"ssf","mf.ss","exp","unif",158,"ssfOUT_120_2_4_KINGCOBRA","KINGCOBRA",4,0.5,120,"preference"
"ssfOUT_120_2_4_KINGCOBRA.40",1.3587765068047,0.855308244607294,1.86224476900211,"ssf","mf.ss","exp","unif",500,"ssfOUT_120_2_4_KINGCOBRA","KINGCOBRA",4,0.5,120,"preference"
"ssfOUT_120_6_1_BADGER.1",0.574901077173492,0.0357057333278666,1.11409642101912,"ssf","mf.is","gamma","vonmises",5,"ssfOUT_120_6_1_BADGER","BADGER",1,0.166666666666667,120,"preference"
"ssfOUT_120_6_1_BADGER.2",0.630157918897988,0.106081964150371,1.15423387364561,"ssf","mf.is","gamma","vonmises",15,"ssfOUT_120_6_1_BADGER","BADGER",1,0.166666666666667,120,"preference"
"ssfOUT_120_6_1_BADGER.3",0.74461551438628,0.230174637055946,1.25905639171661,"ssf","mf.is","gamma","vonmises",50,"ssfOUT_120_6_1_BADGER","BADGER",1,0.166666666666667,120,"preference"
"ssfOUT_120_6_1_BADGER.4",0.746939689132319,0.23519707410634,1.2586823041583,"ssf","mf.is","gamma","vonmises",158,"ssfOUT_120_6_1_BADGER","BADGER",1,0.166666666666667,120,"preference"
"ssfOUT_120_6_1_BADGER.5",0.691459769038142,0.179749071191596,1.20317046688469,"ssf","mf.is","gamma","vonmises",500,"ssfOUT_120_6_1_BADGER","BADGER",1,0.166666666666667,120,"preference"
"ssfOUT_120_6_1_BADGER.6",0.978165440473795,0.44280519588484,1.51352568506275,"ssf","mf.is","gamma","unif",5,"ssfOUT_120_6_1_BADGER","BADGER",1,0.166666666666667,120,"preference"
"ssfOUT_120_6_1_BADGER.7",0.765733839255965,0.244282383108209,1.28718529540372,"ssf","mf.is","gamma","unif",15,"ssfOUT_120_6_1_BADGER","BADGER",1,0.166666666666667,120,"preference"
"ssfOUT_120_6_1_BADGER.8",0.711516722192656,0.199264158255077,1.22376928613024,"ssf","mf.is","gamma","unif",50,"ssfOUT_120_6_1_BADGER","BADGER",1,0.166666666666667,120,"preference"
"ssfOUT_120_6_1_BADGER.9",0.719266694861674,0.207666781248525,1.23086660847482,"ssf","mf.is","gamma","unif",158,"ssfOUT_120_6_1_BADGER","BADGER",1,0.166666666666667,120,"preference"
"ssfOUT_120_6_1_BADGER.10",0.686532187193597,0.175655212364728,1.19740916202247,"ssf","mf.is","gamma","unif",500,"ssfOUT_120_6_1_BADGER","BADGER",1,0.166666666666667,120,"preference"
"ssfOUT_120_6_1_BADGER.11",0.95092173370593,0.408816363090626,1.49302710432123,"ssf","mf.is","exp","vonmises",5,"ssfOUT_120_6_1_BADGER","BADGER",1,0.166666666666667,120,"preference"
"ssfOUT_120_6_1_BADGER.12",0.761631902462083,0.241145042684508,1.28211876223966,"ssf","mf.is","exp","vonmises",15,"ssfOUT_120_6_1_BADGER","BADGER",1,0.166666666666667,120,"preference"
"ssfOUT_120_6_1_BADGER.13",0.666499490475646,0.151189531083749,1.18180944986754,"ssf","mf.is","exp","vonmises",50,"ssfOUT_120_6_1_BADGER","BADGER",1,0.166666666666667,120,"preference"
"ssfOUT_120_6_1_BADGER.14",0.7728399935215,0.259621405852451,1.28605858119055,"ssf","mf.is","exp","vonmises",158,"ssfOUT_120_6_1_BADGER","BADGER",1,0.166666666666667,120,"preference"
"ssfOUT_120_6_1_BADGER.15",0.738839027519742,0.226949534474027,1.25072852056546,"ssf","mf.is","exp","vonmises",500,"ssfOUT_120_6_1_BADGER","BADGER",1,0.166666666666667,120,"preference"
"ssfOUT_120_6_1_BADGER.16",0.57997120586816,0.0170802181194186,1.1428621936169,"ssf","mf.is","exp","unif",5,"ssfOUT_120_6_1_BADGER","BADGER",1,0.166666666666667,120,"preference"
"ssfOUT_120_6_1_BADGER.17",0.682145275495358,0.160395986772505,1.20389456421821,"ssf","mf.is","exp","unif",15,"ssfOUT_120_6_1_BADGER","BADGER",1,0.166666666666667,120,"preference"
"ssfOUT_120_6_1_BADGER.18",0.632726500222886,0.12024757599563,1.14520542445014,"ssf","mf.is","exp","unif",50,"ssfOUT_120_6_1_BADGER","BADGER",1,0.166666666666667,120,"preference"
"ssfOUT_120_6_1_BADGER.19",0.714487826120673,0.202626922038094,1.22634873020325,"ssf","mf.is","exp","unif",158,"ssfOUT_120_6_1_BADGER","BADGER",1,0.166666666666667,120,"preference"
"ssfOUT_120_6_1_BADGER.20",0.717781213908717,0.206410744639218,1.22915168317822,"ssf","mf.is","exp","unif",500,"ssfOUT_120_6_1_BADGER","BADGER",1,0.166666666666667,120,"preference"
"ssfOUT_120_6_1_BADGER.21",0.601671769599859,0.0639898988153075,1.13935364038441,"ssf","mf.ss","gamma","vonmises",5,"ssfOUT_120_6_1_BADGER","BADGER",1,0.166666666666667,120,"preference"
"ssfOUT_120_6_1_BADGER.22",0.646922557766747,0.126239150154254,1.16760596537924,"ssf","mf.ss","gamma","vonmises",15,"ssfOUT_120_6_1_BADGER","BADGER",1,0.166666666666667,120,"preference"
"ssfOUT_120_6_1_BADGER.23",0.647266987584639,0.133837438629205,1.16069653654007,"ssf","mf.ss","gamma","vonmises",50,"ssfOUT_120_6_1_BADGER","BADGER",1,0.166666666666667,120,"preference"
"ssfOUT_120_6_1_BADGER.24",0.681806125919844,0.170884658451727,1.19272759338796,"ssf","mf.ss","gamma","vonmises",158,"ssfOUT_120_6_1_BADGER","BADGER",1,0.166666666666667,120,"preference"
"ssfOUT_120_6_1_BADGER.25",0.629350706379893,0.118737000921215,1.13996441183857,"ssf","mf.ss","gamma","vonmises",500,"ssfOUT_120_6_1_BADGER","BADGER",1,0.166666666666667,120,"preference"
"ssfOUT_120_6_1_BADGER.26",0.951075284200683,0.417227621783645,1.48492294661772,"ssf","mf.ss","gamma","unif",5,"ssfOUT_120_6_1_BADGER","BADGER",1,0.166666666666667,120,"preference"
"ssfOUT_120_6_1_BADGER.27",0.757107919742394,0.236460216016467,1.27775562346832,"ssf","mf.ss","gamma","unif",15,"ssfOUT_120_6_1_BADGER","BADGER",1,0.166666666666667,120,"preference"
"ssfOUT_120_6_1_BADGER.28",0.662903058233072,0.151640767875412,1.17416534859073,"ssf","mf.ss","gamma","unif",50,"ssfOUT_120_6_1_BADGER","BADGER",1,0.166666666666667,120,"preference"
"ssfOUT_120_6_1_BADGER.29",0.688450195181899,0.177467676968931,1.19943271339487,"ssf","mf.ss","gamma","unif",158,"ssfOUT_120_6_1_BADGER","BADGER",1,0.166666666666667,120,"preference"
"ssfOUT_120_6_1_BADGER.30",0.65425503276003,0.1441683811727,1.16434168434736,"ssf","mf.ss","gamma","unif",500,"ssfOUT_120_6_1_BADGER","BADGER",1,0.166666666666667,120,"preference"
"ssfOUT_120_6_1_BADGER.31",0.778589774530473,0.245602165882774,1.31157738317817,"ssf","mf.ss","exp","vonmises",5,"ssfOUT_120_6_1_BADGER","BADGER",1,0.166666666666667,120,"preference"
"ssfOUT_120_6_1_BADGER.32",0.65027430233674,0.132710299568145,1.16783830510534,"ssf","mf.ss","exp","vonmises",15,"ssfOUT_120_6_1_BADGER","BADGER",1,0.166666666666667,120,"preference"
"ssfOUT_120_6_1_BADGER.33",0.617832378612732,0.103781681222866,1.1318830760026,"ssf","mf.ss","exp","vonmises",50,"ssfOUT_120_6_1_BADGER","BADGER",1,0.166666666666667,120,"preference"
"ssfOUT_120_6_1_BADGER.34",0.686364163124162,0.173919243260457,1.19880908298787,"ssf","mf.ss","exp","vonmises",158,"ssfOUT_120_6_1_BADGER","BADGER",1,0.166666666666667,120,"preference"
"ssfOUT_120_6_1_BADGER.35",0.669947502105865,0.159071627021795,1.18082337718993,"ssf","mf.ss","exp","vonmises",500,"ssfOUT_120_6_1_BADGER","BADGER",1,0.166666666666667,120,"preference"
"ssfOUT_120_6_1_BADGER.36",0.530798508690782,-0.0297935127443792,1.09139053012594,"ssf","mf.ss","exp","unif",5,"ssfOUT_120_6_1_BADGER","BADGER",1,0.166666666666667,120,"no effect"
"ssfOUT_120_6_1_BADGER.37",0.709885785680642,0.188072538339966,1.23169903302132,"ssf","mf.ss","exp","unif",15,"ssfOUT_120_6_1_BADGER","BADGER",1,0.166666666666667,120,"preference"
"ssfOUT_120_6_1_BADGER.38",0.600386337967586,0.0882894104756845,1.11248326545949,"ssf","mf.ss","exp","unif",50,"ssfOUT_120_6_1_BADGER","BADGER",1,0.166666666666667,120,"preference"
"ssfOUT_120_6_1_BADGER.39",0.682596035099189,0.171570906900181,1.1936211632982,"ssf","mf.ss","exp","unif",158,"ssfOUT_120_6_1_BADGER","BADGER",1,0.166666666666667,120,"preference"
"ssfOUT_120_6_1_BADGER.40",0.687758179109197,0.176908141923852,1.19860821629454,"ssf","mf.ss","exp","unif",500,"ssfOUT_120_6_1_BADGER","BADGER",1,0.166666666666667,120,"preference"
"ssfOUT_120_6_1_VULTURE.1",1.5023784078166,0.762438718509356,2.24231809712384,"ssf","mf.is","gamma","vonmises",5,"ssfOUT_120_6_1_VULTURE","VULTURE",1,0.166666666666667,120,"preference"
"ssfOUT_120_6_1_VULTURE.2",1.50654273029384,0.785829470400495,2.22725599018719,"ssf","mf.is","gamma","vonmises",15,"ssfOUT_120_6_1_VULTURE","VULTURE",1,0.166666666666667,120,"preference"
"ssfOUT_120_6_1_VULTURE.3",1.59119359880383,0.87696476191926,2.3054224356884,"ssf","mf.is","gamma","vonmises",50,"ssfOUT_120_6_1_VULTURE","VULTURE",1,0.166666666666667,120,"preference"
"ssfOUT_120_6_1_VULTURE.4",1.53290475308656,0.820467859110764,2.24534164706236,"ssf","mf.is","gamma","vonmises",158,"ssfOUT_120_6_1_VULTURE","VULTURE",1,0.166666666666667,120,"preference"
"ssfOUT_120_6_1_VULTURE.5",1.58139171763237,0.869449142472497,2.29333429279224,"ssf","mf.is","gamma","vonmises",500,"ssfOUT_120_6_1_VULTURE","VULTURE",1,0.166666666666667,120,"preference"
"ssfOUT_120_6_1_VULTURE.6",1.37190367181152,0.635613865996148,2.10819347762688,"ssf","mf.is","gamma","unif",5,"ssfOUT_120_6_1_VULTURE","VULTURE",1,0.166666666666667,120,"preference"
"ssfOUT_120_6_1_VULTURE.7",1.5994988356016,0.88050250231678,2.31849516888642,"ssf","mf.is","gamma","unif",15,"ssfOUT_120_6_1_VULTURE","VULTURE",1,0.166666666666667,120,"preference"
"ssfOUT_120_6_1_VULTURE.8",1.60833696316019,0.894821389774796,2.32185253654559,"ssf","mf.is","gamma","unif",50,"ssfOUT_120_6_1_VULTURE","VULTURE",1,0.166666666666667,120,"preference"
"ssfOUT_120_6_1_VULTURE.9",1.56894501146842,0.856550130469992,2.28133989246684,"ssf","mf.is","gamma","unif",158,"ssfOUT_120_6_1_VULTURE","VULTURE",1,0.166666666666667,120,"preference"
"ssfOUT_120_6_1_VULTURE.10",1.56480099565315,0.853115271817538,2.27648671948877,"ssf","mf.is","gamma","unif",500,"ssfOUT_120_6_1_VULTURE","VULTURE",1,0.166666666666667,120,"preference"
"ssfOUT_120_6_1_VULTURE.11",1.74414863082284,1.00099877505014,2.48729848659553,"ssf","mf.is","exp","vonmises",5,"ssfOUT_120_6_1_VULTURE","VULTURE",1,0.166666666666667,120,"preference"
"ssfOUT_120_6_1_VULTURE.12",1.2289696305374,0.502855278775939,1.95508398229887,"ssf","mf.is","exp","vonmises",15,"ssfOUT_120_6_1_VULTURE","VULTURE",1,0.166666666666667,120,"preference"
"ssfOUT_120_6_1_VULTURE.13",1.55203293365719,0.836918229888476,2.26714763742591,"ssf","mf.is","exp","vonmises",50,"ssfOUT_120_6_1_VULTURE","VULTURE",1,0.166666666666667,120,"preference"
"ssfOUT_120_6_1_VULTURE.14",1.53240633608248,0.81989562449323,2.24491704767173,"ssf","mf.is","exp","vonmises",158,"ssfOUT_120_6_1_VULTURE","VULTURE",1,0.166666666666667,120,"preference"
"ssfOUT_120_6_1_VULTURE.15",1.53995679260569,0.827911951417454,2.25200163379393,"ssf","mf.is","exp","vonmises",500,"ssfOUT_120_6_1_VULTURE","VULTURE",1,0.166666666666667,120,"preference"
"ssfOUT_120_6_1_VULTURE.16",1.53066667378572,0.793100961785636,2.26823238578581,"ssf","mf.is","exp","unif",5,"ssfOUT_120_6_1_VULTURE","VULTURE",1,0.166666666666667,120,"preference"
"ssfOUT_120_6_1_VULTURE.17",1.64089484411933,0.923130398629782,2.35865928960888,"ssf","mf.is","exp","unif",15,"ssfOUT_120_6_1_VULTURE","VULTURE",1,0.166666666666667,120,"preference"
"ssfOUT_120_6_1_VULTURE.18",1.62668241272697,0.912722870609909,2.34064195484404,"ssf","mf.is","exp","unif",50,"ssfOUT_120_6_1_VULTURE","VULTURE",1,0.166666666666667,120,"preference"
"ssfOUT_120_6_1_VULTURE.19",1.54133821289098,0.828880136631258,2.25379628915071,"ssf","mf.is","exp","unif",158,"ssfOUT_120_6_1_VULTURE","VULTURE",1,0.166666666666667,120,"preference"
"ssfOUT_120_6_1_VULTURE.20",1.56801173837305,0.856113193736995,2.2799102830091,"ssf","mf.is","exp","unif",500,"ssfOUT_120_6_1_VULTURE","VULTURE",1,0.166666666666667,120,"preference"
"ssfOUT_120_6_1_VULTURE.21",1.43533333973165,0.70301390641313,2.16765277305018,"ssf","mf.ss","gamma","vonmises",5,"ssfOUT_120_6_1_VULTURE","VULTURE",1,0.166666666666667,120,"preference"
"ssfOUT_120_6_1_VULTURE.22",1.42987182778404,0.710762958241983,2.14898069732609,"ssf","mf.ss","gamma","vonmises",15,"ssfOUT_120_6_1_VULTURE","VULTURE",1,0.166666666666667,120,"preference"
"ssfOUT_120_6_1_VULTURE.23",1.45792303629852,0.744757641861166,2.17108843073588,"ssf","mf.ss","gamma","vonmises",50,"ssfOUT_120_6_1_VULTURE","VULTURE",1,0.166666666666667,120,"preference"
"ssfOUT_120_6_1_VULTURE.24",1.44176067090396,0.730081839257778,2.15343950255014,"ssf","mf.ss","gamma","vonmises",158,"ssfOUT_120_6_1_VULTURE","VULTURE",1,0.166666666666667,120,"preference"
"ssfOUT_120_6_1_VULTURE.25",1.46365326037301,0.752234412147273,2.17507210859874,"ssf","mf.ss","gamma","vonmises",500,"ssfOUT_120_6_1_VULTURE","VULTURE",1,0.166666666666667,120,"preference"
"ssfOUT_120_6_1_VULTURE.26",1.32055404741051,0.586149454975253,2.05495863984577,"ssf","mf.ss","gamma","unif",5,"ssfOUT_120_6_1_VULTURE","VULTURE",1,0.166666666666667,120,"preference"
"ssfOUT_120_6_1_VULTURE.27",1.55141146922269,0.833072949690123,2.26974998875525,"ssf","mf.ss","gamma","unif",15,"ssfOUT_120_6_1_VULTURE","VULTURE",1,0.166666666666667,120,"preference"
"ssfOUT_120_6_1_VULTURE.28",1.52783223789969,0.815157693384866,2.24050678241452,"ssf","mf.ss","gamma","unif",50,"ssfOUT_120_6_1_VULTURE","VULTURE",1,0.166666666666667,120,"preference"
"ssfOUT_120_6_1_VULTURE.29",1.50070070850625,0.788806476765711,2.21259494024678,"ssf","mf.ss","gamma","unif",158,"ssfOUT_120_6_1_VULTURE","VULTURE",1,0.166666666666667,120,"preference"
"ssfOUT_120_6_1_VULTURE.30",1.50237769305908,0.791248401096517,2.21350698502165,"ssf","mf.ss","gamma","unif",500,"ssfOUT_120_6_1_VULTURE","VULTURE",1,0.166666666666667,120,"preference"
"ssfOUT_120_6_1_VULTURE.31",1.67065625098575,0.939953346488332,2.40135915548318,"ssf","mf.ss","exp","vonmises",5,"ssfOUT_120_6_1_VULTURE","VULTURE",1,0.166666666666667,120,"preference"
"ssfOUT_120_6_1_VULTURE.32",1.26210808032997,0.542229822346355,1.98198633831358,"ssf","mf.ss","exp","vonmises",15,"ssfOUT_120_6_1_VULTURE","VULTURE",1,0.166666666666667,120,"preference"
"ssfOUT_120_6_1_VULTURE.33",1.52142164224488,0.806260434644581,2.23658284984519,"ssf","mf.ss","exp","vonmises",50,"ssfOUT_120_6_1_VULTURE","VULTURE",1,0.166666666666667,120,"preference"
"ssfOUT_120_6_1_VULTURE.34",1.45184608550936,0.739718305313526,2.16397386570519,"ssf","mf.ss","exp","vonmises",158,"ssfOUT_120_6_1_VULTURE","VULTURE",1,0.166666666666667,120,"preference"
"ssfOUT_120_6_1_VULTURE.35",1.47014406815871,0.757932113738575,2.18235602257883,"ssf","mf.ss","exp","vonmises",500,"ssfOUT_120_6_1_VULTURE","VULTURE",1,0.166666666666667,120,"preference"
"ssfOUT_120_6_1_VULTURE.36",1.44993185404467,0.717242192058457,2.18262151603088,"ssf","mf.ss","exp","unif",5,"ssfOUT_120_6_1_VULTURE","VULTURE",1,0.166666666666667,120,"preference"
"ssfOUT_120_6_1_VULTURE.37",1.58512329541654,0.868804175978693,2.30144241485438,"ssf","mf.ss","exp","unif",15,"ssfOUT_120_6_1_VULTURE","VULTURE",1,0.166666666666667,120,"preference"
"ssfOUT_120_6_1_VULTURE.38",1.56463718622722,0.850438904087308,2.27883546836713,"ssf","mf.ss","exp","unif",50,"ssfOUT_120_6_1_VULTURE","VULTURE",1,0.166666666666667,120,"preference"
"ssfOUT_120_6_1_VULTURE.39",1.51823395071678,0.805610829400509,2.23085707203305,"ssf","mf.ss","exp","unif",158,"ssfOUT_120_6_1_VULTURE","VULTURE",1,0.166666666666667,120,"preference"
"ssfOUT_120_6_1_VULTURE.40",1.53849016508896,0.826061180675432,2.25091914950248,"ssf","mf.ss","exp","unif",500,"ssfOUT_120_6_1_VULTURE","VULTURE",1,0.166666666666667,120,"preference"
"ssfOUT_120_6_1_KINGCOBRA.1",0.03396839820879,-0.53959639866954,0.60753319508712,"ssf","mf.is","gamma","vonmises",5,"ssfOUT_120_6_1_KINGCOBRA","KINGCOBRA",1,0.166666666666667,120,"no effect"
"ssfOUT_120_6_1_KINGCOBRA.2",0.218986909257929,-0.323750499806654,0.761724318322511,"ssf","mf.is","gamma","vonmises",15,"ssfOUT_120_6_1_KINGCOBRA","KINGCOBRA",1,0.166666666666667,120,"no effect"
"ssfOUT_120_6_1_KINGCOBRA.3",0.347409856185665,-0.181571988725512,0.876391701096843,"ssf","mf.is","gamma","vonmises",50,"ssfOUT_120_6_1_KINGCOBRA","KINGCOBRA",1,0.166666666666667,120,"no effect"
"ssfOUT_120_6_1_KINGCOBRA.4",0.321962931213176,-0.198876398292471,0.842802260718822,"ssf","mf.is","gamma","vonmises",158,"ssfOUT_120_6_1_KINGCOBRA","KINGCOBRA",1,0.166666666666667,120,"no effect"
"ssfOUT_120_6_1_KINGCOBRA.5",0.322408770826523,-0.19749958050804,0.842317122161087,"ssf","mf.is","gamma","vonmises",500,"ssfOUT_120_6_1_KINGCOBRA","KINGCOBRA",1,0.166666666666667,120,"no effect"
"ssfOUT_120_6_1_KINGCOBRA.6",0.300807302688137,-0.27083988719693,0.872454492573204,"ssf","mf.is","gamma","unif",5,"ssfOUT_120_6_1_KINGCOBRA","KINGCOBRA",1,0.166666666666667,120,"no effect"
"ssfOUT_120_6_1_KINGCOBRA.7",0.256287701091748,-0.273869644066469,0.786445046249965,"ssf","mf.is","gamma","unif",15,"ssfOUT_120_6_1_KINGCOBRA","KINGCOBRA",1,0.166666666666667,120,"no effect"
"ssfOUT_120_6_1_KINGCOBRA.8",0.423401764105992,-0.101861005584943,0.948664533796927,"ssf","mf.is","gamma","unif",50,"ssfOUT_120_6_1_KINGCOBRA","KINGCOBRA",1,0.166666666666667,120,"no effect"
"ssfOUT_120_6_1_KINGCOBRA.9",0.263938406829371,-0.26308656097592,0.790963374634661,"ssf","mf.is","gamma","unif",158,"ssfOUT_120_6_1_KINGCOBRA","KINGCOBRA",1,0.166666666666667,120,"no effect"
"ssfOUT_120_6_1_KINGCOBRA.10",0.274433990544392,-0.244942380495468,0.793810361584253,"ssf","mf.is","gamma","unif",500,"ssfOUT_120_6_1_KINGCOBRA","KINGCOBRA",1,0.166666666666667,120,"no effect"
"ssfOUT_120_6_1_KINGCOBRA.11",0.213259400370605,-0.43116210974648,0.857680910487689,"ssf","mf.is","exp","vonmises",5,"ssfOUT_120_6_1_KINGCOBRA","KINGCOBRA",1,0.166666666666667,120,"no effect"
"ssfOUT_120_6_1_KINGCOBRA.12",-0.136899015270302,-0.677619850243774,0.40382181970317,"ssf","mf.is","exp","vonmises",15,"ssfOUT_120_6_1_KINGCOBRA","KINGCOBRA",1,0.166666666666667,120,"no effect"
"ssfOUT_120_6_1_KINGCOBRA.13",0.166007618374795,-0.356398788101169,0.688414024850759,"ssf","mf.is","exp","vonmises",50,"ssfOUT_120_6_1_KINGCOBRA","KINGCOBRA",1,0.166666666666667,120,"no effect"
"ssfOUT_120_6_1_KINGCOBRA.14",0.197285549869752,-0.32184649185701,0.716417591596514,"ssf","mf.is","exp","vonmises",158,"ssfOUT_120_6_1_KINGCOBRA","KINGCOBRA",1,0.166666666666667,120,"no effect"
"ssfOUT_120_6_1_KINGCOBRA.15",0.328093490973579,-0.191742303572292,0.84792928551945,"ssf","mf.is","exp","vonmises",500,"ssfOUT_120_6_1_KINGCOBRA","KINGCOBRA",1,0.166666666666667,120,"no effect"
"ssfOUT_120_6_1_KINGCOBRA.16",-0.0745984618847327,-0.655971847943699,0.506774924174233,"ssf","mf.is","exp","unif",5,"ssfOUT_120_6_1_KINGCOBRA","KINGCOBRA",1,0.166666666666667,120,"no effect"
"ssfOUT_120_6_1_KINGCOBRA.17",0.0556419607933399,-0.487970633691314,0.599254555277994,"ssf","mf.is","exp","unif",15,"ssfOUT_120_6_1_KINGCOBRA","KINGCOBRA",1,0.166666666666667,120,"no effect"
"ssfOUT_120_6_1_KINGCOBRA.18",0.0798794122587932,-0.443970697210525,0.603729521728112,"ssf","mf.is","exp","unif",50,"ssfOUT_120_6_1_KINGCOBRA","KINGCOBRA",1,0.166666666666667,120,"no effect"
"ssfOUT_120_6_1_KINGCOBRA.19",0.348560650049609,-0.17190884413809,0.869030144237307,"ssf","mf.is","exp","unif",158,"ssfOUT_120_6_1_KINGCOBRA","KINGCOBRA",1,0.166666666666667,120,"no effect"
"ssfOUT_120_6_1_KINGCOBRA.20",0.383141031210061,-0.136751753219003,0.903033815639125,"ssf","mf.is","exp","unif",500,"ssfOUT_120_6_1_KINGCOBRA","KINGCOBRA",1,0.166666666666667,120,"no effect"
"ssfOUT_120_6_1_KINGCOBRA.21",0.236029660242623,-0.329275377625077,0.801334698110322,"ssf","mf.ss","gamma","vonmises",5,"ssfOUT_120_6_1_KINGCOBRA","KINGCOBRA",1,0.166666666666667,120,"no effect"
"ssfOUT_120_6_1_KINGCOBRA.22",0.428256680425733,-0.11239088899947,0.968904249850935,"ssf","mf.ss","gamma","vonmises",15,"ssfOUT_120_6_1_KINGCOBRA","KINGCOBRA",1,0.166666666666667,120,"no effect"
"ssfOUT_120_6_1_KINGCOBRA.23",0.477727474647262,-0.0562462697767615,1.01170121907129,"ssf","mf.ss","gamma","vonmises",50,"ssfOUT_120_6_1_KINGCOBRA","KINGCOBRA",1,0.166666666666667,120,"no effect"
"ssfOUT_120_6_1_KINGCOBRA.24",0.406027404572463,-0.120889915820041,0.932944724964968,"ssf","mf.ss","gamma","vonmises",158,"ssfOUT_120_6_1_KINGCOBRA","KINGCOBRA",1,0.166666666666667,120,"no effect"
"ssfOUT_120_6_1_KINGCOBRA.25",0.402920404276928,-0.126139951673446,0.931980760227302,"ssf","mf.ss","gamma","vonmises",500,"ssfOUT_120_6_1_KINGCOBRA","KINGCOBRA",1,0.166666666666667,120,"no effect"
"ssfOUT_120_6_1_KINGCOBRA.26",0.42565918335275,-0.132228576372579,0.983546943078078,"ssf","mf.ss","gamma","unif",5,"ssfOUT_120_6_1_KINGCOBRA","KINGCOBRA",1,0.166666666666667,120,"no effect"
"ssfOUT_120_6_1_KINGCOBRA.27",0.352202332070994,-0.185617347478406,0.890022011620393,"ssf","mf.ss","gamma","unif",15,"ssfOUT_120_6_1_KINGCOBRA","KINGCOBRA",1,0.166666666666667,120,"no effect"
"ssfOUT_120_6_1_KINGCOBRA.28",0.525764544948384,-0.00749023933377646,1.05901932923055,"ssf","mf.ss","gamma","unif",50,"ssfOUT_120_6_1_KINGCOBRA","KINGCOBRA",1,0.166666666666667,120,"no effect"
"ssfOUT_120_6_1_KINGCOBRA.29",0.391797992921796,-0.145390725872439,0.928986711716032,"ssf","mf.ss","gamma","unif",158,"ssfOUT_120_6_1_KINGCOBRA","KINGCOBRA",1,0.166666666666667,120,"no effect"
"ssfOUT_120_6_1_KINGCOBRA.30",0.390838513177702,-0.137494550157657,0.919171576513061,"ssf","mf.ss","gamma","unif",500,"ssfOUT_120_6_1_KINGCOBRA","KINGCOBRA",1,0.166666666666667,120,"no effect"
"ssfOUT_120_6_1_KINGCOBRA.31",0.00235284867807089,-0.572979384639255,0.577685081995396,"ssf","mf.ss","exp","vonmises",5,"ssfOUT_120_6_1_KINGCOBRA","KINGCOBRA",1,0.166666666666667,120,"no effect"
"ssfOUT_120_6_1_KINGCOBRA.32",0.17874998478925,-0.355852140369505,0.713352109948005,"ssf","mf.ss","exp","vonmises",15,"ssfOUT_120_6_1_KINGCOBRA","KINGCOBRA",1,0.166666666666667,120,"no effect"
"ssfOUT_120_6_1_KINGCOBRA.33",0.244434014163288,-0.275712778838614,0.764580807165189,"ssf","mf.ss","exp","vonmises",50,"ssfOUT_120_6_1_KINGCOBRA","KINGCOBRA",1,0.166666666666667,120,"no effect"
"ssfOUT_120_6_1_KINGCOBRA.34",0.169515280168252,-0.349191817703833,0.688222378040338,"ssf","mf.ss","exp","vonmises",158,"ssfOUT_120_6_1_KINGCOBRA","KINGCOBRA",1,0.166666666666667,120,"no effect"
"ssfOUT_120_6_1_KINGCOBRA.35",0.22575669371679,-0.28991813147849,0.74143151891207,"ssf","mf.ss","exp","vonmises",500,"ssfOUT_120_6_1_KINGCOBRA","KINGCOBRA",1,0.166666666666667,120,"no effect"
"ssfOUT_120_6_1_KINGCOBRA.36",0.119750496429505,-0.447741254508926,0.687242247367935,"ssf","mf.ss","exp","unif",5,"ssfOUT_120_6_1_KINGCOBRA","KINGCOBRA",1,0.166666666666667,120,"no effect"
"ssfOUT_120_6_1_KINGCOBRA.37",-0.153702313053665,-0.679278767309223,0.371874141201894,"ssf","mf.ss","exp","unif",15,"ssfOUT_120_6_1_KINGCOBRA","KINGCOBRA",1,0.166666666666667,120,"no effect"
"ssfOUT_120_6_1_KINGCOBRA.38",0.133279414418569,-0.386210772775222,0.652769601612361,"ssf","mf.ss","exp","unif",50,"ssfOUT_120_6_1_KINGCOBRA","KINGCOBRA",1,0.166666666666667,120,"no effect"
"ssfOUT_120_6_1_KINGCOBRA.39",0.230840653807882,-0.283353543298523,0.745034850914287,"ssf","mf.ss","exp","unif",158,"ssfOUT_120_6_1_KINGCOBRA","KINGCOBRA",1,0.166666666666667,120,"no effect"
"ssfOUT_120_6_1_KINGCOBRA.40",0.220064535118334,-0.29247283724017,0.732601907476837,"ssf","mf.ss","exp","unif",500,"ssfOUT_120_6_1_KINGCOBRA","KINGCOBRA",1,0.166666666666667,120,"no effect"
"ssfOUT_120_6_2_BADGER.1",0.499155045140739,0.101429566791087,0.896880523490391,"ssf","mf.is","gamma","vonmises",5,"ssfOUT_120_6_2_BADGER","BADGER",2,0.166666666666667,120,"preference"
"ssfOUT_120_6_2_BADGER.2",0.840908662575762,0.467321606364035,1.21449571878749,"ssf","mf.is","gamma","vonmises",15,"ssfOUT_120_6_2_BADGER","BADGER",2,0.166666666666667,120,"preference"
"ssfOUT_120_6_2_BADGER.3",0.888432105404587,0.521226838902558,1.25563737190662,"ssf","mf.is","gamma","vonmises",50,"ssfOUT_120_6_2_BADGER","BADGER",2,0.166666666666667,120,"preference"
"ssfOUT_120_6_2_BADGER.4",0.81691405964923,0.452518538988842,1.18130958030962,"ssf","mf.is","gamma","vonmises",158,"ssfOUT_120_6_2_BADGER","BADGER",2,0.166666666666667,120,"preference"
"ssfOUT_120_6_2_BADGER.5",0.841144774666221,0.477620386416794,1.20466916291565,"ssf","mf.is","gamma","vonmises",500,"ssfOUT_120_6_2_BADGER","BADGER",2,0.166666666666667,120,"preference"
"ssfOUT_120_6_2_BADGER.6",1.08202373068915,0.699632659960122,1.46441480141817,"ssf","mf.is","gamma","unif",5,"ssfOUT_120_6_2_BADGER","BADGER",2,0.166666666666667,120,"preference"
"ssfOUT_120_6_2_BADGER.7",0.68698991884931,0.314494979134351,1.05948485856427,"ssf","mf.is","gamma","unif",15,"ssfOUT_120_6_2_BADGER","BADGER",2,0.166666666666667,120,"preference"
"ssfOUT_120_6_2_BADGER.8",0.730444799198026,0.364548230648661,1.09634136774739,"ssf","mf.is","gamma","unif",50,"ssfOUT_120_6_2_BADGER","BADGER",2,0.166666666666667,120,"preference"
"ssfOUT_120_6_2_BADGER.9",0.847352991837756,0.483188869191763,1.21151711448375,"ssf","mf.is","gamma","unif",158,"ssfOUT_120_6_2_BADGER","BADGER",2,0.166666666666667,120,"preference"
"ssfOUT_120_6_2_BADGER.10",0.834557410397258,0.470768632089629,1.19834618870489,"ssf","mf.is","gamma","unif",500,"ssfOUT_120_6_2_BADGER","BADGER",2,0.166666666666667,120,"preference"
"ssfOUT_120_6_2_BADGER.11",0.985769079851343,0.600358205295138,1.37117995440755,"ssf","mf.is","exp","vonmises",5,"ssfOUT_120_6_2_BADGER","BADGER",2,0.166666666666667,120,"preference"
"ssfOUT_120_6_2_BADGER.12",0.734684028828527,0.360563503228163,1.10880455442889,"ssf","mf.is","exp","vonmises",15,"ssfOUT_120_6_2_BADGER","BADGER",2,0.166666666666667,120,"preference"
"ssfOUT_120_6_2_BADGER.13",0.815455530167596,0.447968054548565,1.18294300578663,"ssf","mf.is","exp","vonmises",50,"ssfOUT_120_6_2_BADGER","BADGER",2,0.166666666666667,120,"preference"
"ssfOUT_120_6_2_BADGER.14",0.842172134520302,0.477842901167139,1.20650136787347,"ssf","mf.is","exp","vonmises",158,"ssfOUT_120_6_2_BADGER","BADGER",2,0.166666666666667,120,"preference"
"ssfOUT_120_6_2_BADGER.15",0.825445804872456,0.461764890737886,1.18912671900703,"ssf","mf.is","exp","vonmises",500,"ssfOUT_120_6_2_BADGER","BADGER",2,0.166666666666667,120,"preference"
"ssfOUT_120_6_2_BADGER.16",0.736525809788883,0.346580887383014,1.12647073219475,"ssf","mf.is","exp","unif",5,"ssfOUT_120_6_2_BADGER","BADGER",2,0.166666666666667,120,"preference"
"ssfOUT_120_6_2_BADGER.17",0.877869181225072,0.504452308478351,1.25128605397179,"ssf","mf.is","exp","unif",15,"ssfOUT_120_6_2_BADGER","BADGER",2,0.166666666666667,120,"preference"
"ssfOUT_120_6_2_BADGER.18",0.820557201662986,0.454729973937151,1.18638442938882,"ssf","mf.is","exp","unif",50,"ssfOUT_120_6_2_BADGER","BADGER",2,0.166666666666667,120,"preference"
"ssfOUT_120_6_2_BADGER.19",0.819516530253597,0.455149953356764,1.18388310715043,"ssf","mf.is","exp","unif",158,"ssfOUT_120_6_2_BADGER","BADGER",2,0.166666666666667,120,"preference"
"ssfOUT_120_6_2_BADGER.20",0.843241735189174,0.479444839092402,1.20703863128595,"ssf","mf.is","exp","unif",500,"ssfOUT_120_6_2_BADGER","BADGER",2,0.166666666666667,120,"preference"
"ssfOUT_120_6_2_BADGER.21",0.5822350725384,0.192162159970482,0.972307985106318,"ssf","mf.ss","gamma","vonmises",5,"ssfOUT_120_6_2_BADGER","BADGER",2,0.166666666666667,120,"preference"
"ssfOUT_120_6_2_BADGER.22",0.748501990298955,0.37785451054738,1.11914947005053,"ssf","mf.ss","gamma","vonmises",15,"ssfOUT_120_6_2_BADGER","BADGER",2,0.166666666666667,120,"preference"
"ssfOUT_120_6_2_BADGER.23",0.817928435783721,0.452429862152406,1.18342700941504,"ssf","mf.ss","gamma","vonmises",50,"ssfOUT_120_6_2_BADGER","BADGER",2,0.166666666666667,120,"preference"
"ssfOUT_120_6_2_BADGER.24",0.715178423703847,0.351775112611415,1.07858173479628,"ssf","mf.ss","gamma","vonmises",158,"ssfOUT_120_6_2_BADGER","BADGER",2,0.166666666666667,120,"preference"
"ssfOUT_120_6_2_BADGER.25",0.754300175236615,0.391891761509086,1.11670858896414,"ssf","mf.ss","gamma","vonmises",500,"ssfOUT_120_6_2_BADGER","BADGER",2,0.166666666666667,120,"preference"
"ssfOUT_120_6_2_BADGER.26",1.03481597648682,0.65429717941778,1.41533477355587,"ssf","mf.ss","gamma","unif",5,"ssfOUT_120_6_2_BADGER","BADGER",2,0.166666666666667,120,"preference"
"ssfOUT_120_6_2_BADGER.27",0.631054142813529,0.259945348416415,1.00216293721064,"ssf","mf.ss","gamma","unif",15,"ssfOUT_120_6_2_BADGER","BADGER",2,0.166666666666667,120,"preference"
"ssfOUT_120_6_2_BADGER.28",0.684651150897277,0.319391244835325,1.04991105695923,"ssf","mf.ss","gamma","unif",50,"ssfOUT_120_6_2_BADGER","BADGER",2,0.166666666666667,120,"preference"
"ssfOUT_120_6_2_BADGER.29",0.796953876514077,0.433190407443928,1.16071734558423,"ssf","mf.ss","gamma","unif",158,"ssfOUT_120_6_2_BADGER","BADGER",2,0.166666666666667,120,"preference"
"ssfOUT_120_6_2_BADGER.30",0.784613083420324,0.421459363635769,1.14776680320488,"ssf","mf.ss","gamma","unif",500,"ssfOUT_120_6_2_BADGER","BADGER",2,0.166666666666667,120,"preference"
"ssfOUT_120_6_2_BADGER.31",0.950589339898667,0.570693523438614,1.33048515635872,"ssf","mf.ss","exp","vonmises",5,"ssfOUT_120_6_2_BADGER","BADGER",2,0.166666666666667,120,"preference"
"ssfOUT_120_6_2_BADGER.32",0.737174894855855,0.363509759484285,1.11084003022742,"ssf","mf.ss","exp","vonmises",15,"ssfOUT_120_6_2_BADGER","BADGER",2,0.166666666666667,120,"preference"
"ssfOUT_120_6_2_BADGER.33",0.726978834516439,0.360607730949856,1.09334993808302,"ssf","mf.ss","exp","vonmises",50,"ssfOUT_120_6_2_BADGER","BADGER",2,0.166666666666667,120,"preference"
"ssfOUT_120_6_2_BADGER.34",0.755444829852829,0.390762712424892,1.12012694728077,"ssf","mf.ss","exp","vonmises",158,"ssfOUT_120_6_2_BADGER","BADGER",2,0.166666666666667,120,"preference"
"ssfOUT_120_6_2_BADGER.35",0.719598898180828,0.355801585918832,1.08339621044282,"ssf","mf.ss","exp","vonmises",500,"ssfOUT_120_6_2_BADGER","BADGER",2,0.166666666666667,120,"preference"
"ssfOUT_120_6_2_BADGER.36",0.648919981707331,0.262331237868358,1.0355087255463,"ssf","mf.ss","exp","unif",5,"ssfOUT_120_6_2_BADGER","BADGER",2,0.166666666666667,120,"preference"
"ssfOUT_120_6_2_BADGER.37",0.844725488656948,0.471001367655042,1.21844960965885,"ssf","mf.ss","exp","unif",15,"ssfOUT_120_6_2_BADGER","BADGER",2,0.166666666666667,120,"preference"
"ssfOUT_120_6_2_BADGER.38",0.75332681424768,0.386980835102968,1.11967279339239,"ssf","mf.ss","exp","unif",50,"ssfOUT_120_6_2_BADGER","BADGER",2,0.166666666666667,120,"preference"
"ssfOUT_120_6_2_BADGER.39",0.744005112066662,0.379512688506623,1.1084975356267,"ssf","mf.ss","exp","unif",158,"ssfOUT_120_6_2_BADGER","BADGER",2,0.166666666666667,120,"preference"
"ssfOUT_120_6_2_BADGER.40",0.780031785748818,0.416044271225625,1.14401930027201,"ssf","mf.ss","exp","unif",500,"ssfOUT_120_6_2_BADGER","BADGER",2,0.166666666666667,120,"preference"
"ssfOUT_120_6_2_VULTURE.1",0.808758232336243,0.371634123128786,1.2458823415437,"ssf","mf.is","gamma","vonmises",5,"ssfOUT_120_6_2_VULTURE","VULTURE",2,0.166666666666667,120,"preference"
"ssfOUT_120_6_2_VULTURE.2",0.711908839893467,0.287507042877641,1.13631063690929,"ssf","mf.is","gamma","vonmises",15,"ssfOUT_120_6_2_VULTURE","VULTURE",2,0.166666666666667,120,"preference"
"ssfOUT_120_6_2_VULTURE.3",0.724071053647882,0.306969115225333,1.14117299207043,"ssf","mf.is","gamma","vonmises",50,"ssfOUT_120_6_2_VULTURE","VULTURE",2,0.166666666666667,120,"preference"
"ssfOUT_120_6_2_VULTURE.4",0.738545928331451,0.32287082206599,1.15422103459691,"ssf","mf.is","gamma","vonmises",158,"ssfOUT_120_6_2_VULTURE","VULTURE",2,0.166666666666667,120,"preference"
"ssfOUT_120_6_2_VULTURE.5",0.751894768490528,0.337080414511764,1.16670912246929,"ssf","mf.is","gamma","vonmises",500,"ssfOUT_120_6_2_VULTURE","VULTURE",2,0.166666666666667,120,"preference"
"ssfOUT_120_6_2_VULTURE.6",0.642943141296815,0.199731324788786,1.08615495780484,"ssf","mf.is","gamma","unif",5,"ssfOUT_120_6_2_VULTURE","VULTURE",2,0.166666666666667,120,"preference"
"ssfOUT_120_6_2_VULTURE.7",0.789304618837321,0.367214200995368,1.21139503667927,"ssf","mf.is","gamma","unif",15,"ssfOUT_120_6_2_VULTURE","VULTURE",2,0.166666666666667,120,"preference"
"ssfOUT_120_6_2_VULTURE.8",0.75987133990129,0.343623059937548,1.17611961986503,"ssf","mf.is","gamma","unif",50,"ssfOUT_120_6_2_VULTURE","VULTURE",2,0.166666666666667,120,"preference"
"ssfOUT_120_6_2_VULTURE.9",0.826446873326273,0.410904906158544,1.241988840494,"ssf","mf.is","gamma","unif",158,"ssfOUT_120_6_2_VULTURE","VULTURE",2,0.166666666666667,120,"preference"
"ssfOUT_120_6_2_VULTURE.10",0.751484261197058,0.336619443606471,1.16634907878765,"ssf","mf.is","gamma","unif",500,"ssfOUT_120_6_2_VULTURE","VULTURE",2,0.166666666666667,120,"preference"
"ssfOUT_120_6_2_VULTURE.11",0.360918646025299,-0.0905219063065918,0.812359198357189,"ssf","mf.is","exp","vonmises",5,"ssfOUT_120_6_2_VULTURE","VULTURE",2,0.166666666666667,120,"no effect"
"ssfOUT_120_6_2_VULTURE.12",0.65449560968962,0.22795675488009,1.08103446449915,"ssf","mf.is","exp","vonmises",15,"ssfOUT_120_6_2_VULTURE","VULTURE",2,0.166666666666667,120,"preference"
"ssfOUT_120_6_2_VULTURE.13",0.883197901565357,0.465561256846623,1.30083454628409,"ssf","mf.is","exp","vonmises",50,"ssfOUT_120_6_2_VULTURE","VULTURE",2,0.166666666666667,120,"preference"
"ssfOUT_120_6_2_VULTURE.14",0.805090636887203,0.389317600882408,1.220863672892,"ssf","mf.is","exp","vonmises",158,"ssfOUT_120_6_2_VULTURE","VULTURE",2,0.166666666666667,120,"preference"
"ssfOUT_120_6_2_VULTURE.15",0.790166102789534,0.375127274494981,1.20520493108409,"ssf","mf.is","exp","vonmises",500,"ssfOUT_120_6_2_VULTURE","VULTURE",2,0.166666666666667,120,"preference"
"ssfOUT_120_6_2_VULTURE.16",0.81451677380759,0.368661458106695,1.26037208950848,"ssf","mf.is","exp","unif",5,"ssfOUT_120_6_2_VULTURE","VULTURE",2,0.166666666666667,120,"preference"
"ssfOUT_120_6_2_VULTURE.17",0.672990160902288,0.247276204988246,1.09870411681633,"ssf","mf.is","exp","unif",15,"ssfOUT_120_6_2_VULTURE","VULTURE",2,0.166666666666667,120,"preference"
"ssfOUT_120_6_2_VULTURE.18",0.838124801791612,0.419887858432798,1.25636174515043,"ssf","mf.is","exp","unif",50,"ssfOUT_120_6_2_VULTURE","VULTURE",2,0.166666666666667,120,"preference"
"ssfOUT_120_6_2_VULTURE.19",0.751910692711297,0.336375183070628,1.16744620235197,"ssf","mf.is","exp","unif",158,"ssfOUT_120_6_2_VULTURE","VULTURE",2,0.166666666666667,120,"preference"
"ssfOUT_120_6_2_VULTURE.20",0.73337426552684,0.318496536818375,1.1482519942353,"ssf","mf.is","exp","unif",500,"ssfOUT_120_6_2_VULTURE","VULTURE",2,0.166666666666667,120,"preference"
"ssfOUT_120_6_2_VULTURE.21",0.796442107547428,0.360084376376601,1.23279983871826,"ssf","mf.ss","gamma","vonmises",5,"ssfOUT_120_6_2_VULTURE","VULTURE",2,0.166666666666667,120,"preference"
"ssfOUT_120_6_2_VULTURE.22",0.635458846082784,0.212722296745979,1.05819539541959,"ssf","mf.ss","gamma","vonmises",15,"ssfOUT_120_6_2_VULTURE","VULTURE",2,0.166666666666667,120,"preference"
"ssfOUT_120_6_2_VULTURE.23",0.665240179835482,0.248868954604607,1.08161140506636,"ssf","mf.ss","gamma","vonmises",50,"ssfOUT_120_6_2_VULTURE","VULTURE",2,0.166666666666667,120,"preference"
"ssfOUT_120_6_2_VULTURE.24",0.675263349180798,0.260107855632138,1.09041884272946,"ssf","mf.ss","gamma","vonmises",158,"ssfOUT_120_6_2_VULTURE","VULTURE",2,0.166666666666667,120,"preference"
"ssfOUT_120_6_2_VULTURE.25",0.693207634671063,0.278778496466871,1.10763677287525,"ssf","mf.ss","gamma","vonmises",500,"ssfOUT_120_6_2_VULTURE","VULTURE",2,0.166666666666667,120,"preference"
"ssfOUT_120_6_2_VULTURE.26",0.614453357129983,0.170944346354509,1.05796236790546,"ssf","mf.ss","gamma","unif",5,"ssfOUT_120_6_2_VULTURE","VULTURE",2,0.166666666666667,120,"preference"
"ssfOUT_120_6_2_VULTURE.27",0.773897019270698,0.352523494119104,1.19527054442229,"ssf","mf.ss","gamma","unif",15,"ssfOUT_120_6_2_VULTURE","VULTURE",2,0.166666666666667,120,"preference"
"ssfOUT_120_6_2_VULTURE.28",0.730334955405293,0.314471643435301,1.14619826737528,"ssf","mf.ss","gamma","unif",50,"ssfOUT_120_6_2_VULTURE","VULTURE",2,0.166666666666667,120,"preference"
"ssfOUT_120_6_2_VULTURE.29",0.792776960859713,0.377620425010845,1.20793349670858,"ssf","mf.ss","gamma","unif",158,"ssfOUT_120_6_2_VULTURE","VULTURE",2,0.166666666666667,120,"preference"
"ssfOUT_120_6_2_VULTURE.30",0.710440731542846,0.295985102983377,1.12489636010232,"ssf","mf.ss","gamma","unif",500,"ssfOUT_120_6_2_VULTURE","VULTURE",2,0.166666666666667,120,"preference"
"ssfOUT_120_6_2_VULTURE.31",0.498284753787897,0.0540990819646147,0.942470425611179,"ssf","mf.ss","exp","vonmises",5,"ssfOUT_120_6_2_VULTURE","VULTURE",2,0.166666666666667,120,"preference"
"ssfOUT_120_6_2_VULTURE.32",0.661403611416884,0.236802195048379,1.08600502778539,"ssf","mf.ss","exp","vonmises",15,"ssfOUT_120_6_2_VULTURE","VULTURE",2,0.166666666666667,120,"preference"
"ssfOUT_120_6_2_VULTURE.33",0.765054824359646,0.347603024406474,1.18250662431282,"ssf","mf.ss","exp","vonmises",50,"ssfOUT_120_6_2_VULTURE","VULTURE",2,0.166666666666667,120,"preference"
"ssfOUT_120_6_2_VULTURE.34",0.72474400151169,0.308310724041094,1.14117727898229,"ssf","mf.ss","exp","vonmises",158,"ssfOUT_120_6_2_VULTURE","VULTURE",2,0.166666666666667,120,"preference"
"ssfOUT_120_6_2_VULTURE.35",0.701967440286265,0.286338654772161,1.11759622580037,"ssf","mf.ss","exp","vonmises",500,"ssfOUT_120_6_2_VULTURE","VULTURE",2,0.166666666666667,120,"preference"
"ssfOUT_120_6_2_VULTURE.36",0.811610363877541,0.373257721427862,1.24996300632722,"ssf","mf.ss","exp","unif",5,"ssfOUT_120_6_2_VULTURE","VULTURE",2,0.166666666666667,120,"preference"
"ssfOUT_120_6_2_VULTURE.37",0.610696705415169,0.18779151602972,1.03360189480062,"ssf","mf.ss","exp","unif",15,"ssfOUT_120_6_2_VULTURE","VULTURE",2,0.166666666666667,120,"preference"
"ssfOUT_120_6_2_VULTURE.38",0.803794191113487,0.385215881389842,1.22237250083713,"ssf","mf.ss","exp","unif",50,"ssfOUT_120_6_2_VULTURE","VULTURE",2,0.166666666666667,120,"preference"
"ssfOUT_120_6_2_VULTURE.39",0.693180889451539,0.27743080002601,1.10893097887707,"ssf","mf.ss","exp","unif",158,"ssfOUT_120_6_2_VULTURE","VULTURE",2,0.166666666666667,120,"preference"
"ssfOUT_120_6_2_VULTURE.40",0.687117946652726,0.271494746624025,1.10274114668143,"ssf","mf.ss","exp","unif",500,"ssfOUT_120_6_2_VULTURE","VULTURE",2,0.166666666666667,120,"preference"
"ssfOUT_120_6_2_KINGCOBRA.1",0.44836113210622,-0.111392681089676,1.00811494530212,"ssf","mf.is","gamma","vonmises",5,"ssfOUT_120_6_2_KINGCOBRA","KINGCOBRA",2,0.166666666666667,120,"no effect"
"ssfOUT_120_6_2_KINGCOBRA.2",0.886986302769863,0.362611744129937,1.41136086140979,"ssf","mf.is","gamma","vonmises",15,"ssfOUT_120_6_2_KINGCOBRA","KINGCOBRA",2,0.166666666666667,120,"preference"
"ssfOUT_120_6_2_KINGCOBRA.3",0.885370454323847,0.367340470981641,1.40340043766605,"ssf","mf.is","gamma","vonmises",50,"ssfOUT_120_6_2_KINGCOBRA","KINGCOBRA",2,0.166666666666667,120,"preference"
"ssfOUT_120_6_2_KINGCOBRA.4",0.79185292991489,0.277615418657026,1.30609044117275,"ssf","mf.is","gamma","vonmises",158,"ssfOUT_120_6_2_KINGCOBRA","KINGCOBRA",2,0.166666666666667,120,"preference"
"ssfOUT_120_6_2_KINGCOBRA.5",0.797904894159975,0.281676315789377,1.31413347253057,"ssf","mf.is","gamma","vonmises",500,"ssfOUT_120_6_2_KINGCOBRA","KINGCOBRA",2,0.166666666666667,120,"preference"
"ssfOUT_120_6_2_KINGCOBRA.6",0.851186859436681,0.316723018804575,1.38565070006879,"ssf","mf.is","gamma","unif",5,"ssfOUT_120_6_2_KINGCOBRA","KINGCOBRA",2,0.166666666666667,120,"preference"
"ssfOUT_120_6_2_KINGCOBRA.7",0.795708498503159,0.275955691571232,1.31546130543509,"ssf","mf.is","gamma","unif",15,"ssfOUT_120_6_2_KINGCOBRA","KINGCOBRA",2,0.166666666666667,120,"preference"
"ssfOUT_120_6_2_KINGCOBRA.8",0.893686081875508,0.377600515460425,1.40977164829059,"ssf","mf.is","gamma","unif",50,"ssfOUT_120_6_2_KINGCOBRA","KINGCOBRA",2,0.166666666666667,120,"preference"
"ssfOUT_120_6_2_KINGCOBRA.9",0.787385729202187,0.271137977448583,1.30363348095579,"ssf","mf.is","gamma","unif",158,"ssfOUT_120_6_2_KINGCOBRA","KINGCOBRA",2,0.166666666666667,120,"preference"
"ssfOUT_120_6_2_KINGCOBRA.10",0.819078031933682,0.30440713887084,1.33374892499652,"ssf","mf.is","gamma","unif",500,"ssfOUT_120_6_2_KINGCOBRA","KINGCOBRA",2,0.166666666666667,120,"preference"
"ssfOUT_120_6_2_KINGCOBRA.11",0.528476286376268,-0.0199626152601918,1.07691518801273,"ssf","mf.is","exp","vonmises",5,"ssfOUT_120_6_2_KINGCOBRA","KINGCOBRA",2,0.166666666666667,120,"no effect"
"ssfOUT_120_6_2_KINGCOBRA.12",0.873097008622428,0.344478636463548,1.40171538078131,"ssf","mf.is","exp","vonmises",15,"ssfOUT_120_6_2_KINGCOBRA","KINGCOBRA",2,0.166666666666667,120,"preference"
"ssfOUT_120_6_2_KINGCOBRA.13",0.745909965948559,0.22272310676376,1.26909682513336,"ssf","mf.is","exp","vonmises",50,"ssfOUT_120_6_2_KINGCOBRA","KINGCOBRA",2,0.166666666666667,120,"preference"
"ssfOUT_120_6_2_KINGCOBRA.14",0.832819633894911,0.313568307462299,1.35207096032752,"ssf","mf.is","exp","vonmises",158,"ssfOUT_120_6_2_KINGCOBRA","KINGCOBRA",2,0.166666666666667,120,"preference"
"ssfOUT_120_6_2_KINGCOBRA.15",0.821218413836115,0.305648975067171,1.33678785260506,"ssf","mf.is","exp","vonmises",500,"ssfOUT_120_6_2_KINGCOBRA","KINGCOBRA",2,0.166666666666667,120,"preference"
"ssfOUT_120_6_2_KINGCOBRA.16",0.678015785493622,0.135057003752321,1.22097456723492,"ssf","mf.is","exp","unif",5,"ssfOUT_120_6_2_KINGCOBRA","KINGCOBRA",2,0.166666666666667,120,"preference"
"ssfOUT_120_6_2_KINGCOBRA.17",0.97999774165462,0.451989079302133,1.50800640400711,"ssf","mf.is","exp","unif",15,"ssfOUT_120_6_2_KINGCOBRA","KINGCOBRA",2,0.166666666666667,120,"preference"
"ssfOUT_120_6_2_KINGCOBRA.18",0.714331232063183,0.200175751979278,1.22848671214709,"ssf","mf.is","exp","unif",50,"ssfOUT_120_6_2_KINGCOBRA","KINGCOBRA",2,0.166666666666667,120,"preference"
"ssfOUT_120_6_2_KINGCOBRA.19",0.866701086970696,0.349553899098368,1.38384827484302,"ssf","mf.is","exp","unif",158,"ssfOUT_120_6_2_KINGCOBRA","KINGCOBRA",2,0.166666666666667,120,"preference"
"ssfOUT_120_6_2_KINGCOBRA.20",0.843677355791492,0.326458017701941,1.36089669388104,"ssf","mf.is","exp","unif",500,"ssfOUT_120_6_2_KINGCOBRA","KINGCOBRA",2,0.166666666666667,120,"preference"
"ssfOUT_120_6_2_KINGCOBRA.21",0.644926262044971,0.0921827302450279,1.19766979384491,"ssf","mf.ss","gamma","vonmises",5,"ssfOUT_120_6_2_KINGCOBRA","KINGCOBRA",2,0.166666666666667,120,"preference"
"ssfOUT_120_6_2_KINGCOBRA.22",0.86822523330501,0.347633583170321,1.3888168834397,"ssf","mf.ss","gamma","vonmises",15,"ssfOUT_120_6_2_KINGCOBRA","KINGCOBRA",2,0.166666666666667,120,"preference"
"ssfOUT_120_6_2_KINGCOBRA.23",0.89277839488166,0.374507990274227,1.41104879948909,"ssf","mf.ss","gamma","vonmises",50,"ssfOUT_120_6_2_KINGCOBRA","KINGCOBRA",2,0.166666666666667,120,"preference"
"ssfOUT_120_6_2_KINGCOBRA.24",0.799925977427388,0.285518403276514,1.31433355157826,"ssf","mf.ss","gamma","vonmises",158,"ssfOUT_120_6_2_KINGCOBRA","KINGCOBRA",2,0.166666666666667,120,"preference"
"ssfOUT_120_6_2_KINGCOBRA.25",0.808711281507016,0.291847529171592,1.32557503384244,"ssf","mf.ss","gamma","vonmises",500,"ssfOUT_120_6_2_KINGCOBRA","KINGCOBRA",2,0.166666666666667,120,"preference"
"ssfOUT_120_6_2_KINGCOBRA.26",0.819713148916799,0.286982115898618,1.35244418193498,"ssf","mf.ss","gamma","unif",5,"ssfOUT_120_6_2_KINGCOBRA","KINGCOBRA",2,0.166666666666667,120,"preference"
"ssfOUT_120_6_2_KINGCOBRA.27",0.82652544884603,0.307162553874311,1.34588834381775,"ssf","mf.ss","gamma","unif",15,"ssfOUT_120_6_2_KINGCOBRA","KINGCOBRA",2,0.166666666666667,120,"preference"
"ssfOUT_120_6_2_KINGCOBRA.28",0.886586566495294,0.370792046250491,1.4023810867401,"ssf","mf.ss","gamma","unif",50,"ssfOUT_120_6_2_KINGCOBRA","KINGCOBRA",2,0.166666666666667,120,"preference"
"ssfOUT_120_6_2_KINGCOBRA.29",0.793048995438114,0.277477786683571,1.30862020419266,"ssf","mf.ss","gamma","unif",158,"ssfOUT_120_6_2_KINGCOBRA","KINGCOBRA",2,0.166666666666667,120,"preference"
"ssfOUT_120_6_2_KINGCOBRA.30",0.816043500905793,0.301457080116651,1.33062992169494,"ssf","mf.ss","gamma","unif",500,"ssfOUT_120_6_2_KINGCOBRA","KINGCOBRA",2,0.166666666666667,120,"preference"
"ssfOUT_120_6_2_KINGCOBRA.31",0.731436178748412,0.19831416628813,1.26455819120869,"ssf","mf.ss","exp","vonmises",5,"ssfOUT_120_6_2_KINGCOBRA","KINGCOBRA",2,0.166666666666667,120,"preference"
"ssfOUT_120_6_2_KINGCOBRA.32",0.94099345401073,0.424887672815943,1.45709923520552,"ssf","mf.ss","exp","vonmises",15,"ssfOUT_120_6_2_KINGCOBRA","KINGCOBRA",2,0.166666666666667,120,"preference"
"ssfOUT_120_6_2_KINGCOBRA.33",0.866222454971872,0.356031999186801,1.37641291075694,"ssf","mf.ss","exp","vonmises",50,"ssfOUT_120_6_2_KINGCOBRA","KINGCOBRA",2,0.166666666666667,120,"preference"
"ssfOUT_120_6_2_KINGCOBRA.34",0.914161495333618,0.404714935469073,1.42360805519816,"ssf","mf.ss","exp","vonmises",158,"ssfOUT_120_6_2_KINGCOBRA","KINGCOBRA",2,0.166666666666667,120,"preference"
"ssfOUT_120_6_2_KINGCOBRA.35",0.877372702274144,0.369453147417467,1.38529225713082,"ssf","mf.ss","exp","vonmises",500,"ssfOUT_120_6_2_KINGCOBRA","KINGCOBRA",2,0.166666666666667,120,"preference"
"ssfOUT_120_6_2_KINGCOBRA.36",0.89067727844476,0.360797913235751,1.42055664365377,"ssf","mf.ss","exp","unif",5,"ssfOUT_120_6_2_KINGCOBRA","KINGCOBRA",2,0.166666666666667,120,"preference"
"ssfOUT_120_6_2_KINGCOBRA.37",0.990282396018992,0.474936451244429,1.50562834079355,"ssf","mf.ss","exp","unif",15,"ssfOUT_120_6_2_KINGCOBRA","KINGCOBRA",2,0.166666666666667,120,"preference"
"ssfOUT_120_6_2_KINGCOBRA.38",0.904306480889616,0.394061998564609,1.41455096321462,"ssf","mf.ss","exp","unif",50,"ssfOUT_120_6_2_KINGCOBRA","KINGCOBRA",2,0.166666666666667,120,"preference"
"ssfOUT_120_6_2_KINGCOBRA.39",0.913723315898989,0.405451628269574,1.4219950035284,"ssf","mf.ss","exp","unif",158,"ssfOUT_120_6_2_KINGCOBRA","KINGCOBRA",2,0.166666666666667,120,"preference"
"ssfOUT_120_6_2_KINGCOBRA.40",0.893958888009726,0.386128267458689,1.40178950856076,"ssf","mf.ss","exp","unif",500,"ssfOUT_120_6_2_KINGCOBRA","KINGCOBRA",2,0.166666666666667,120,"preference"
"ssfOUT_120_6_3_BADGER.1",0.442902190541785,0.0903729126607266,0.795431468422844,"ssf","mf.is","gamma","vonmises",5,"ssfOUT_120_6_3_BADGER","BADGER",3,0.166666666666667,120,"preference"
"ssfOUT_120_6_3_BADGER.2",0.300057815570577,-0.0338624159497894,0.633978047090944,"ssf","mf.is","gamma","vonmises",15,"ssfOUT_120_6_3_BADGER","BADGER",3,0.166666666666667,120,"no effect"
"ssfOUT_120_6_3_BADGER.3",0.243453119927096,-0.0850572308768456,0.571963470731038,"ssf","mf.is","gamma","vonmises",50,"ssfOUT_120_6_3_BADGER","BADGER",3,0.166666666666667,120,"no effect"
"ssfOUT_120_6_3_BADGER.4",0.257307910876558,-0.0696666517290502,0.584282473482166,"ssf","mf.is","gamma","vonmises",158,"ssfOUT_120_6_3_BADGER","BADGER",3,0.166666666666667,120,"no effect"
"ssfOUT_120_6_3_BADGER.5",0.256065981953636,-0.0698243160573572,0.581956279964629,"ssf","mf.is","gamma","vonmises",500,"ssfOUT_120_6_3_BADGER","BADGER",3,0.166666666666667,120,"no effect"
"ssfOUT_120_6_3_BADGER.6",0.378590758723939,0.0281446803842162,0.729036837063663,"ssf","mf.is","gamma","unif",5,"ssfOUT_120_6_3_BADGER","BADGER",3,0.166666666666667,120,"preference"
"ssfOUT_120_6_3_BADGER.7",0.210282837288108,-0.123336228753855,0.543901903330072,"ssf","mf.is","gamma","unif",15,"ssfOUT_120_6_3_BADGER","BADGER",3,0.166666666666667,120,"no effect"
"ssfOUT_120_6_3_BADGER.8",0.200223803129475,-0.128182772671145,0.528630378930094,"ssf","mf.is","gamma","unif",50,"ssfOUT_120_6_3_BADGER","BADGER",3,0.166666666666667,120,"no effect"
"ssfOUT_120_6_3_BADGER.9",0.268317916056562,-0.0581883612225131,0.594824193335637,"ssf","mf.is","gamma","unif",158,"ssfOUT_120_6_3_BADGER","BADGER",3,0.166666666666667,120,"no effect"
"ssfOUT_120_6_3_BADGER.10",0.250491471385421,-0.0752254809014849,0.576208423672327,"ssf","mf.is","gamma","unif",500,"ssfOUT_120_6_3_BADGER","BADGER",3,0.166666666666667,120,"no effect"
"ssfOUT_120_6_3_BADGER.11",0.387926255024008,0.0333722569788679,0.742480253069149,"ssf","mf.is","exp","vonmises",5,"ssfOUT_120_6_3_BADGER","BADGER",3,0.166666666666667,120,"preference"
"ssfOUT_120_6_3_BADGER.12",0.277459089517058,-0.0597497382593664,0.614667917293483,"ssf","mf.is","exp","vonmises",15,"ssfOUT_120_6_3_BADGER","BADGER",3,0.166666666666667,120,"no effect"
"ssfOUT_120_6_3_BADGER.13",0.279754353438021,-0.0498103927521414,0.609319099628182,"ssf","mf.is","exp","vonmises",50,"ssfOUT_120_6_3_BADGER","BADGER",3,0.166666666666667,120,"no effect"
"ssfOUT_120_6_3_BADGER.14",0.268887068860136,-0.0576812540506367,0.595455391770908,"ssf","mf.is","exp","vonmises",158,"ssfOUT_120_6_3_BADGER","BADGER",3,0.166666666666667,120,"no effect"
"ssfOUT_120_6_3_BADGER.15",0.217281504080244,-0.108646259322235,0.543209267482722,"ssf","mf.is","exp","vonmises",500,"ssfOUT_120_6_3_BADGER","BADGER",3,0.166666666666667,120,"no effect"
"ssfOUT_120_6_3_BADGER.16",0.272331331869421,-0.0839739180890421,0.628636581827883,"ssf","mf.is","exp","unif",5,"ssfOUT_120_6_3_BADGER","BADGER",3,0.166666666666667,120,"no effect"
"ssfOUT_120_6_3_BADGER.17",0.333220190179961,-0.00181113331716143,0.668251513677083,"ssf","mf.is","exp","unif",15,"ssfOUT_120_6_3_BADGER","BADGER",3,0.166666666666667,120,"no effect"
"ssfOUT_120_6_3_BADGER.18",0.233978108994596,-0.0956239625904278,0.56358018057962,"ssf","mf.is","exp","unif",50,"ssfOUT_120_6_3_BADGER","BADGER",3,0.166666666666667,120,"no effect"
"ssfOUT_120_6_3_BADGER.19",0.253775977092533,-0.0726986136968066,0.580250567881873,"ssf","mf.is","exp","unif",158,"ssfOUT_120_6_3_BADGER","BADGER",3,0.166666666666667,120,"no effect"
"ssfOUT_120_6_3_BADGER.20",0.246299100890571,-0.0795361339433502,0.572134335724492,"ssf","mf.is","exp","unif",500,"ssfOUT_120_6_3_BADGER","BADGER",3,0.166666666666667,120,"no effect"
"ssfOUT_120_6_3_BADGER.21",0.423590148280048,0.074556492030879,0.772623804529218,"ssf","mf.ss","gamma","vonmises",5,"ssfOUT_120_6_3_BADGER","BADGER",3,0.166666666666667,120,"preference"
"ssfOUT_120_6_3_BADGER.22",0.311552645396857,-0.0211899576658384,0.644295248459553,"ssf","mf.ss","gamma","vonmises",15,"ssfOUT_120_6_3_BADGER","BADGER",3,0.166666666666667,120,"no effect"
"ssfOUT_120_6_3_BADGER.23",0.243513515943387,-0.084510286605671,0.571537318492445,"ssf","mf.ss","gamma","vonmises",50,"ssfOUT_120_6_3_BADGER","BADGER",3,0.166666666666667,120,"no effect"
"ssfOUT_120_6_3_BADGER.24",0.263280084621586,-0.0632284849443536,0.589788654187526,"ssf","mf.ss","gamma","vonmises",158,"ssfOUT_120_6_3_BADGER","BADGER",3,0.166666666666667,120,"no effect"
"ssfOUT_120_6_3_BADGER.25",0.263515007465463,-0.0620636741921263,0.589093689123052,"ssf","mf.ss","gamma","vonmises",500,"ssfOUT_120_6_3_BADGER","BADGER",3,0.166666666666667,120,"no effect"
"ssfOUT_120_6_3_BADGER.26",0.399039470368838,0.0487973502199211,0.749281590517755,"ssf","mf.ss","gamma","unif",5,"ssfOUT_120_6_3_BADGER","BADGER",3,0.166666666666667,120,"preference"
"ssfOUT_120_6_3_BADGER.27",0.236750628947173,-0.0964160937438915,0.569917351638237,"ssf","mf.ss","gamma","unif",15,"ssfOUT_120_6_3_BADGER","BADGER",3,0.166666666666667,120,"no effect"
"ssfOUT_120_6_3_BADGER.28",0.213574325053941,-0.114567246396977,0.541715896504859,"ssf","mf.ss","gamma","unif",50,"ssfOUT_120_6_3_BADGER","BADGER",3,0.166666666666667,120,"no effect"
"ssfOUT_120_6_3_BADGER.29",0.270331981102767,-0.0558756208899827,0.596539583095516,"ssf","mf.ss","gamma","unif",158,"ssfOUT_120_6_3_BADGER","BADGER",3,0.166666666666667,120,"no effect"
"ssfOUT_120_6_3_BADGER.30",0.252119249388399,-0.0732553750466992,0.577493873823497,"ssf","mf.ss","gamma","unif",500,"ssfOUT_120_6_3_BADGER","BADGER",3,0.166666666666667,120,"no effect"
"ssfOUT_120_6_3_BADGER.31",0.337380912563356,-0.014039648686431,0.688801473813143,"ssf","mf.ss","exp","vonmises",5,"ssfOUT_120_6_3_BADGER","BADGER",3,0.166666666666667,120,"no effect"
"ssfOUT_120_6_3_BADGER.32",0.247540734739128,-0.0893902466228902,0.584471716101147,"ssf","mf.ss","exp","vonmises",15,"ssfOUT_120_6_3_BADGER","BADGER",3,0.166666666666667,120,"no effect"
"ssfOUT_120_6_3_BADGER.33",0.265917163960463,-0.0638686779195667,0.595703005840494,"ssf","mf.ss","exp","vonmises",50,"ssfOUT_120_6_3_BADGER","BADGER",3,0.166666666666667,120,"no effect"
"ssfOUT_120_6_3_BADGER.34",0.261696362877082,-0.0657440056562492,0.589136731410413,"ssf","mf.ss","exp","vonmises",158,"ssfOUT_120_6_3_BADGER","BADGER",3,0.166666666666667,120,"no effect"
"ssfOUT_120_6_3_BADGER.35",0.200692184571466,-0.126329534251191,0.527713903394123,"ssf","mf.ss","exp","vonmises",500,"ssfOUT_120_6_3_BADGER","BADGER",3,0.166666666666667,120,"no effect"
"ssfOUT_120_6_3_BADGER.36",0.250421903921092,-0.103808584475251,0.604652392317435,"ssf","mf.ss","exp","unif",5,"ssfOUT_120_6_3_BADGER","BADGER",3,0.166666666666667,120,"no effect"
"ssfOUT_120_6_3_BADGER.37",0.300658556083927,-0.0346324809804598,0.635949593148314,"ssf","mf.ss","exp","unif",15,"ssfOUT_120_6_3_BADGER","BADGER",3,0.166666666666667,120,"no effect"
"ssfOUT_120_6_3_BADGER.38",0.187591987887124,-0.142286631586013,0.51747060736026,"ssf","mf.ss","exp","unif",50,"ssfOUT_120_6_3_BADGER","BADGER",3,0.166666666666667,120,"no effect"
"ssfOUT_120_6_3_BADGER.39",0.212195566708813,-0.115191053980095,0.539582187397721,"ssf","mf.ss","exp","unif",158,"ssfOUT_120_6_3_BADGER","BADGER",3,0.166666666666667,120,"no effect"
"ssfOUT_120_6_3_BADGER.40",0.22613083529521,-0.100805021371958,0.553066691962378,"ssf","mf.ss","exp","unif",500,"ssfOUT_120_6_3_BADGER","BADGER",3,0.166666666666667,120,"no effect"
"ssfOUT_120_6_3_VULTURE.1",0.739129386209742,0.330838179940494,1.14742059247899,"ssf","mf.is","gamma","vonmises",5,"ssfOUT_120_6_3_VULTURE","VULTURE",3,0.166666666666667,120,"preference"
"ssfOUT_120_6_3_VULTURE.2",0.607955144827055,0.213067706819396,1.00284258283471,"ssf","mf.is","gamma","vonmises",15,"ssfOUT_120_6_3_VULTURE","VULTURE",3,0.166666666666667,120,"preference"
"ssfOUT_120_6_3_VULTURE.3",0.652532542796197,0.26402899441596,1.04103609117643,"ssf","mf.is","gamma","vonmises",50,"ssfOUT_120_6_3_VULTURE","VULTURE",3,0.166666666666667,120,"preference"
"ssfOUT_120_6_3_VULTURE.4",0.71375458281198,0.328068813272752,1.09944035235121,"ssf","mf.is","gamma","vonmises",158,"ssfOUT_120_6_3_VULTURE","VULTURE",3,0.166666666666667,120,"preference"
"ssfOUT_120_6_3_VULTURE.5",0.665229869861417,0.279796335216148,1.05066340450669,"ssf","mf.is","gamma","vonmises",500,"ssfOUT_120_6_3_VULTURE","VULTURE",3,0.166666666666667,120,"preference"
"ssfOUT_120_6_3_VULTURE.6",0.714779385275728,0.306669444854957,1.1228893256965,"ssf","mf.is","gamma","unif",5,"ssfOUT_120_6_3_VULTURE","VULTURE",3,0.166666666666667,120,"preference"
"ssfOUT_120_6_3_VULTURE.7",0.691289416168004,0.296542927189097,1.08603590514691,"ssf","mf.is","gamma","unif",15,"ssfOUT_120_6_3_VULTURE","VULTURE",3,0.166666666666667,120,"preference"
"ssfOUT_120_6_3_VULTURE.8",0.641526900460903,0.253280153687353,1.02977364723445,"ssf","mf.is","gamma","unif",50,"ssfOUT_120_6_3_VULTURE","VULTURE",3,0.166666666666667,120,"preference"
"ssfOUT_120_6_3_VULTURE.9",0.662327273782744,0.276435170348822,1.04821937721667,"ssf","mf.is","gamma","unif",158,"ssfOUT_120_6_3_VULTURE","VULTURE",3,0.166666666666667,120,"preference"
"ssfOUT_120_6_3_VULTURE.10",0.667258330568712,0.28204126109577,1.05247540004165,"ssf","mf.is","gamma","unif",500,"ssfOUT_120_6_3_VULTURE","VULTURE",3,0.166666666666667,120,"preference"
"ssfOUT_120_6_3_VULTURE.11",0.783374041165212,0.338932174433301,1.22781590789712,"ssf","mf.is","exp","vonmises",5,"ssfOUT_120_6_3_VULTURE","VULTURE",3,0.166666666666667,120,"preference"
"ssfOUT_120_6_3_VULTURE.12",0.649141792144706,0.252227960011605,1.04605562427781,"ssf","mf.is","exp","vonmises",15,"ssfOUT_120_6_3_VULTURE","VULTURE",3,0.166666666666667,120,"preference"
"ssfOUT_120_6_3_VULTURE.13",0.679711046946396,0.290800891347996,1.0686212025448,"ssf","mf.is","exp","vonmises",50,"ssfOUT_120_6_3_VULTURE","VULTURE",3,0.166666666666667,120,"preference"
"ssfOUT_120_6_3_VULTURE.14",0.649011918087195,0.263029341323475,1.03499449485091,"ssf","mf.is","exp","vonmises",158,"ssfOUT_120_6_3_VULTURE","VULTURE",3,0.166666666666667,120,"preference"
"ssfOUT_120_6_3_VULTURE.15",0.64273914281645,0.257291441890687,1.02818684374221,"ssf","mf.is","exp","vonmises",500,"ssfOUT_120_6_3_VULTURE","VULTURE",3,0.166666666666667,120,"preference"
"ssfOUT_120_6_3_VULTURE.16",0.494302910801486,0.072352517805072,0.916253303797899,"ssf","mf.is","exp","unif",5,"ssfOUT_120_6_3_VULTURE","VULTURE",3,0.166666666666667,120,"preference"
"ssfOUT_120_6_3_VULTURE.17",0.572555484549617,0.175761649243123,0.969349319856111,"ssf","mf.is","exp","unif",15,"ssfOUT_120_6_3_VULTURE","VULTURE",3,0.166666666666667,120,"preference"
"ssfOUT_120_6_3_VULTURE.18",0.664001509397684,0.275492212620048,1.05251080617532,"ssf","mf.is","exp","unif",50,"ssfOUT_120_6_3_VULTURE","VULTURE",3,0.166666666666667,120,"preference"
"ssfOUT_120_6_3_VULTURE.19",0.675483296436944,0.289119640316258,1.06184695255763,"ssf","mf.is","exp","unif",158,"ssfOUT_120_6_3_VULTURE","VULTURE",3,0.166666666666667,120,"preference"
"ssfOUT_120_6_3_VULTURE.20",0.686175459902543,0.300669608160899,1.07168131164419,"ssf","mf.is","exp","unif",500,"ssfOUT_120_6_3_VULTURE","VULTURE",3,0.166666666666667,120,"preference"
"ssfOUT_120_6_3_VULTURE.21",0.711699903036215,0.306389388344155,1.11701041772828,"ssf","mf.ss","gamma","vonmises",5,"ssfOUT_120_6_3_VULTURE","VULTURE",3,0.166666666666667,120,"preference"
"ssfOUT_120_6_3_VULTURE.22",0.521005867431319,0.12808529793299,0.913926436929647,"ssf","mf.ss","gamma","vonmises",15,"ssfOUT_120_6_3_VULTURE","VULTURE",3,0.166666666666667,120,"preference"
"ssfOUT_120_6_3_VULTURE.23",0.596912500933894,0.209330882404267,0.984494119463522,"ssf","mf.ss","gamma","vonmises",50,"ssfOUT_120_6_3_VULTURE","VULTURE",3,0.166666666666667,120,"preference"
"ssfOUT_120_6_3_VULTURE.24",0.628875740294049,0.243879159662023,1.01387232092608,"ssf","mf.ss","gamma","vonmises",158,"ssfOUT_120_6_3_VULTURE","VULTURE",3,0.166666666666667,120,"preference"
"ssfOUT_120_6_3_VULTURE.25",0.577544452296549,0.192757554655582,0.962331349937517,"ssf","mf.ss","gamma","vonmises",500,"ssfOUT_120_6_3_VULTURE","VULTURE",3,0.166666666666667,120,"preference"
"ssfOUT_120_6_3_VULTURE.26",0.738647727694637,0.330892422945468,1.14640303244381,"ssf","mf.ss","gamma","unif",5,"ssfOUT_120_6_3_VULTURE","VULTURE",3,0.166666666666667,120,"preference"
"ssfOUT_120_6_3_VULTURE.27",0.674898419686516,0.281063205069352,1.06873363430368,"ssf","mf.ss","gamma","unif",15,"ssfOUT_120_6_3_VULTURE","VULTURE",3,0.166666666666667,120,"preference"
"ssfOUT_120_6_3_VULTURE.28",0.602999660077327,0.215748412747314,0.99025090740734,"ssf","mf.ss","gamma","unif",50,"ssfOUT_120_6_3_VULTURE","VULTURE",3,0.166666666666667,120,"preference"
"ssfOUT_120_6_3_VULTURE.29",0.619679633302943,0.234376016713093,1.00498324989279,"ssf","mf.ss","gamma","unif",158,"ssfOUT_120_6_3_VULTURE","VULTURE",3,0.166666666666667,120,"preference"
"ssfOUT_120_6_3_VULTURE.30",0.618414510596824,0.233806176667015,1.00302284452663,"ssf","mf.ss","gamma","unif",500,"ssfOUT_120_6_3_VULTURE","VULTURE",3,0.166666666666667,120,"preference"
"ssfOUT_120_6_3_VULTURE.31",0.637450800875588,0.214704831238305,1.06019677051287,"ssf","mf.ss","exp","vonmises",5,"ssfOUT_120_6_3_VULTURE","VULTURE",3,0.166666666666667,120,"preference"
"ssfOUT_120_6_3_VULTURE.32",0.605979943393412,0.211232339956826,1.00072754683,"ssf","mf.ss","exp","vonmises",15,"ssfOUT_120_6_3_VULTURE","VULTURE",3,0.166666666666667,120,"preference"
"ssfOUT_120_6_3_VULTURE.33",0.56345646840759,0.173772357416798,0.953140579398382,"ssf","mf.ss","exp","vonmises",50,"ssfOUT_120_6_3_VULTURE","VULTURE",3,0.166666666666667,120,"preference"
"ssfOUT_120_6_3_VULTURE.34",0.536596100879539,0.14919792412716,0.923994277631919,"ssf","mf.ss","exp","vonmises",158,"ssfOUT_120_6_3_VULTURE","VULTURE",3,0.166666666666667,120,"preference"
"ssfOUT_120_6_3_VULTURE.35",0.55183823410715,0.165339867985801,0.938336600228499,"ssf","mf.ss","exp","vonmises",500,"ssfOUT_120_6_3_VULTURE","VULTURE",3,0.166666666666667,120,"preference"
"ssfOUT_120_6_3_VULTURE.36",0.464389095767631,0.0511129799601112,0.877665211575152,"ssf","mf.ss","exp","unif",5,"ssfOUT_120_6_3_VULTURE","VULTURE",3,0.166666666666667,120,"preference"
"ssfOUT_120_6_3_VULTURE.37",0.554863486419801,0.159694825764733,0.950032147074869,"ssf","mf.ss","exp","unif",15,"ssfOUT_120_6_3_VULTURE","VULTURE",3,0.166666666666667,120,"preference"
"ssfOUT_120_6_3_VULTURE.38",0.559271396950897,0.170356991879577,0.948185802022218,"ssf","mf.ss","exp","unif",50,"ssfOUT_120_6_3_VULTURE","VULTURE",3,0.166666666666667,120,"preference"
"ssfOUT_120_6_3_VULTURE.39",0.610718465040166,0.223403143401173,0.998033786679159,"ssf","mf.ss","exp","unif",158,"ssfOUT_120_6_3_VULTURE","VULTURE",3,0.166666666666667,120,"preference"
"ssfOUT_120_6_3_VULTURE.40",0.619249810071119,0.232141553814814,1.00635806632742,"ssf","mf.ss","exp","unif",500,"ssfOUT_120_6_3_VULTURE","VULTURE",3,0.166666666666667,120,"preference"
"ssfOUT_120_6_3_KINGCOBRA.1",-0.0419464073917754,-0.710498210134101,0.62660539535055,"ssf","mf.is","gamma","vonmises",5,"ssfOUT_120_6_3_KINGCOBRA","KINGCOBRA",3,0.166666666666667,120,"no effect"
"ssfOUT_120_6_3_KINGCOBRA.2",0.0879888287078328,-0.551774393765415,0.727752051181081,"ssf","mf.is","gamma","vonmises",15,"ssfOUT_120_6_3_KINGCOBRA","KINGCOBRA",3,0.166666666666667,120,"no effect"
"ssfOUT_120_6_3_KINGCOBRA.3",0.365647473193078,-0.247973643093991,0.979268589480147,"ssf","mf.is","gamma","vonmises",50,"ssfOUT_120_6_3_KINGCOBRA","KINGCOBRA",3,0.166666666666667,120,"no effect"
"ssfOUT_120_6_3_KINGCOBRA.4",0.184040488830605,-0.438450929530755,0.806531907191965,"ssf","mf.is","gamma","vonmises",158,"ssfOUT_120_6_3_KINGCOBRA","KINGCOBRA",3,0.166666666666667,120,"no effect"
"ssfOUT_120_6_3_KINGCOBRA.5",0.28282781512221,-0.324139811435766,0.889795441680186,"ssf","mf.is","gamma","vonmises",500,"ssfOUT_120_6_3_KINGCOBRA","KINGCOBRA",3,0.166666666666667,120,"no effect"
"ssfOUT_120_6_3_KINGCOBRA.6",0.179226600626568,-0.483895329721769,0.842348530974905,"ssf","mf.is","gamma","unif",5,"ssfOUT_120_6_3_KINGCOBRA","KINGCOBRA",3,0.166666666666667,120,"no effect"
"ssfOUT_120_6_3_KINGCOBRA.7",0.271908505192731,-0.346693975782225,0.890510986167687,"ssf","mf.is","gamma","unif",15,"ssfOUT_120_6_3_KINGCOBRA","KINGCOBRA",3,0.166666666666667,120,"no effect"
"ssfOUT_120_6_3_KINGCOBRA.8",0.342329996909683,-0.271088098458091,0.955748092277457,"ssf","mf.is","gamma","unif",50,"ssfOUT_120_6_3_KINGCOBRA","KINGCOBRA",3,0.166666666666667,120,"no effect"
"ssfOUT_120_6_3_KINGCOBRA.9",0.144242284783441,-0.464171453026302,0.752656022593185,"ssf","mf.is","gamma","unif",158,"ssfOUT_120_6_3_KINGCOBRA","KINGCOBRA",3,0.166666666666667,120,"no effect"
"ssfOUT_120_6_3_KINGCOBRA.10",0.307050466313615,-0.302533610707649,0.916634543334879,"ssf","mf.is","gamma","unif",500,"ssfOUT_120_6_3_KINGCOBRA","KINGCOBRA",3,0.166666666666667,120,"no effect"
"ssfOUT_120_6_3_KINGCOBRA.11",-0.123704156758601,-0.848277625877775,0.600869312360574,"ssf","mf.is","exp","vonmises",5,"ssfOUT_120_6_3_KINGCOBRA","KINGCOBRA",3,0.166666666666667,120,"no effect"
"ssfOUT_120_6_3_KINGCOBRA.12",0.069745916383059,-0.56869400915534,0.708185841921458,"ssf","mf.is","exp","vonmises",15,"ssfOUT_120_6_3_KINGCOBRA","KINGCOBRA",3,0.166666666666667,120,"no effect"
"ssfOUT_120_6_3_KINGCOBRA.13",0.0347498048241322,-0.579496913950021,0.648996523598285,"ssf","mf.is","exp","vonmises",50,"ssfOUT_120_6_3_KINGCOBRA","KINGCOBRA",3,0.166666666666667,120,"no effect"
"ssfOUT_120_6_3_KINGCOBRA.14",0.345092847097231,-0.281224898171884,0.971410592366347,"ssf","mf.is","exp","vonmises",158,"ssfOUT_120_6_3_KINGCOBRA","KINGCOBRA",3,0.166666666666667,120,"no effect"
"ssfOUT_120_6_3_KINGCOBRA.15",0.367681075773278,-0.242933436972353,0.97829558851891,"ssf","mf.is","exp","vonmises",500,"ssfOUT_120_6_3_KINGCOBRA","KINGCOBRA",3,0.166666666666667,120,"no effect"
"ssfOUT_120_6_3_KINGCOBRA.16",-0.479876562344437,-1.18433392328391,0.224580798595035,"ssf","mf.is","exp","unif",5,"ssfOUT_120_6_3_KINGCOBRA","KINGCOBRA",3,0.166666666666667,120,"no effect"
"ssfOUT_120_6_3_KINGCOBRA.17",-0.165760580485152,-0.791921562907349,0.460400401937044,"ssf","mf.is","exp","unif",15,"ssfOUT_120_6_3_KINGCOBRA","KINGCOBRA",3,0.166666666666667,120,"no effect"
"ssfOUT_120_6_3_KINGCOBRA.18",0.362145917310518,-0.266132511117701,0.990424345738737,"ssf","mf.is","exp","unif",50,"ssfOUT_120_6_3_KINGCOBRA","KINGCOBRA",3,0.166666666666667,120,"no effect"
"ssfOUT_120_6_3_KINGCOBRA.19",0.211765894876425,-0.401909038294944,0.825440828047794,"ssf","mf.is","exp","unif",158,"ssfOUT_120_6_3_KINGCOBRA","KINGCOBRA",3,0.166666666666667,120,"no effect"
"ssfOUT_120_6_3_KINGCOBRA.20",0.344161593965214,-0.272389472711615,0.960712660642044,"ssf","mf.is","exp","unif",500,"ssfOUT_120_6_3_KINGCOBRA","KINGCOBRA",3,0.166666666666667,120,"no effect"
"ssfOUT_120_6_3_KINGCOBRA.21",0.0808020482339818,-0.581866627330912,0.743470723798876,"ssf","mf.ss","gamma","vonmises",5,"ssfOUT_120_6_3_KINGCOBRA","KINGCOBRA",3,0.166666666666667,120,"no effect"
"ssfOUT_120_6_3_KINGCOBRA.22",0.000452050236438445,-0.639263615397529,0.640167715870406,"ssf","mf.ss","gamma","vonmises",15,"ssfOUT_120_6_3_KINGCOBRA","KINGCOBRA",3,0.166666666666667,120,"no effect"
"ssfOUT_120_6_3_KINGCOBRA.23",0.2451999513353,-0.367713000774749,0.858112903445349,"ssf","mf.ss","gamma","vonmises",50,"ssfOUT_120_6_3_KINGCOBRA","KINGCOBRA",3,0.166666666666667,120,"no effect"
"ssfOUT_120_6_3_KINGCOBRA.24",-0.00549739915110214,-0.622668710713614,0.61167391241141,"ssf","mf.ss","gamma","vonmises",158,"ssfOUT_120_6_3_KINGCOBRA","KINGCOBRA",3,0.166666666666667,120,"no effect"
"ssfOUT_120_6_3_KINGCOBRA.25",0.101703403913119,-0.502926077276048,0.706332885102286,"ssf","mf.ss","gamma","vonmises",500,"ssfOUT_120_6_3_KINGCOBRA","KINGCOBRA",3,0.166666666666667,120,"no effect"
"ssfOUT_120_6_3_KINGCOBRA.26",0.080641570800251,-0.577682451300648,0.73896559290115,"ssf","mf.ss","gamma","unif",5,"ssfOUT_120_6_3_KINGCOBRA","KINGCOBRA",3,0.166666666666667,120,"no effect"
"ssfOUT_120_6_3_KINGCOBRA.27",0.206972524030508,-0.408798919501002,0.822743967562018,"ssf","mf.ss","gamma","unif",15,"ssfOUT_120_6_3_KINGCOBRA","KINGCOBRA",3,0.166666666666667,120,"no effect"
"ssfOUT_120_6_3_KINGCOBRA.28",0.254070097581518,-0.358854755924442,0.866994951087479,"ssf","mf.ss","gamma","unif",50,"ssfOUT_120_6_3_KINGCOBRA","KINGCOBRA",3,0.166666666666667,120,"no effect"
"ssfOUT_120_6_3_KINGCOBRA.29",0.0489740061668616,-0.558266602579596,0.656214614913319,"ssf","mf.ss","gamma","unif",158,"ssfOUT_120_6_3_KINGCOBRA","KINGCOBRA",3,0.166666666666667,120,"no effect"
"ssfOUT_120_6_3_KINGCOBRA.30",0.173846375225214,-0.434455284590781,0.782148035041209,"ssf","mf.ss","gamma","unif",500,"ssfOUT_120_6_3_KINGCOBRA","KINGCOBRA",3,0.166666666666667,120,"no effect"
"ssfOUT_120_6_3_KINGCOBRA.31",-0.204758662238492,-0.874712854569997,0.465195530093013,"ssf","mf.ss","exp","vonmises",5,"ssfOUT_120_6_3_KINGCOBRA","KINGCOBRA",3,0.166666666666667,120,"no effect"
"ssfOUT_120_6_3_KINGCOBRA.32",-0.069847427172293,-0.684796936526781,0.545102082182194,"ssf","mf.ss","exp","vonmises",15,"ssfOUT_120_6_3_KINGCOBRA","KINGCOBRA",3,0.166666666666667,120,"no effect"
"ssfOUT_120_6_3_KINGCOBRA.33",-0.220624541855595,-0.824636215796635,0.383387132085444,"ssf","mf.ss","exp","vonmises",50,"ssfOUT_120_6_3_KINGCOBRA","KINGCOBRA",3,0.166666666666667,120,"no effect"
"ssfOUT_120_6_3_KINGCOBRA.34",-0.308797598584839,-0.907516769108653,0.289921571938976,"ssf","mf.ss","exp","vonmises",158,"ssfOUT_120_6_3_KINGCOBRA","KINGCOBRA",3,0.166666666666667,120,"no effect"
"ssfOUT_120_6_3_KINGCOBRA.35",-0.1777877200549,-0.776489157229703,0.420913717119903,"ssf","mf.ss","exp","vonmises",500,"ssfOUT_120_6_3_KINGCOBRA","KINGCOBRA",3,0.166666666666667,120,"no effect"
"ssfOUT_120_6_3_KINGCOBRA.36",-0.37192620366427,-1.0684382112801,0.324585803951565,"ssf","mf.ss","exp","unif",5,"ssfOUT_120_6_3_KINGCOBRA","KINGCOBRA",3,0.166666666666667,120,"no effect"
"ssfOUT_120_6_3_KINGCOBRA.37",-0.265453449939002,-0.892430567074554,0.361523667196551,"ssf","mf.ss","exp","unif",15,"ssfOUT_120_6_3_KINGCOBRA","KINGCOBRA",3,0.166666666666667,120,"no effect"
"ssfOUT_120_6_3_KINGCOBRA.38",-0.110013085143037,-0.719586520138398,0.499560349852324,"ssf","mf.ss","exp","unif",50,"ssfOUT_120_6_3_KINGCOBRA","KINGCOBRA",3,0.166666666666667,120,"no effect"
"ssfOUT_120_6_3_KINGCOBRA.39",-0.198204934354259,-0.799048017756699,0.402638149048182,"ssf","mf.ss","exp","unif",158,"ssfOUT_120_6_3_KINGCOBRA","KINGCOBRA",3,0.166666666666667,120,"no effect"
"ssfOUT_120_6_3_KINGCOBRA.40",-0.108464749950645,-0.708664888054025,0.491735388152735,"ssf","mf.ss","exp","unif",500,"ssfOUT_120_6_3_KINGCOBRA","KINGCOBRA",3,0.166666666666667,120,"no effect"
"ssfOUT_120_6_4_BADGER.1",0.208420499079467,-0.128704481701352,0.545545479860287,"ssf","mf.is","gamma","vonmises",5,"ssfOUT_120_6_4_BADGER","BADGER",4,0.166666666666667,120,"no effect"
"ssfOUT_120_6_4_BADGER.2",0.316289457181658,0.00608349030536298,0.626495424057954,"ssf","mf.is","gamma","vonmises",15,"ssfOUT_120_6_4_BADGER","BADGER",4,0.166666666666667,120,"preference"
"ssfOUT_120_6_4_BADGER.3",0.323355603394268,0.0216244747585544,0.625086732029982,"ssf","mf.is","gamma","vonmises",50,"ssfOUT_120_6_4_BADGER","BADGER",4,0.166666666666667,120,"preference"
"ssfOUT_120_6_4_BADGER.4",0.355590036892839,0.0559837986021417,0.655196275183536,"ssf","mf.is","gamma","vonmises",158,"ssfOUT_120_6_4_BADGER","BADGER",4,0.166666666666667,120,"preference"
"ssfOUT_120_6_4_BADGER.5",0.330242321876693,0.0311835863420487,0.629301057411337,"ssf","mf.is","gamma","vonmises",500,"ssfOUT_120_6_4_BADGER","BADGER",4,0.166666666666667,120,"preference"
"ssfOUT_120_6_4_BADGER.6",0.154720418032607,-0.173964173939123,0.483405010004337,"ssf","mf.is","gamma","unif",5,"ssfOUT_120_6_4_BADGER","BADGER",4,0.166666666666667,120,"no effect"
"ssfOUT_120_6_4_BADGER.7",0.212348806635886,-0.0955614541819501,0.520259067453723,"ssf","mf.is","gamma","unif",15,"ssfOUT_120_6_4_BADGER","BADGER",4,0.166666666666667,120,"no effect"
"ssfOUT_120_6_4_BADGER.8",0.315307091405075,0.0142355581627406,0.616378624647409,"ssf","mf.is","gamma","unif",50,"ssfOUT_120_6_4_BADGER","BADGER",4,0.166666666666667,120,"preference"
"ssfOUT_120_6_4_BADGER.9",0.282419015017568,-0.0168290116899815,0.581667041725117,"ssf","mf.is","gamma","unif",158,"ssfOUT_120_6_4_BADGER","BADGER",4,0.166666666666667,120,"no effect"
"ssfOUT_120_6_4_BADGER.10",0.306263760554809,0.0075904332274862,0.604937087882132,"ssf","mf.is","gamma","unif",500,"ssfOUT_120_6_4_BADGER","BADGER",4,0.166666666666667,120,"preference"
"ssfOUT_120_6_4_BADGER.11",0.513449517596618,0.170346895855462,0.856552139337773,"ssf","mf.is","exp","vonmises",5,"ssfOUT_120_6_4_BADGER","BADGER",4,0.166666666666667,120,"preference"
"ssfOUT_120_6_4_BADGER.12",0.269602434132527,-0.0428115655015764,0.582016433766631,"ssf","mf.is","exp","vonmises",15,"ssfOUT_120_6_4_BADGER","BADGER",4,0.166666666666667,120,"no effect"
"ssfOUT_120_6_4_BADGER.13",0.309865715889011,0.00667334276080861,0.613058089017212,"ssf","mf.is","exp","vonmises",50,"ssfOUT_120_6_4_BADGER","BADGER",4,0.166666666666667,120,"preference"
"ssfOUT_120_6_4_BADGER.14",0.261659309458449,-0.038357266455669,0.561675885372568,"ssf","mf.is","exp","vonmises",158,"ssfOUT_120_6_4_BADGER","BADGER",4,0.166666666666667,120,"no effect"
"ssfOUT_120_6_4_BADGER.15",0.281600004732542,-0.0172470601292526,0.580447069594336,"ssf","mf.is","exp","vonmises",500,"ssfOUT_120_6_4_BADGER","BADGER",4,0.166666666666667,120,"no effect"
"ssfOUT_120_6_4_BADGER.16",0.287565537027411,-0.0432909412475343,0.618422015302357,"ssf","mf.is","exp","unif",5,"ssfOUT_120_6_4_BADGER","BADGER",4,0.166666666666667,120,"no effect"
"ssfOUT_120_6_4_BADGER.17",0.21533706272027,-0.0975197378828173,0.528193863323358,"ssf","mf.is","exp","unif",15,"ssfOUT_120_6_4_BADGER","BADGER",4,0.166666666666667,120,"no effect"
"ssfOUT_120_6_4_BADGER.18",0.257597981016696,-0.0439703589779361,0.559166321011327,"ssf","mf.is","exp","unif",50,"ssfOUT_120_6_4_BADGER","BADGER",4,0.166666666666667,120,"no effect"
"ssfOUT_120_6_4_BADGER.19",0.29677579627563,-0.00300199685214991,0.596553589403409,"ssf","mf.is","exp","unif",158,"ssfOUT_120_6_4_BADGER","BADGER",4,0.166666666666667,120,"no effect"
"ssfOUT_120_6_4_BADGER.20",0.328155543033091,0.029375469436269,0.626935616629913,"ssf","mf.is","exp","unif",500,"ssfOUT_120_6_4_BADGER","BADGER",4,0.166666666666667,120,"preference"
"ssfOUT_120_6_4_BADGER.21",0.185847239787644,-0.145507642707363,0.517202122282652,"ssf","mf.ss","gamma","vonmises",5,"ssfOUT_120_6_4_BADGER","BADGER",4,0.166666666666667,120,"no effect"
"ssfOUT_120_6_4_BADGER.22",0.30841037120566,0.00124516634962074,0.6155755760617,"ssf","mf.ss","gamma","vonmises",15,"ssfOUT_120_6_4_BADGER","BADGER",4,0.166666666666667,120,"preference"
"ssfOUT_120_6_4_BADGER.23",0.284525422547213,-0.0164437863135283,0.585494631407955,"ssf","mf.ss","gamma","vonmises",50,"ssfOUT_120_6_4_BADGER","BADGER",4,0.166666666666667,120,"no effect"
"ssfOUT_120_6_4_BADGER.24",0.282316677629826,-0.0165696220654564,0.581202977325108,"ssf","mf.ss","gamma","vonmises",158,"ssfOUT_120_6_4_BADGER","BADGER",4,0.166666666666667,120,"no effect"
"ssfOUT_120_6_4_BADGER.25",0.257929159745248,-0.0408206440641354,0.556678963554631,"ssf","mf.ss","gamma","vonmises",500,"ssfOUT_120_6_4_BADGER","BADGER",4,0.166666666666667,120,"no effect"
"ssfOUT_120_6_4_BADGER.26",0.199337367202401,-0.126616347441822,0.525291081846624,"ssf","mf.ss","gamma","unif",5,"ssfOUT_120_6_4_BADGER","BADGER",4,0.166666666666667,120,"no effect"
"ssfOUT_120_6_4_BADGER.27",0.220835651308202,-0.0862727221915697,0.527944024807973,"ssf","mf.ss","gamma","unif",15,"ssfOUT_120_6_4_BADGER","BADGER",4,0.166666666666667,120,"no effect"
"ssfOUT_120_6_4_BADGER.28",0.312380306224042,0.0116889959085292,0.613071616539555,"ssf","mf.ss","gamma","unif",50,"ssfOUT_120_6_4_BADGER","BADGER",4,0.166666666666667,120,"preference"
"ssfOUT_120_6_4_BADGER.29",0.261005024345844,-0.0377955726690067,0.559805621360694,"ssf","mf.ss","gamma","unif",158,"ssfOUT_120_6_4_BADGER","BADGER",4,0.166666666666667,120,"no effect"
"ssfOUT_120_6_4_BADGER.30",0.267595881028659,-0.0306726271333619,0.56586438919068,"ssf","mf.ss","gamma","unif",500,"ssfOUT_120_6_4_BADGER","BADGER",4,0.166666666666667,120,"no effect"
"ssfOUT_120_6_4_BADGER.31",0.324543009875904,-0.0100769360156215,0.65916295576743,"ssf","mf.ss","exp","vonmises",5,"ssfOUT_120_6_4_BADGER","BADGER",4,0.166666666666667,120,"no effect"
"ssfOUT_120_6_4_BADGER.32",0.175525451652863,-0.136254130643736,0.487305033949462,"ssf","mf.ss","exp","vonmises",15,"ssfOUT_120_6_4_BADGER","BADGER",4,0.166666666666667,120,"no effect"
"ssfOUT_120_6_4_BADGER.33",0.201875933917875,-0.102298665079555,0.506050532915306,"ssf","mf.ss","exp","vonmises",50,"ssfOUT_120_6_4_BADGER","BADGER",4,0.166666666666667,120,"no effect"
"ssfOUT_120_6_4_BADGER.34",0.15510163957493,-0.146569503985313,0.456772783135172,"ssf","mf.ss","exp","vonmises",158,"ssfOUT_120_6_4_BADGER","BADGER",4,0.166666666666667,120,"no effect"
"ssfOUT_120_6_4_BADGER.35",0.172772046813847,-0.128415498421102,0.473959592048797,"ssf","mf.ss","exp","vonmises",500,"ssfOUT_120_6_4_BADGER","BADGER",4,0.166666666666667,120,"no effect"
"ssfOUT_120_6_4_BADGER.36",0.226921820940101,-0.100210984867964,0.554054626748167,"ssf","mf.ss","exp","unif",5,"ssfOUT_120_6_4_BADGER","BADGER",4,0.166666666666667,120,"no effect"
"ssfOUT_120_6_4_BADGER.37",0.130800666378632,-0.181451033737839,0.443052366495103,"ssf","mf.ss","exp","unif",15,"ssfOUT_120_6_4_BADGER","BADGER",4,0.166666666666667,120,"no effect"
"ssfOUT_120_6_4_BADGER.38",0.165265974189576,-0.137391081996097,0.467923030375249,"ssf","mf.ss","exp","unif",50,"ssfOUT_120_6_4_BADGER","BADGER",4,0.166666666666667,120,"no effect"
"ssfOUT_120_6_4_BADGER.39",0.198496630202103,-0.103361709128872,0.500354969533078,"ssf","mf.ss","exp","unif",158,"ssfOUT_120_6_4_BADGER","BADGER",4,0.166666666666667,120,"no effect"
"ssfOUT_120_6_4_BADGER.40",0.216934264966704,-0.0836614952268357,0.517530025160243,"ssf","mf.ss","exp","unif",500,"ssfOUT_120_6_4_BADGER","BADGER",4,0.166666666666667,120,"no effect"
"ssfOUT_120_6_4_VULTURE.1",0.558009199925457,0.175682928420353,0.940335471430562,"ssf","mf.is","gamma","vonmises",5,"ssfOUT_120_6_4_VULTURE","VULTURE",4,0.166666666666667,120,"preference"
"ssfOUT_120_6_4_VULTURE.2",0.654681603894887,0.284578047076129,1.02478516071365,"ssf","mf.is","gamma","vonmises",15,"ssfOUT_120_6_4_VULTURE","VULTURE",4,0.166666666666667,120,"preference"
"ssfOUT_120_6_4_VULTURE.3",0.687592985689938,0.324237812698683,1.05094815868119,"ssf","mf.is","gamma","vonmises",50,"ssfOUT_120_6_4_VULTURE","VULTURE",4,0.166666666666667,120,"preference"
"ssfOUT_120_6_4_VULTURE.4",0.585696232033875,0.223865382592579,0.947527081475172,"ssf","mf.is","gamma","vonmises",158,"ssfOUT_120_6_4_VULTURE","VULTURE",4,0.166666666666667,120,"preference"
"ssfOUT_120_6_4_VULTURE.5",0.600734046010989,0.239649964991438,0.96181812703054,"ssf","mf.is","gamma","vonmises",500,"ssfOUT_120_6_4_VULTURE","VULTURE",4,0.166666666666667,120,"preference"
"ssfOUT_120_6_4_VULTURE.6",0.608810432150457,0.22662492824555,0.990995936055364,"ssf","mf.is","gamma","unif",5,"ssfOUT_120_6_4_VULTURE","VULTURE",4,0.166666666666667,120,"preference"
"ssfOUT_120_6_4_VULTURE.7",0.573211476995722,0.204056499701496,0.942366454289947,"ssf","mf.is","gamma","unif",15,"ssfOUT_120_6_4_VULTURE","VULTURE",4,0.166666666666667,120,"preference"
"ssfOUT_120_6_4_VULTURE.8",0.552088958843177,0.189145845405964,0.91503207228039,"ssf","mf.is","gamma","unif",50,"ssfOUT_120_6_4_VULTURE","VULTURE",4,0.166666666666667,120,"preference"
"ssfOUT_120_6_4_VULTURE.9",0.57953072001555,0.218211426305947,0.940850013725152,"ssf","mf.is","gamma","unif",158,"ssfOUT_120_6_4_VULTURE","VULTURE",4,0.166666666666667,120,"preference"
"ssfOUT_120_6_4_VULTURE.10",0.605057276814304,0.24397481286377,0.966139740764839,"ssf","mf.is","gamma","unif",500,"ssfOUT_120_6_4_VULTURE","VULTURE",4,0.166666666666667,120,"preference"
"ssfOUT_120_6_4_VULTURE.11",0.786509941089754,0.396466258433623,1.17655362374589,"ssf","mf.is","exp","vonmises",5,"ssfOUT_120_6_4_VULTURE","VULTURE",4,0.166666666666667,120,"preference"
"ssfOUT_120_6_4_VULTURE.12",0.552243499793365,0.179566984162814,0.924920015423916,"ssf","mf.is","exp","vonmises",15,"ssfOUT_120_6_4_VULTURE","VULTURE",4,0.166666666666667,120,"preference"
"ssfOUT_120_6_4_VULTURE.13",0.634439179655926,0.27023330466982,0.998645054642033,"ssf","mf.is","exp","vonmises",50,"ssfOUT_120_6_4_VULTURE","VULTURE",4,0.166666666666667,120,"preference"
"ssfOUT_120_6_4_VULTURE.14",0.624533664825994,0.262589069731486,0.986478259920502,"ssf","mf.is","exp","vonmises",158,"ssfOUT_120_6_4_VULTURE","VULTURE",4,0.166666666666667,120,"preference"
"ssfOUT_120_6_4_VULTURE.15",0.603423698134914,0.242186113815763,0.964661282454064,"ssf","mf.is","exp","vonmises",500,"ssfOUT_120_6_4_VULTURE","VULTURE",4,0.166666666666667,120,"preference"
"ssfOUT_120_6_4_VULTURE.16",0.601182005286192,0.210936367036418,0.991427643535966,"ssf","mf.is","exp","unif",5,"ssfOUT_120_6_4_VULTURE","VULTURE",4,0.166666666666667,120,"preference"
"ssfOUT_120_6_4_VULTURE.17",0.537232930337227,0.165465693253278,0.909000167421176,"ssf","mf.is","exp","unif",15,"ssfOUT_120_6_4_VULTURE","VULTURE",4,0.166666666666667,120,"preference"
"ssfOUT_120_6_4_VULTURE.18",0.608764735218852,0.244269459059105,0.9732600113786,"ssf","mf.is","exp","unif",50,"ssfOUT_120_6_4_VULTURE","VULTURE",4,0.166666666666667,120,"preference"
"ssfOUT_120_6_4_VULTURE.19",0.604814237313295,0.242853467926444,0.966775006700146,"ssf","mf.is","exp","unif",158,"ssfOUT_120_6_4_VULTURE","VULTURE",4,0.166666666666667,120,"preference"
"ssfOUT_120_6_4_VULTURE.20",0.605067974041664,0.243986011076863,0.966149937006465,"ssf","mf.is","exp","unif",500,"ssfOUT_120_6_4_VULTURE","VULTURE",4,0.166666666666667,120,"preference"
"ssfOUT_120_6_4_VULTURE.21",0.585774473222926,0.207435662755614,0.964113283690238,"ssf","mf.ss","gamma","vonmises",5,"ssfOUT_120_6_4_VULTURE","VULTURE",4,0.166666666666667,120,"preference"
"ssfOUT_120_6_4_VULTURE.22",0.60347111301042,0.2348999585428,0.972042267478039,"ssf","mf.ss","gamma","vonmises",15,"ssfOUT_120_6_4_VULTURE","VULTURE",4,0.166666666666667,120,"preference"
"ssfOUT_120_6_4_VULTURE.23",0.633894676220954,0.27148141470862,0.996307937733288,"ssf","mf.ss","gamma","vonmises",50,"ssfOUT_120_6_4_VULTURE","VULTURE",4,0.166666666666667,120,"preference"
"ssfOUT_120_6_4_VULTURE.24",0.544354294790653,0.183099600974966,0.90560898860634,"ssf","mf.ss","gamma","vonmises",158,"ssfOUT_120_6_4_VULTURE","VULTURE",4,0.166666666666667,120,"preference"
"ssfOUT_120_6_4_VULTURE.25",0.565957276303192,0.205275731064808,0.926638821541575,"ssf","mf.ss","gamma","vonmises",500,"ssfOUT_120_6_4_VULTURE","VULTURE",4,0.166666666666667,120,"preference"
"ssfOUT_120_6_4_VULTURE.26",0.603433073982956,0.221565764624746,0.985300383341166,"ssf","mf.ss","gamma","unif",5,"ssfOUT_120_6_4_VULTURE","VULTURE",4,0.166666666666667,120,"preference"
"ssfOUT_120_6_4_VULTURE.27",0.557228243994875,0.188563808640943,0.925892679348807,"ssf","mf.ss","gamma","unif",15,"ssfOUT_120_6_4_VULTURE","VULTURE",4,0.166666666666667,120,"preference"
"ssfOUT_120_6_4_VULTURE.28",0.541027712558695,0.178409228462523,0.903646196654867,"ssf","mf.ss","gamma","unif",50,"ssfOUT_120_6_4_VULTURE","VULTURE",4,0.166666666666667,120,"preference"
"ssfOUT_120_6_4_VULTURE.29",0.573917505638734,0.212908409412476,0.934926601864992,"ssf","mf.ss","gamma","unif",158,"ssfOUT_120_6_4_VULTURE","VULTURE",4,0.166666666666667,120,"preference"
"ssfOUT_120_6_4_VULTURE.30",0.585717677728156,0.225019897555093,0.946415457901219,"ssf","mf.ss","gamma","unif",500,"ssfOUT_120_6_4_VULTURE","VULTURE",4,0.166666666666667,120,"preference"
"ssfOUT_120_6_4_VULTURE.31",0.658934904512998,0.278054628868811,1.03981518015718,"ssf","mf.ss","exp","vonmises",5,"ssfOUT_120_6_4_VULTURE","VULTURE",4,0.166666666666667,120,"preference"
"ssfOUT_120_6_4_VULTURE.32",0.467764522024779,0.0987089320906395,0.836820111958918,"ssf","mf.ss","exp","vonmises",15,"ssfOUT_120_6_4_VULTURE","VULTURE",4,0.166666666666667,120,"preference"
"ssfOUT_120_6_4_VULTURE.33",0.527183017343495,0.163175797305732,0.891190237381258,"ssf","mf.ss","exp","vonmises",50,"ssfOUT_120_6_4_VULTURE","VULTURE",4,0.166666666666667,120,"preference"
"ssfOUT_120_6_4_VULTURE.34",0.550607215654283,0.188334179183595,0.912880252124972,"ssf","mf.ss","exp","vonmises",158,"ssfOUT_120_6_4_VULTURE","VULTURE",4,0.166666666666667,120,"preference"
"ssfOUT_120_6_4_VULTURE.35",0.512349278277314,0.150496902190693,0.874201654363936,"ssf","mf.ss","exp","vonmises",500,"ssfOUT_120_6_4_VULTURE","VULTURE",4,0.166666666666667,120,"preference"
"ssfOUT_120_6_4_VULTURE.36",0.555334954428322,0.171028491486098,0.939641417370547,"ssf","mf.ss","exp","unif",5,"ssfOUT_120_6_4_VULTURE","VULTURE",4,0.166666666666667,120,"preference"
"ssfOUT_120_6_4_VULTURE.37",0.427512573422952,0.0586161536527571,0.796408993193147,"ssf","mf.ss","exp","unif",15,"ssfOUT_120_6_4_VULTURE","VULTURE",4,0.166666666666667,120,"preference"
"ssfOUT_120_6_4_VULTURE.38",0.486196593398039,0.122021436495334,0.850371750300743,"ssf","mf.ss","exp","unif",50,"ssfOUT_120_6_4_VULTURE","VULTURE",4,0.166666666666667,120,"preference"
"ssfOUT_120_6_4_VULTURE.39",0.543681535668792,0.181316101487212,0.906046969850371,"ssf","mf.ss","exp","unif",158,"ssfOUT_120_6_4_VULTURE","VULTURE",4,0.166666666666667,120,"preference"
"ssfOUT_120_6_4_VULTURE.40",0.525432777112431,0.163928371782825,0.886937182442037,"ssf","mf.ss","exp","unif",500,"ssfOUT_120_6_4_VULTURE","VULTURE",4,0.166666666666667,120,"preference"
"ssfOUT_120_6_4_KINGCOBRA.1",16.2400625970448,-1694.93334514022,1727.41347033431,"ssf","mf.is","gamma","vonmises",5,"ssfOUT_120_6_4_KINGCOBRA","KINGCOBRA",4,0.166666666666667,120,"no effect"
"ssfOUT_120_6_4_KINGCOBRA.2",16.0843366927022,-1319.04300883387,1351.21168221928,"ssf","mf.is","gamma","vonmises",15,"ssfOUT_120_6_4_KINGCOBRA","KINGCOBRA",4,0.166666666666667,120,"no effect"
"ssfOUT_120_6_4_KINGCOBRA.3",16.1024850206465,-1213.77915956217,1245.98412960346,"ssf","mf.is","gamma","vonmises",50,"ssfOUT_120_6_4_KINGCOBRA","KINGCOBRA",4,0.166666666666667,120,"no effect"
"ssfOUT_120_6_4_KINGCOBRA.4",16.0451187803171,-1200.69188003408,1232.78211759471,"ssf","mf.is","gamma","vonmises",158,"ssfOUT_120_6_4_KINGCOBRA","KINGCOBRA",4,0.166666666666667,120,"no effect"
"ssfOUT_120_6_4_KINGCOBRA.5",16.0575484337762,-1187.23157447324,1219.34667134079,"ssf","mf.is","gamma","vonmises",500,"ssfOUT_120_6_4_KINGCOBRA","KINGCOBRA",4,0.166666666666667,120,"no effect"
"ssfOUT_120_6_4_KINGCOBRA.6",17.3559831114934,-2194.40648680682,2229.11845302981,"ssf","mf.is","gamma","unif",5,"ssfOUT_120_6_4_KINGCOBRA","KINGCOBRA",4,0.166666666666667,120,"no effect"
"ssfOUT_120_6_4_KINGCOBRA.7",16.1860467270924,-1243.27915405968,1275.65124751387,"ssf","mf.is","gamma","unif",15,"ssfOUT_120_6_4_KINGCOBRA","KINGCOBRA",4,0.166666666666667,120,"no effect"
"ssfOUT_120_6_4_KINGCOBRA.8",16.0130048254029,-1161.51486277776,1193.54087242856,"ssf","mf.is","gamma","unif",50,"ssfOUT_120_6_4_KINGCOBRA","KINGCOBRA",4,0.166666666666667,120,"no effect"
"ssfOUT_120_6_4_KINGCOBRA.9",16.0407248570085,-1170.14875714136,1202.23020685538,"ssf","mf.is","gamma","unif",158,"ssfOUT_120_6_4_KINGCOBRA","KINGCOBRA",4,0.166666666666667,120,"no effect"
"ssfOUT_120_6_4_KINGCOBRA.10",16.0217852891939,-1184.54058834707,1216.58415892546,"ssf","mf.is","gamma","unif",500,"ssfOUT_120_6_4_KINGCOBRA","KINGCOBRA",4,0.166666666666667,120,"no effect"
"ssfOUT_120_6_4_KINGCOBRA.11",17.058511591326,-2073.41879791809,2107.53582110074,"ssf","mf.is","exp","vonmises",5,"ssfOUT_120_6_4_KINGCOBRA","KINGCOBRA",4,0.166666666666667,120,"no effect"
"ssfOUT_120_6_4_KINGCOBRA.12",16.3382531165922,-1250.47264766137,1283.14915389455,"ssf","mf.is","exp","vonmises",15,"ssfOUT_120_6_4_KINGCOBRA","KINGCOBRA",4,0.166666666666667,120,"no effect"
"ssfOUT_120_6_4_KINGCOBRA.13",16.5032234535568,-1465.65420104461,1498.66064795173,"ssf","mf.is","exp","vonmises",50,"ssfOUT_120_6_4_KINGCOBRA","KINGCOBRA",4,0.166666666666667,120,"no effect"
"ssfOUT_120_6_4_KINGCOBRA.14",15.4918114769207,-898.834178515834,929.817801469676,"ssf","mf.is","exp","vonmises",158,"ssfOUT_120_6_4_KINGCOBRA","KINGCOBRA",4,0.166666666666667,120,"no effect"
"ssfOUT_120_6_4_KINGCOBRA.15",15.4442662294472,-884.534134465922,915.422666924816,"ssf","mf.is","exp","vonmises",500,"ssfOUT_120_6_4_KINGCOBRA","KINGCOBRA",4,0.166666666666667,120,"no effect"
"ssfOUT_120_6_4_KINGCOBRA.16",17.1693958955131,-2170.05780223576,2204.39659402679,"ssf","mf.is","exp","unif",5,"ssfOUT_120_6_4_KINGCOBRA","KINGCOBRA",4,0.166666666666667,120,"no effect"
"ssfOUT_120_6_4_KINGCOBRA.17",17.1340119434864,-1963.26872600165,1997.53674988862,"ssf","mf.is","exp","unif",15,"ssfOUT_120_6_4_KINGCOBRA","KINGCOBRA",4,0.166666666666667,120,"no effect"
"ssfOUT_120_6_4_KINGCOBRA.18",16.4880348177306,-1480.19764483103,1513.17371446649,"ssf","mf.is","exp","unif",50,"ssfOUT_120_6_4_KINGCOBRA","KINGCOBRA",4,0.166666666666667,120,"no effect"
"ssfOUT_120_6_4_KINGCOBRA.19",15.474334543576,-865.877291171943,896.825960259095,"ssf","mf.is","exp","unif",158,"ssfOUT_120_6_4_KINGCOBRA","KINGCOBRA",4,0.166666666666667,120,"no effect"
"ssfOUT_120_6_4_KINGCOBRA.20",15.4581147044711,-906.484392796472,937.400622205414,"ssf","mf.is","exp","unif",500,"ssfOUT_120_6_4_KINGCOBRA","KINGCOBRA",4,0.166666666666667,120,"no effect"
"ssfOUT_120_6_4_KINGCOBRA.21",16.253902899569,-1668.16865115751,1700.67645695664,"ssf","mf.ss","gamma","vonmises",5,"ssfOUT_120_6_4_KINGCOBRA","KINGCOBRA",4,0.166666666666667,120,"no effect"
"ssfOUT_120_6_4_KINGCOBRA.22",16.1232275102723,-1314.51145752979,1346.75791255033,"ssf","mf.ss","gamma","vonmises",15,"ssfOUT_120_6_4_KINGCOBRA","KINGCOBRA",4,0.166666666666667,120,"no effect"
"ssfOUT_120_6_4_KINGCOBRA.23",16.029690447775,-1215.58450662951,1247.64388752506,"ssf","mf.ss","gamma","vonmises",50,"ssfOUT_120_6_4_KINGCOBRA","KINGCOBRA",4,0.166666666666667,120,"no effect"
"ssfOUT_120_6_4_KINGCOBRA.24",16.0107791304207,-1198.72044782605,1230.74200608689,"ssf","mf.ss","gamma","vonmises",158,"ssfOUT_120_6_4_KINGCOBRA","KINGCOBRA",4,0.166666666666667,120,"no effect"
"ssfOUT_120_6_4_KINGCOBRA.25",16.0053448011035,-1188.42557489808,1220.43626450029,"ssf","mf.ss","gamma","vonmises",500,"ssfOUT_120_6_4_KINGCOBRA","KINGCOBRA",4,0.166666666666667,120,"no effect"
"ssfOUT_120_6_4_KINGCOBRA.26",17.3144037655402,-2214.27647619048,2248.90528372156,"ssf","mf.ss","gamma","unif",5,"ssfOUT_120_6_4_KINGCOBRA","KINGCOBRA",4,0.166666666666667,120,"no effect"
"ssfOUT_120_6_4_KINGCOBRA.27",16.1153548345034,-1240.40999041387,1272.64070008287,"ssf","mf.ss","gamma","unif",15,"ssfOUT_120_6_4_KINGCOBRA","KINGCOBRA",4,0.166666666666667,120,"no effect"
"ssfOUT_120_6_4_KINGCOBRA.28",16.0052080722314,-1161.5317831653,1193.54219930976,"ssf","mf.ss","gamma","unif",50,"ssfOUT_120_6_4_KINGCOBRA","KINGCOBRA",4,0.166666666666667,120,"no effect"
"ssfOUT_120_6_4_KINGCOBRA.29",16.0062796256991,-1169.42373109675,1201.43629034814,"ssf","mf.ss","gamma","unif",158,"ssfOUT_120_6_4_KINGCOBRA","KINGCOBRA",4,0.166666666666667,120,"no effect"
"ssfOUT_120_6_4_KINGCOBRA.30",15.9956776895971,-1184.00435766569,1215.99571304488,"ssf","mf.ss","gamma","unif",500,"ssfOUT_120_6_4_KINGCOBRA","KINGCOBRA",4,0.166666666666667,120,"no effect"
"ssfOUT_120_6_4_KINGCOBRA.31",17.3312800087043,-2088.19837934028,2122.86093935769,"ssf","mf.ss","exp","vonmises",5,"ssfOUT_120_6_4_KINGCOBRA","KINGCOBRA",4,0.166666666666667,120,"no effect"
"ssfOUT_120_6_4_KINGCOBRA.32",17.1641615459811,-1854.85334610546,1889.18166919742,"ssf","mf.ss","exp","vonmises",15,"ssfOUT_120_6_4_KINGCOBRA","KINGCOBRA",4,0.166666666666667,120,"no effect"
"ssfOUT_120_6_4_KINGCOBRA.33",16.056184842153,-1062.21347223445,1094.32584191876,"ssf","mf.ss","exp","vonmises",50,"ssfOUT_120_6_4_KINGCOBRA","KINGCOBRA",4,0.166666666666667,120,"no effect"
"ssfOUT_120_6_4_KINGCOBRA.34",16.02130060009,-1071.24461396429,1103.28721516447,"ssf","mf.ss","exp","vonmises",158,"ssfOUT_120_6_4_KINGCOBRA","KINGCOBRA",4,0.166666666666667,120,"no effect"
"ssfOUT_120_6_4_KINGCOBRA.35",16.0177776973671,-1088.08406252206,1120.1196179168,"ssf","mf.ss","exp","vonmises",500,"ssfOUT_120_6_4_KINGCOBRA","KINGCOBRA",4,0.166666666666667,120,"no effect"
"ssfOUT_120_6_4_KINGCOBRA.36",17.3071932095482,-2125.87559890963,2160.48998532873,"ssf","mf.ss","exp","unif",5,"ssfOUT_120_6_4_KINGCOBRA","KINGCOBRA",4,0.166666666666667,120,"no effect"
"ssfOUT_120_6_4_KINGCOBRA.37",16.137169424788,-1130.86427733181,1163.13861618139,"ssf","mf.ss","exp","unif",15,"ssfOUT_120_6_4_KINGCOBRA","KINGCOBRA",4,0.166666666666667,120,"no effect"
"ssfOUT_120_6_4_KINGCOBRA.38",16.0368154335907,-1091.49876607297,1123.57239694015,"ssf","mf.ss","exp","unif",50,"ssfOUT_120_6_4_KINGCOBRA","KINGCOBRA",4,0.166666666666667,120,"no effect"
"ssfOUT_120_6_4_KINGCOBRA.39",16.0283569236554,-1053.5479307436,1085.60464459091,"ssf","mf.ss","exp","unif",158,"ssfOUT_120_6_4_KINGCOBRA","KINGCOBRA",4,0.166666666666667,120,"no effect"
"ssfOUT_120_6_4_KINGCOBRA.40",16.0175865174105,-1068.26149688357,1100.29666991839,"ssf","mf.ss","exp","unif",500,"ssfOUT_120_6_4_KINGCOBRA","KINGCOBRA",4,0.166666666666667,120,"no effect"
"ssfOUT_120_12_1_BADGER.1",0.292944967281998,-0.507053264900299,1.09294319946429,"ssf","mf.is","gamma","vonmises",5,"ssfOUT_120_12_1_BADGER","BADGER",1,0.0833333333333333,120,"no effect"
"ssfOUT_120_12_1_BADGER.2",0.388034281249222,-0.37291769429191,1.14898625679035,"ssf","mf.is","gamma","vonmises",15,"ssfOUT_120_12_1_BADGER","BADGER",1,0.0833333333333333,120,"no effect"
"ssfOUT_120_12_1_BADGER.3",0.890754258734713,0.15398234996918,1.62752616750025,"ssf","mf.is","gamma","vonmises",50,"ssfOUT_120_12_1_BADGER","BADGER",1,0.0833333333333333,120,"preference"
"ssfOUT_120_12_1_BADGER.4",0.866678324529577,0.141491333313369,1.59186531574579,"ssf","mf.is","gamma","vonmises",158,"ssfOUT_120_12_1_BADGER","BADGER",1,0.0833333333333333,120,"preference"
"ssfOUT_120_12_1_BADGER.5",0.86165318771862,0.133187715676884,1.59011865976036,"ssf","mf.is","gamma","vonmises",500,"ssfOUT_120_12_1_BADGER","BADGER",1,0.0833333333333333,120,"preference"
"ssfOUT_120_12_1_BADGER.6",0.896657446660806,0.124696287508218,1.66861860581339,"ssf","mf.is","gamma","unif",5,"ssfOUT_120_12_1_BADGER","BADGER",1,0.0833333333333333,120,"preference"
"ssfOUT_120_12_1_BADGER.7",0.840764115679282,0.0962176557773691,1.58531057558119,"ssf","mf.is","gamma","unif",15,"ssfOUT_120_12_1_BADGER","BADGER",1,0.0833333333333333,120,"preference"
"ssfOUT_120_12_1_BADGER.8",0.908458488883216,0.179613286987011,1.63730369077942,"ssf","mf.is","gamma","unif",50,"ssfOUT_120_12_1_BADGER","BADGER",1,0.0833333333333333,120,"preference"
"ssfOUT_120_12_1_BADGER.9",0.881772724162105,0.154734886874588,1.60881056144962,"ssf","mf.is","gamma","unif",158,"ssfOUT_120_12_1_BADGER","BADGER",1,0.0833333333333333,120,"preference"
"ssfOUT_120_12_1_BADGER.10",0.892168489201782,0.167341732945147,1.61699524545842,"ssf","mf.is","gamma","unif",500,"ssfOUT_120_12_1_BADGER","BADGER",1,0.0833333333333333,120,"preference"
"ssfOUT_120_12_1_BADGER.11",0.759077518464222,-0.0987052468227718,1.61686028375122,"ssf","mf.is","exp","vonmises",5,"ssfOUT_120_12_1_BADGER","BADGER",1,0.0833333333333333,120,"no effect"
"ssfOUT_120_12_1_BADGER.12",1.06710903924591,0.315488556865775,1.81872952162604,"ssf","mf.is","exp","vonmises",15,"ssfOUT_120_12_1_BADGER","BADGER",1,0.0833333333333333,120,"preference"
"ssfOUT_120_12_1_BADGER.13",0.730886698908342,-0.00387758023136153,1.46565097804805,"ssf","mf.is","exp","vonmises",50,"ssfOUT_120_12_1_BADGER","BADGER",1,0.0833333333333333,120,"no effect"
"ssfOUT_120_12_1_BADGER.14",0.7639044197723,0.037142615453546,1.49066622409105,"ssf","mf.is","exp","vonmises",158,"ssfOUT_120_12_1_BADGER","BADGER",1,0.0833333333333333,120,"preference"
"ssfOUT_120_12_1_BADGER.15",0.791762487639538,0.06766034050755,1.51586463477153,"ssf","mf.is","exp","vonmises",500,"ssfOUT_120_12_1_BADGER","BADGER",1,0.0833333333333333,120,"preference"
"ssfOUT_120_12_1_BADGER.16",1.0125817666234,0.244112389757439,1.78105114348936,"ssf","mf.is","exp","unif",5,"ssfOUT_120_12_1_BADGER","BADGER",1,0.0833333333333333,120,"preference"
"ssfOUT_120_12_1_BADGER.17",0.969740386121414,0.230287014775723,1.70919375746711,"ssf","mf.is","exp","unif",15,"ssfOUT_120_12_1_BADGER","BADGER",1,0.0833333333333333,120,"preference"
"ssfOUT_120_12_1_BADGER.18",0.915406884322537,0.186244848931859,1.64456891971321,"ssf","mf.is","exp","unif",50,"ssfOUT_120_12_1_BADGER","BADGER",1,0.0833333333333333,120,"preference"
"ssfOUT_120_12_1_BADGER.19",0.810239113927073,0.0831354371596693,1.53734279069448,"ssf","mf.is","exp","unif",158,"ssfOUT_120_12_1_BADGER","BADGER",1,0.0833333333333333,120,"preference"
"ssfOUT_120_12_1_BADGER.20",0.843031178400299,0.117598744135831,1.56846361266477,"ssf","mf.is","exp","unif",500,"ssfOUT_120_12_1_BADGER","BADGER",1,0.0833333333333333,120,"preference"
"ssfOUT_120_12_1_BADGER.21",0.712960736898966,-0.0466234215537596,1.47254489535169,"ssf","mf.ss","gamma","vonmises",5,"ssfOUT_120_12_1_BADGER","BADGER",1,0.0833333333333333,120,"no effect"
"ssfOUT_120_12_1_BADGER.22",0.346959009111686,-0.391705803300937,1.08562382152431,"ssf","mf.ss","gamma","vonmises",15,"ssfOUT_120_12_1_BADGER","BADGER",1,0.0833333333333333,120,"no effect"
"ssfOUT_120_12_1_BADGER.23",0.751678284378504,0.0262389661798106,1.4771176025772,"ssf","mf.ss","gamma","vonmises",50,"ssfOUT_120_12_1_BADGER","BADGER",1,0.0833333333333333,120,"preference"
"ssfOUT_120_12_1_BADGER.24",0.636376210847084,-0.0845271069875093,1.35727952868168,"ssf","mf.ss","gamma","vonmises",158,"ssfOUT_120_12_1_BADGER","BADGER",1,0.0833333333333333,120,"no effect"
"ssfOUT_120_12_1_BADGER.25",0.626405885487499,-0.0936376250409315,1.34644939601593,"ssf","mf.ss","gamma","vonmises",500,"ssfOUT_120_12_1_BADGER","BADGER",1,0.0833333333333333,120,"no effect"
"ssfOUT_120_12_1_BADGER.26",0.83497915853545,0.07617599305898,1.59378232401192,"ssf","mf.ss","gamma","unif",5,"ssfOUT_120_12_1_BADGER","BADGER",1,0.0833333333333333,120,"preference"
"ssfOUT_120_12_1_BADGER.27",0.826652635730413,0.0929237460765379,1.56038152538429,"ssf","mf.ss","gamma","unif",15,"ssfOUT_120_12_1_BADGER","BADGER",1,0.0833333333333333,120,"preference"
"ssfOUT_120_12_1_BADGER.28",0.79111311397975,0.0661771658854975,1.516049062074,"ssf","mf.ss","gamma","unif",50,"ssfOUT_120_12_1_BADGER","BADGER",1,0.0833333333333333,120,"preference"
"ssfOUT_120_12_1_BADGER.29",0.778714251344555,0.0561208577666886,1.50130764492242,"ssf","mf.ss","gamma","unif",158,"ssfOUT_120_12_1_BADGER","BADGER",1,0.0833333333333333,120,"preference"
"ssfOUT_120_12_1_BADGER.30",0.774852246698571,0.0536635733171016,1.49604092008004,"ssf","mf.ss","gamma","unif",500,"ssfOUT_120_12_1_BADGER","BADGER",1,0.0833333333333333,120,"preference"
"ssfOUT_120_12_1_BADGER.31",0.735141706102119,-0.0328410632888617,1.5031244754931,"ssf","mf.ss","exp","vonmises",5,"ssfOUT_120_12_1_BADGER","BADGER",1,0.0833333333333333,120,"no effect"
"ssfOUT_120_12_1_BADGER.32",0.752002429932465,0.0121633206767414,1.49184153918819,"ssf","mf.ss","exp","vonmises",15,"ssfOUT_120_12_1_BADGER","BADGER",1,0.0833333333333333,120,"preference"
"ssfOUT_120_12_1_BADGER.33",0.675333214261672,-0.0510569313926322,1.40172335991598,"ssf","mf.ss","exp","vonmises",50,"ssfOUT_120_12_1_BADGER","BADGER",1,0.0833333333333333,120,"no effect"
"ssfOUT_120_12_1_BADGER.34",0.588513485558887,-0.134135165661503,1.31116213677928,"ssf","mf.ss","exp","vonmises",158,"ssfOUT_120_12_1_BADGER","BADGER",1,0.0833333333333333,120,"no effect"
"ssfOUT_120_12_1_BADGER.35",0.584329838039584,-0.135824424443953,1.30448410052312,"ssf","mf.ss","exp","vonmises",500,"ssfOUT_120_12_1_BADGER","BADGER",1,0.0833333333333333,120,"no effect"
"ssfOUT_120_12_1_BADGER.36",0.846181148893109,0.0951146314680514,1.59724766631817,"ssf","mf.ss","exp","unif",5,"ssfOUT_120_12_1_BADGER","BADGER",1,0.0833333333333333,120,"preference"
"ssfOUT_120_12_1_BADGER.37",0.894925141396295,0.164797386318783,1.62505289647381,"ssf","mf.ss","exp","unif",15,"ssfOUT_120_12_1_BADGER","BADGER",1,0.0833333333333333,120,"preference"
"ssfOUT_120_12_1_BADGER.38",0.819075963318758,0.0918550430587094,1.54629688357881,"ssf","mf.ss","exp","unif",50,"ssfOUT_120_12_1_BADGER","BADGER",1,0.0833333333333333,120,"preference"
"ssfOUT_120_12_1_BADGER.39",0.70821592150644,-0.0161264789986791,1.43255832201156,"ssf","mf.ss","exp","unif",158,"ssfOUT_120_12_1_BADGER","BADGER",1,0.0833333333333333,120,"no effect"
"ssfOUT_120_12_1_BADGER.40",0.706245057341454,-0.0181255318262894,1.4306156465092,"ssf","mf.ss","exp","unif",500,"ssfOUT_120_12_1_BADGER","BADGER",1,0.0833333333333333,120,"no effect"
"ssfOUT_120_12_1_VULTURE.1",1.7539605710584,0.688424442778254,2.81949669933854,"ssf","mf.is","gamma","vonmises",5,"ssfOUT_120_12_1_VULTURE","VULTURE",1,0.0833333333333333,120,"preference"
"ssfOUT_120_12_1_VULTURE.2",1.8157097483912,0.791352147344663,2.84006734943774,"ssf","mf.is","gamma","vonmises",15,"ssfOUT_120_12_1_VULTURE","VULTURE",1,0.0833333333333333,120,"preference"
"ssfOUT_120_12_1_VULTURE.3",1.67478570815205,0.664330939693854,2.68524047661025,"ssf","mf.is","gamma","vonmises",50,"ssfOUT_120_12_1_VULTURE","VULTURE",1,0.0833333333333333,120,"preference"
"ssfOUT_120_12_1_VULTURE.4",1.64844031086648,0.64114072371315,2.6557398980198,"ssf","mf.is","gamma","vonmises",158,"ssfOUT_120_12_1_VULTURE","VULTURE",1,0.0833333333333333,120,"preference"
"ssfOUT_120_12_1_VULTURE.5",1.68872135123715,0.682657811647258,2.69478489082704,"ssf","mf.is","gamma","vonmises",500,"ssfOUT_120_12_1_VULTURE","VULTURE",1,0.0833333333333333,120,"preference"
"ssfOUT_120_12_1_VULTURE.6",1.77675163436851,0.750159578046734,2.80334369069028,"ssf","mf.is","gamma","unif",5,"ssfOUT_120_12_1_VULTURE","VULTURE",1,0.0833333333333333,120,"preference"
"ssfOUT_120_12_1_VULTURE.7",1.41893578346197,0.401477075670996,2.43639449125295,"ssf","mf.is","gamma","unif",15,"ssfOUT_120_12_1_VULTURE","VULTURE",1,0.0833333333333333,120,"preference"
"ssfOUT_120_12_1_VULTURE.8",1.64644365914133,0.636650547999879,2.65623677028277,"ssf","mf.is","gamma","unif",50,"ssfOUT_120_12_1_VULTURE","VULTURE",1,0.0833333333333333,120,"preference"
"ssfOUT_120_12_1_VULTURE.9",1.74174245330639,0.735098793097943,2.74838611351483,"ssf","mf.is","gamma","unif",158,"ssfOUT_120_12_1_VULTURE","VULTURE",1,0.0833333333333333,120,"preference"
"ssfOUT_120_12_1_VULTURE.10",1.72270685600973,0.716763776673299,2.72864993534617,"ssf","mf.is","gamma","unif",500,"ssfOUT_120_12_1_VULTURE","VULTURE",1,0.0833333333333333,120,"preference"
"ssfOUT_120_12_1_VULTURE.11",1.12780373094936,0.0550699706189843,2.20053749127974,"ssf","mf.is","exp","vonmises",5,"ssfOUT_120_12_1_VULTURE","VULTURE",1,0.0833333333333333,120,"preference"
"ssfOUT_120_12_1_VULTURE.12",1.36584290630454,0.337584980245855,2.39410083236322,"ssf","mf.is","exp","vonmises",15,"ssfOUT_120_12_1_VULTURE","VULTURE",1,0.0833333333333333,120,"preference"
"ssfOUT_120_12_1_VULTURE.13",1.26709920473571,0.248620538156811,2.28557787131461,"ssf","mf.is","exp","vonmises",50,"ssfOUT_120_12_1_VULTURE","VULTURE",1,0.0833333333333333,120,"preference"
"ssfOUT_120_12_1_VULTURE.14",1.58145450805051,0.573298431748714,2.58961058435231,"ssf","mf.is","exp","vonmises",158,"ssfOUT_120_12_1_VULTURE","VULTURE",1,0.0833333333333333,120,"preference"
"ssfOUT_120_12_1_VULTURE.15",1.60923053765016,0.602705121055622,2.61575595424471,"ssf","mf.is","exp","vonmises",500,"ssfOUT_120_12_1_VULTURE","VULTURE",1,0.0833333333333333,120,"preference"
"ssfOUT_120_12_1_VULTURE.16",1.72670618900623,0.689096051099014,2.76431632691344,"ssf","mf.is","exp","unif",5,"ssfOUT_120_12_1_VULTURE","VULTURE",1,0.0833333333333333,120,"preference"
"ssfOUT_120_12_1_VULTURE.17",1.66502912404819,0.642862965975217,2.68719528212116,"ssf","mf.is","exp","unif",15,"ssfOUT_120_12_1_VULTURE","VULTURE",1,0.0833333333333333,120,"preference"
"ssfOUT_120_12_1_VULTURE.18",1.61591621884551,0.606395947787194,2.62543648990382,"ssf","mf.is","exp","unif",50,"ssfOUT_120_12_1_VULTURE","VULTURE",1,0.0833333333333333,120,"preference"
"ssfOUT_120_12_1_VULTURE.19",1.64640291547249,0.639805841023335,2.65299998992164,"ssf","mf.is","exp","unif",158,"ssfOUT_120_12_1_VULTURE","VULTURE",1,0.0833333333333333,120,"preference"
"ssfOUT_120_12_1_VULTURE.20",1.66204417129389,0.655897702794887,2.66819063979289,"ssf","mf.is","exp","unif",500,"ssfOUT_120_12_1_VULTURE","VULTURE",1,0.0833333333333333,120,"preference"
"ssfOUT_120_12_1_VULTURE.21",1.34702083443867,0.303491544625563,2.39055012425179,"ssf","mf.ss","gamma","vonmises",5,"ssfOUT_120_12_1_VULTURE","VULTURE",1,0.0833333333333333,120,"preference"
"ssfOUT_120_12_1_VULTURE.22",1.5583258968587,0.54533459832204,2.57131719539535,"ssf","mf.ss","gamma","vonmises",15,"ssfOUT_120_12_1_VULTURE","VULTURE",1,0.0833333333333333,120,"preference"
"ssfOUT_120_12_1_VULTURE.23",1.34717420666668,0.340081280919693,2.35426713241366,"ssf","mf.ss","gamma","vonmises",50,"ssfOUT_120_12_1_VULTURE","VULTURE",1,0.0833333333333333,120,"preference"
"ssfOUT_120_12_1_VULTURE.24",1.37989552373378,0.374312789951321,2.38547825751624,"ssf","mf.ss","gamma","vonmises",158,"ssfOUT_120_12_1_VULTURE","VULTURE",1,0.0833333333333333,120,"preference"
"ssfOUT_120_12_1_VULTURE.25",1.43120663085173,0.426278756004898,2.43613450569856,"ssf","mf.ss","gamma","vonmises",500,"ssfOUT_120_12_1_VULTURE","VULTURE",1,0.0833333333333333,120,"preference"
"ssfOUT_120_12_1_VULTURE.26",1.69531130420187,0.671833715940009,2.71878889246373,"ssf","mf.ss","gamma","unif",5,"ssfOUT_120_12_1_VULTURE","VULTURE",1,0.0833333333333333,120,"preference"
"ssfOUT_120_12_1_VULTURE.27",1.34006757341078,0.325542070674454,2.35459307614711,"ssf","mf.ss","gamma","unif",15,"ssfOUT_120_12_1_VULTURE","VULTURE",1,0.0833333333333333,120,"preference"
"ssfOUT_120_12_1_VULTURE.28",1.52089437502564,0.513428365739267,2.52836038431201,"ssf","mf.ss","gamma","unif",50,"ssfOUT_120_12_1_VULTURE","VULTURE",1,0.0833333333333333,120,"preference"
"ssfOUT_120_12_1_VULTURE.29",1.59638211284525,0.591073423852109,2.60169080183839,"ssf","mf.ss","gamma","unif",158,"ssfOUT_120_12_1_VULTURE","VULTURE",1,0.0833333333333333,120,"preference"
"ssfOUT_120_12_1_VULTURE.30",1.57312289178522,0.568317501527767,2.57792828204268,"ssf","mf.ss","gamma","unif",500,"ssfOUT_120_12_1_VULTURE","VULTURE",1,0.0833333333333333,120,"preference"
"ssfOUT_120_12_1_VULTURE.31",1.56922971878082,0.543670815551628,2.59478862201001,"ssf","mf.ss","exp","vonmises",5,"ssfOUT_120_12_1_VULTURE","VULTURE",1,0.0833333333333333,120,"preference"
"ssfOUT_120_12_1_VULTURE.32",1.50894399042799,0.494246196649218,2.52364178420676,"ssf","mf.ss","exp","vonmises",15,"ssfOUT_120_12_1_VULTURE","VULTURE",1,0.0833333333333333,120,"preference"
"ssfOUT_120_12_1_VULTURE.33",1.312866471466,0.303413084578359,2.32231985835363,"ssf","mf.ss","exp","vonmises",50,"ssfOUT_120_12_1_VULTURE","VULTURE",1,0.0833333333333333,120,"preference"
"ssfOUT_120_12_1_VULTURE.34",1.37905245304002,0.372641870466667,2.38546303561336,"ssf","mf.ss","exp","vonmises",158,"ssfOUT_120_12_1_VULTURE","VULTURE",1,0.0833333333333333,120,"preference"
"ssfOUT_120_12_1_VULTURE.35",1.40063435290813,0.394506956055003,2.40676174976126,"ssf","mf.ss","exp","vonmises",500,"ssfOUT_120_12_1_VULTURE","VULTURE",1,0.0833333333333333,120,"preference"
"ssfOUT_120_12_1_VULTURE.36",1.70342921568678,0.67993524256724,2.72692318880632,"ssf","mf.ss","exp","unif",5,"ssfOUT_120_12_1_VULTURE","VULTURE",1,0.0833333333333333,120,"preference"
"ssfOUT_120_12_1_VULTURE.37",1.45292657199348,0.43865288979191,2.46720025419505,"ssf","mf.ss","exp","unif",15,"ssfOUT_120_12_1_VULTURE","VULTURE",1,0.0833333333333333,120,"preference"
"ssfOUT_120_12_1_VULTURE.38",1.46504012965364,0.457724677004869,2.47235558230242,"ssf","mf.ss","exp","unif",50,"ssfOUT_120_12_1_VULTURE","VULTURE",1,0.0833333333333333,120,"preference"
"ssfOUT_120_12_1_VULTURE.39",1.5091558182778,0.503054959859813,2.51525667669579,"ssf","mf.ss","exp","unif",158,"ssfOUT_120_12_1_VULTURE","VULTURE",1,0.0833333333333333,120,"preference"
"ssfOUT_120_12_1_VULTURE.40",1.50642273685352,0.501137377009242,2.5117080966978,"ssf","mf.ss","exp","unif",500,"ssfOUT_120_12_1_VULTURE","VULTURE",1,0.0833333333333333,120,"preference"
"ssfOUT_120_12_1_KINGCOBRA.1",-0.132851342712036,-0.981295591507744,0.715592906083672,"ssf","mf.is","gamma","vonmises",5,"ssfOUT_120_12_1_KINGCOBRA","KINGCOBRA",1,0.0833333333333333,120,"no effect"
"ssfOUT_120_12_1_KINGCOBRA.2",0.329559296629294,-0.416897281095208,1.0760158743538,"ssf","mf.is","gamma","vonmises",15,"ssfOUT_120_12_1_KINGCOBRA","KINGCOBRA",1,0.0833333333333333,120,"no effect"
"ssfOUT_120_12_1_KINGCOBRA.3",0.331823460098245,-0.40217760662446,1.06582452682095,"ssf","mf.is","gamma","vonmises",50,"ssfOUT_120_12_1_KINGCOBRA","KINGCOBRA",1,0.0833333333333333,120,"no effect"
"ssfOUT_120_12_1_KINGCOBRA.4",0.648053702686733,-0.093102259666016,1.38920966503948,"ssf","mf.is","gamma","vonmises",158,"ssfOUT_120_12_1_KINGCOBRA","KINGCOBRA",1,0.0833333333333333,120,"no effect"
"ssfOUT_120_12_1_KINGCOBRA.5",0.513509679396965,-0.224718499697037,1.25173785849097,"ssf","mf.is","gamma","vonmises",500,"ssfOUT_120_12_1_KINGCOBRA","KINGCOBRA",1,0.0833333333333333,120,"no effect"
"ssfOUT_120_12_1_KINGCOBRA.6",0.619907411909038,-0.160495939689403,1.40031076350748,"ssf","mf.is","gamma","unif",5,"ssfOUT_120_12_1_KINGCOBRA","KINGCOBRA",1,0.0833333333333333,120,"no effect"
"ssfOUT_120_12_1_KINGCOBRA.7",0.562222941731141,-0.179416996436836,1.30386287989912,"ssf","mf.is","gamma","unif",15,"ssfOUT_120_12_1_KINGCOBRA","KINGCOBRA",1,0.0833333333333333,120,"no effect"
"ssfOUT_120_12_1_KINGCOBRA.8",0.687139855167496,-0.0446562066418658,1.41893591697686,"ssf","mf.is","gamma","unif",50,"ssfOUT_120_12_1_KINGCOBRA","KINGCOBRA",1,0.0833333333333333,120,"no effect"
"ssfOUT_120_12_1_KINGCOBRA.9",0.498326118167786,-0.249428942681441,1.24608117901701,"ssf","mf.is","gamma","unif",158,"ssfOUT_120_12_1_KINGCOBRA","KINGCOBRA",1,0.0833333333333333,120,"no effect"
"ssfOUT_120_12_1_KINGCOBRA.10",0.513302462949113,-0.224482540674668,1.25108746657289,"ssf","mf.is","gamma","unif",500,"ssfOUT_120_12_1_KINGCOBRA","KINGCOBRA",1,0.0833333333333333,120,"no effect"
"ssfOUT_120_12_1_KINGCOBRA.11",-0.0133851466283396,-0.808902387472705,0.782132094216026,"ssf","mf.is","exp","vonmises",5,"ssfOUT_120_12_1_KINGCOBRA","KINGCOBRA",1,0.0833333333333333,120,"no effect"
"ssfOUT_120_12_1_KINGCOBRA.12",-0.0553185637867611,-0.82037793537245,0.709740807798927,"ssf","mf.is","exp","vonmises",15,"ssfOUT_120_12_1_KINGCOBRA","KINGCOBRA",1,0.0833333333333333,120,"no effect"
"ssfOUT_120_12_1_KINGCOBRA.13",0.404198850409497,-0.338788297841018,1.14718599866001,"ssf","mf.is","exp","vonmises",50,"ssfOUT_120_12_1_KINGCOBRA","KINGCOBRA",1,0.0833333333333333,120,"no effect"
"ssfOUT_120_12_1_KINGCOBRA.14",0.455739976026799,-0.280085500614686,1.19156545266828,"ssf","mf.is","exp","vonmises",158,"ssfOUT_120_12_1_KINGCOBRA","KINGCOBRA",1,0.0833333333333333,120,"no effect"
"ssfOUT_120_12_1_KINGCOBRA.15",0.539641606074678,-0.20270736879259,1.28199058094195,"ssf","mf.is","exp","vonmises",500,"ssfOUT_120_12_1_KINGCOBRA","KINGCOBRA",1,0.0833333333333333,120,"no effect"
"ssfOUT_120_12_1_KINGCOBRA.16",-0.321973564476172,-1.18950351665362,0.545556387701275,"ssf","mf.is","exp","unif",5,"ssfOUT_120_12_1_KINGCOBRA","KINGCOBRA",1,0.0833333333333333,120,"no effect"
"ssfOUT_120_12_1_KINGCOBRA.17",0.375990142402117,-0.376068859720171,1.1280491445244,"ssf","mf.is","exp","unif",15,"ssfOUT_120_12_1_KINGCOBRA","KINGCOBRA",1,0.0833333333333333,120,"no effect"
"ssfOUT_120_12_1_KINGCOBRA.18",0.229975367281724,-0.543542200309563,1.00349293487301,"ssf","mf.is","exp","unif",50,"ssfOUT_120_12_1_KINGCOBRA","KINGCOBRA",1,0.0833333333333333,120,"no effect"
"ssfOUT_120_12_1_KINGCOBRA.19",0.525167683890574,-0.217164809611925,1.26750017739307,"ssf","mf.is","exp","unif",158,"ssfOUT_120_12_1_KINGCOBRA","KINGCOBRA",1,0.0833333333333333,120,"no effect"
"ssfOUT_120_12_1_KINGCOBRA.20",0.529388892261979,-0.219792913036556,1.27857069756051,"ssf","mf.is","exp","unif",500,"ssfOUT_120_12_1_KINGCOBRA","KINGCOBRA",1,0.0833333333333333,120,"no effect"
"ssfOUT_120_12_1_KINGCOBRA.21",0.221050281800558,-0.583594399931849,1.02569496353297,"ssf","mf.ss","gamma","vonmises",5,"ssfOUT_120_12_1_KINGCOBRA","KINGCOBRA",1,0.0833333333333333,120,"no effect"
"ssfOUT_120_12_1_KINGCOBRA.22",0.418254448002584,-0.319505498587332,1.1560143945925,"ssf","mf.ss","gamma","vonmises",15,"ssfOUT_120_12_1_KINGCOBRA","KINGCOBRA",1,0.0833333333333333,120,"no effect"
"ssfOUT_120_12_1_KINGCOBRA.23",0.338309622438904,-0.393443105049271,1.07006234992708,"ssf","mf.ss","gamma","vonmises",50,"ssfOUT_120_12_1_KINGCOBRA","KINGCOBRA",1,0.0833333333333333,120,"no effect"
"ssfOUT_120_12_1_KINGCOBRA.24",0.5439378876784,-0.193488260210579,1.28136403556738,"ssf","mf.ss","gamma","vonmises",158,"ssfOUT_120_12_1_KINGCOBRA","KINGCOBRA",1,0.0833333333333333,120,"no effect"
"ssfOUT_120_12_1_KINGCOBRA.25",0.45695684775116,-0.280235110099913,1.19414880560223,"ssf","mf.ss","gamma","vonmises",500,"ssfOUT_120_12_1_KINGCOBRA","KINGCOBRA",1,0.0833333333333333,120,"no effect"
"ssfOUT_120_12_1_KINGCOBRA.26",0.634226434762586,-0.137630943562058,1.40608381308723,"ssf","mf.ss","gamma","unif",5,"ssfOUT_120_12_1_KINGCOBRA","KINGCOBRA",1,0.0833333333333333,120,"no effect"
"ssfOUT_120_12_1_KINGCOBRA.27",0.504232987224978,-0.235199438336636,1.24366541278659,"ssf","mf.ss","gamma","unif",15,"ssfOUT_120_12_1_KINGCOBRA","KINGCOBRA",1,0.0833333333333333,120,"no effect"
"ssfOUT_120_12_1_KINGCOBRA.28",0.609920331348148,-0.119496246677544,1.33933690937384,"ssf","mf.ss","gamma","unif",50,"ssfOUT_120_12_1_KINGCOBRA","KINGCOBRA",1,0.0833333333333333,120,"no effect"
"ssfOUT_120_12_1_KINGCOBRA.29",0.449492050521852,-0.295909225600647,1.19489332664435,"ssf","mf.ss","gamma","unif",158,"ssfOUT_120_12_1_KINGCOBRA","KINGCOBRA",1,0.0833333333333333,120,"no effect"
"ssfOUT_120_12_1_KINGCOBRA.30",0.482055594314943,-0.253975225742195,1.21808641437208,"ssf","mf.ss","gamma","unif",500,"ssfOUT_120_12_1_KINGCOBRA","KINGCOBRA",1,0.0833333333333333,120,"no effect"
"ssfOUT_120_12_1_KINGCOBRA.31",0.308141231456355,-0.471443736612244,1.08772619952496,"ssf","mf.ss","exp","vonmises",5,"ssfOUT_120_12_1_KINGCOBRA","KINGCOBRA",1,0.0833333333333333,120,"no effect"
"ssfOUT_120_12_1_KINGCOBRA.32",0.141492604007736,-0.597444730146963,0.880429938162435,"ssf","mf.ss","exp","vonmises",15,"ssfOUT_120_12_1_KINGCOBRA","KINGCOBRA",1,0.0833333333333333,120,"no effect"
"ssfOUT_120_12_1_KINGCOBRA.33",0.348966979554537,-0.380527197113571,1.07846115622265,"ssf","mf.ss","exp","vonmises",50,"ssfOUT_120_12_1_KINGCOBRA","KINGCOBRA",1,0.0833333333333333,120,"no effect"
"ssfOUT_120_12_1_KINGCOBRA.34",0.252982052913324,-0.472456093515448,0.978420199342096,"ssf","mf.ss","exp","vonmises",158,"ssfOUT_120_12_1_KINGCOBRA","KINGCOBRA",1,0.0833333333333333,120,"no effect"
"ssfOUT_120_12_1_KINGCOBRA.35",0.26139138342158,-0.460997361196017,0.983780128039178,"ssf","mf.ss","exp","vonmises",500,"ssfOUT_120_12_1_KINGCOBRA","KINGCOBRA",1,0.0833333333333333,120,"no effect"
"ssfOUT_120_12_1_KINGCOBRA.36",-0.281227542524074,-1.13310347269846,0.570648387650308,"ssf","mf.ss","exp","unif",5,"ssfOUT_120_12_1_KINGCOBRA","KINGCOBRA",1,0.0833333333333333,120,"no effect"
"ssfOUT_120_12_1_KINGCOBRA.37",0.448200505269138,-0.290835783979431,1.18723679451771,"ssf","mf.ss","exp","unif",15,"ssfOUT_120_12_1_KINGCOBRA","KINGCOBRA",1,0.0833333333333333,120,"no effect"
"ssfOUT_120_12_1_KINGCOBRA.38",0.225435136068765,-0.50541780472529,0.95628807686282,"ssf","mf.ss","exp","unif",50,"ssfOUT_120_12_1_KINGCOBRA","KINGCOBRA",1,0.0833333333333333,120,"no effect"
"ssfOUT_120_12_1_KINGCOBRA.39",0.358441335172572,-0.364582542396194,1.08146521274134,"ssf","mf.ss","exp","unif",158,"ssfOUT_120_12_1_KINGCOBRA","KINGCOBRA",1,0.0833333333333333,120,"no effect"
"ssfOUT_120_12_1_KINGCOBRA.40",0.281343990553207,-0.440499936805816,1.00318791791223,"ssf","mf.ss","exp","unif",500,"ssfOUT_120_12_1_KINGCOBRA","KINGCOBRA",1,0.0833333333333333,120,"no effect"
"ssfOUT_120_12_2_BADGER.1",0.906023528957101,0.328171342358259,1.48387571555594,"ssf","mf.is","gamma","vonmises",5,"ssfOUT_120_12_2_BADGER","BADGER",2,0.0833333333333333,120,"preference"
"ssfOUT_120_12_2_BADGER.2",0.692319760320481,0.161780751933276,1.22285876870769,"ssf","mf.is","gamma","vonmises",15,"ssfOUT_120_12_2_BADGER","BADGER",2,0.0833333333333333,120,"preference"
"ssfOUT_120_12_2_BADGER.3",0.653919789676663,0.134484042574125,1.1733555367792,"ssf","mf.is","gamma","vonmises",50,"ssfOUT_120_12_2_BADGER","BADGER",2,0.0833333333333333,120,"preference"
"ssfOUT_120_12_2_BADGER.4",0.936299733389061,0.41924747318163,1.45335199359649,"ssf","mf.is","gamma","vonmises",158,"ssfOUT_120_12_2_BADGER","BADGER",2,0.0833333333333333,120,"preference"
"ssfOUT_120_12_2_BADGER.5",0.917779715980765,0.405055689335634,1.43050374262589,"ssf","mf.is","gamma","vonmises",500,"ssfOUT_120_12_2_BADGER","BADGER",2,0.0833333333333333,120,"preference"
"ssfOUT_120_12_2_BADGER.6",0.741692062714048,0.196047143821953,1.28733698160614,"ssf","mf.is","gamma","unif",5,"ssfOUT_120_12_2_BADGER","BADGER",2,0.0833333333333333,120,"preference"
"ssfOUT_120_12_2_BADGER.7",0.93711652850872,0.412874733102405,1.46135832391504,"ssf","mf.is","gamma","unif",15,"ssfOUT_120_12_2_BADGER","BADGER",2,0.0833333333333333,120,"preference"
"ssfOUT_120_12_2_BADGER.8",0.980697848105521,0.463914513103732,1.49748118310731,"ssf","mf.is","gamma","unif",50,"ssfOUT_120_12_2_BADGER","BADGER",2,0.0833333333333333,120,"preference"
"ssfOUT_120_12_2_BADGER.9",0.792685270202464,0.277798290417702,1.30757224998723,"ssf","mf.is","gamma","unif",158,"ssfOUT_120_12_2_BADGER","BADGER",2,0.0833333333333333,120,"preference"
"ssfOUT_120_12_2_BADGER.10",0.92842402733526,0.414883462771831,1.44196459189869,"ssf","mf.is","gamma","unif",500,"ssfOUT_120_12_2_BADGER","BADGER",2,0.0833333333333333,120,"preference"
"ssfOUT_120_12_2_BADGER.11",0.926860023962356,0.328729764648322,1.52499028327639,"ssf","mf.is","exp","vonmises",5,"ssfOUT_120_12_2_BADGER","BADGER",2,0.0833333333333333,120,"preference"
"ssfOUT_120_12_2_BADGER.12",1.09000749406955,0.552675026093786,1.62733996204531,"ssf","mf.is","exp","vonmises",15,"ssfOUT_120_12_2_BADGER","BADGER",2,0.0833333333333333,120,"preference"
"ssfOUT_120_12_2_BADGER.13",0.950332766625944,0.430442524552725,1.47022300869916,"ssf","mf.is","exp","vonmises",50,"ssfOUT_120_12_2_BADGER","BADGER",2,0.0833333333333333,120,"preference"
"ssfOUT_120_12_2_BADGER.14",0.88046846061482,0.365530081654008,1.39540683957563,"ssf","mf.is","exp","vonmises",158,"ssfOUT_120_12_2_BADGER","BADGER",2,0.0833333333333333,120,"preference"
"ssfOUT_120_12_2_BADGER.15",0.907682389534247,0.393843356648032,1.42152142242046,"ssf","mf.is","exp","vonmises",500,"ssfOUT_120_12_2_BADGER","BADGER",2,0.0833333333333333,120,"preference"
"ssfOUT_120_12_2_BADGER.16",1.03783800041726,0.48056183845732,1.5951141623772,"ssf","mf.is","exp","unif",5,"ssfOUT_120_12_2_BADGER","BADGER",2,0.0833333333333333,120,"preference"
"ssfOUT_120_12_2_BADGER.17",0.917405935907011,0.392824778704614,1.44198709310941,"ssf","mf.is","exp","unif",15,"ssfOUT_120_12_2_BADGER","BADGER",2,0.0833333333333333,120,"preference"
"ssfOUT_120_12_2_BADGER.18",0.943294936563908,0.426711377865929,1.45987849526189,"ssf","mf.is","exp","unif",50,"ssfOUT_120_12_2_BADGER","BADGER",2,0.0833333333333333,120,"preference"
"ssfOUT_120_12_2_BADGER.19",0.985358392447746,0.471253264303858,1.49946352059163,"ssf","mf.is","exp","unif",158,"ssfOUT_120_12_2_BADGER","BADGER",2,0.0833333333333333,120,"preference"
"ssfOUT_120_12_2_BADGER.20",0.916256554670779,0.403013921278427,1.42949918806313,"ssf","mf.is","exp","unif",500,"ssfOUT_120_12_2_BADGER","BADGER",2,0.0833333333333333,120,"preference"
"ssfOUT_120_12_2_BADGER.21",0.643538037283022,0.101284955932795,1.18579111863325,"ssf","mf.ss","gamma","vonmises",5,"ssfOUT_120_12_2_BADGER","BADGER",2,0.0833333333333333,120,"preference"
"ssfOUT_120_12_2_BADGER.22",0.724748749540687,0.203775681272098,1.24572181780928,"ssf","mf.ss","gamma","vonmises",15,"ssfOUT_120_12_2_BADGER","BADGER",2,0.0833333333333333,120,"preference"
"ssfOUT_120_12_2_BADGER.23",0.645264936260801,0.130133795696254,1.16039607682535,"ssf","mf.ss","gamma","vonmises",50,"ssfOUT_120_12_2_BADGER","BADGER",2,0.0833333333333333,120,"preference"
"ssfOUT_120_12_2_BADGER.24",0.739177105408329,0.226792653994739,1.25156155682192,"ssf","mf.ss","gamma","vonmises",158,"ssfOUT_120_12_2_BADGER","BADGER",2,0.0833333333333333,120,"preference"
"ssfOUT_120_12_2_BADGER.25",0.776719975016416,0.265442675961222,1.28799727407161,"ssf","mf.ss","gamma","vonmises",500,"ssfOUT_120_12_2_BADGER","BADGER",2,0.0833333333333333,120,"preference"
"ssfOUT_120_12_2_BADGER.26",0.748990761141026,0.205911567369981,1.29206995491207,"ssf","mf.ss","gamma","unif",5,"ssfOUT_120_12_2_BADGER","BADGER",2,0.0833333333333333,120,"preference"
"ssfOUT_120_12_2_BADGER.27",0.93273436240627,0.410877950274622,1.45459077453792,"ssf","mf.ss","gamma","unif",15,"ssfOUT_120_12_2_BADGER","BADGER",2,0.0833333333333333,120,"preference"
"ssfOUT_120_12_2_BADGER.28",0.862338758331023,0.348068075288799,1.37660944137325,"ssf","mf.ss","gamma","unif",50,"ssfOUT_120_12_2_BADGER","BADGER",2,0.0833333333333333,120,"preference"
"ssfOUT_120_12_2_BADGER.29",0.734756695961539,0.222009946483804,1.24750344543927,"ssf","mf.ss","gamma","unif",158,"ssfOUT_120_12_2_BADGER","BADGER",2,0.0833333333333333,120,"preference"
"ssfOUT_120_12_2_BADGER.30",0.819722422701408,0.308053762858148,1.33139108254467,"ssf","mf.ss","gamma","unif",500,"ssfOUT_120_12_2_BADGER","BADGER",2,0.0833333333333333,120,"preference"
"ssfOUT_120_12_2_BADGER.31",1.0179460415348,0.45826404288604,1.57762804018355,"ssf","mf.ss","exp","vonmises",5,"ssfOUT_120_12_2_BADGER","BADGER",2,0.0833333333333333,120,"preference"
"ssfOUT_120_12_2_BADGER.32",0.791949264059958,0.267792681988707,1.31610584613121,"ssf","mf.ss","exp","vonmises",15,"ssfOUT_120_12_2_BADGER","BADGER",2,0.0833333333333333,120,"preference"
"ssfOUT_120_12_2_BADGER.33",0.818973098441667,0.302217436176282,1.33572876070705,"ssf","mf.ss","exp","vonmises",50,"ssfOUT_120_12_2_BADGER","BADGER",2,0.0833333333333333,120,"preference"
"ssfOUT_120_12_2_BADGER.34",0.709725430279826,0.196762173097612,1.22268868746204,"ssf","mf.ss","exp","vonmises",158,"ssfOUT_120_12_2_BADGER","BADGER",2,0.0833333333333333,120,"preference"
"ssfOUT_120_12_2_BADGER.35",0.682182965924161,0.169467158602015,1.19489877324631,"ssf","mf.ss","exp","vonmises",500,"ssfOUT_120_12_2_BADGER","BADGER",2,0.0833333333333333,120,"preference"
"ssfOUT_120_12_2_BADGER.36",0.881747429568342,0.339249619386975,1.42424523974971,"ssf","mf.ss","exp","unif",5,"ssfOUT_120_12_2_BADGER","BADGER",2,0.0833333333333333,120,"preference"
"ssfOUT_120_12_2_BADGER.37",0.802806237423274,0.282730369655461,1.32288210519109,"ssf","mf.ss","exp","unif",15,"ssfOUT_120_12_2_BADGER","BADGER",2,0.0833333333333333,120,"preference"
"ssfOUT_120_12_2_BADGER.38",0.809360143663195,0.294511018985754,1.32420926834064,"ssf","mf.ss","exp","unif",50,"ssfOUT_120_12_2_BADGER","BADGER",2,0.0833333333333333,120,"preference"
"ssfOUT_120_12_2_BADGER.39",0.833512399425864,0.320362467436178,1.34666233141555,"ssf","mf.ss","exp","unif",158,"ssfOUT_120_12_2_BADGER","BADGER",2,0.0833333333333333,120,"preference"
"ssfOUT_120_12_2_BADGER.40",0.764267695622142,0.252086513386546,1.27644887785774,"ssf","mf.ss","exp","unif",500,"ssfOUT_120_12_2_BADGER","BADGER",2,0.0833333333333333,120,"preference"
"ssfOUT_120_12_2_VULTURE.1",0.218631488851388,-0.448884631070026,0.886147608772803,"ssf","mf.is","gamma","vonmises",5,"ssfOUT_120_12_2_VULTURE","VULTURE",2,0.0833333333333333,120,"no effect"
"ssfOUT_120_12_2_VULTURE.2",0.754922341077898,0.137485600747046,1.37235908140875,"ssf","mf.is","gamma","vonmises",15,"ssfOUT_120_12_2_VULTURE","VULTURE",2,0.0833333333333333,120,"preference"
"ssfOUT_120_12_2_VULTURE.3",0.73894876001561,0.145749188033648,1.33214833199757,"ssf","mf.is","gamma","vonmises",50,"ssfOUT_120_12_2_VULTURE","VULTURE",2,0.0833333333333333,120,"preference"
"ssfOUT_120_12_2_VULTURE.4",0.799534196164974,0.210761670679166,1.38830672165078,"ssf","mf.is","gamma","vonmises",158,"ssfOUT_120_12_2_VULTURE","VULTURE",2,0.0833333333333333,120,"preference"
"ssfOUT_120_12_2_VULTURE.5",0.84019777801803,0.25266437343485,1.42773118260121,"ssf","mf.is","gamma","vonmises",500,"ssfOUT_120_12_2_VULTURE","VULTURE",2,0.0833333333333333,120,"preference"
"ssfOUT_120_12_2_VULTURE.6",0.833013024932234,0.205740404797893,1.46028564506657,"ssf","mf.is","gamma","unif",5,"ssfOUT_120_12_2_VULTURE","VULTURE",2,0.0833333333333333,120,"preference"
"ssfOUT_120_12_2_VULTURE.7",0.967670845161087,0.370486661209382,1.56485502911279,"ssf","mf.is","gamma","unif",15,"ssfOUT_120_12_2_VULTURE","VULTURE",2,0.0833333333333333,120,"preference"
"ssfOUT_120_12_2_VULTURE.8",0.703736426269481,0.111187450954693,1.29628540158427,"ssf","mf.is","gamma","unif",50,"ssfOUT_120_12_2_VULTURE","VULTURE",2,0.0833333333333333,120,"preference"
"ssfOUT_120_12_2_VULTURE.9",0.829706687028048,0.241649380690896,1.4177639933652,"ssf","mf.is","gamma","unif",158,"ssfOUT_120_12_2_VULTURE","VULTURE",2,0.0833333333333333,120,"preference"
"ssfOUT_120_12_2_VULTURE.10",0.869359981443634,0.282376066980905,1.45634389590636,"ssf","mf.is","gamma","unif",500,"ssfOUT_120_12_2_VULTURE","VULTURE",2,0.0833333333333333,120,"preference"
"ssfOUT_120_12_2_VULTURE.11",0.115113855003206,-0.55788777050319,0.788115480509602,"ssf","mf.is","exp","vonmises",5,"ssfOUT_120_12_2_VULTURE","VULTURE",2,0.0833333333333333,120,"no effect"
"ssfOUT_120_12_2_VULTURE.12",0.866500498973194,0.252618872883708,1.48038212506268,"ssf","mf.is","exp","vonmises",15,"ssfOUT_120_12_2_VULTURE","VULTURE",2,0.0833333333333333,120,"preference"
"ssfOUT_120_12_2_VULTURE.13",0.776258617099843,0.174415099338053,1.37810213486163,"ssf","mf.is","exp","vonmises",50,"ssfOUT_120_12_2_VULTURE","VULTURE",2,0.0833333333333333,120,"preference"
"ssfOUT_120_12_2_VULTURE.14",0.842520868004144,0.252804757223839,1.43223697878445,"ssf","mf.is","exp","vonmises",158,"ssfOUT_120_12_2_VULTURE","VULTURE",2,0.0833333333333333,120,"preference"
"ssfOUT_120_12_2_VULTURE.15",0.858942826468478,0.271247529917493,1.44663812301946,"ssf","mf.is","exp","vonmises",500,"ssfOUT_120_12_2_VULTURE","VULTURE",2,0.0833333333333333,120,"preference"
"ssfOUT_120_12_2_VULTURE.16",0.748179211190594,0.112765177959874,1.38359324442131,"ssf","mf.is","exp","unif",5,"ssfOUT_120_12_2_VULTURE","VULTURE",2,0.0833333333333333,120,"preference"
"ssfOUT_120_12_2_VULTURE.17",0.865906106788888,0.263460785018216,1.46835142855956,"ssf","mf.is","exp","unif",15,"ssfOUT_120_12_2_VULTURE","VULTURE",2,0.0833333333333333,120,"preference"
"ssfOUT_120_12_2_VULTURE.18",0.747671384459265,0.155632311534029,1.3397104573845,"ssf","mf.is","exp","unif",50,"ssfOUT_120_12_2_VULTURE","VULTURE",2,0.0833333333333333,120,"preference"
"ssfOUT_120_12_2_VULTURE.19",0.811030794444955,0.222999347718294,1.39906224117162,"ssf","mf.is","exp","unif",158,"ssfOUT_120_12_2_VULTURE","VULTURE",2,0.0833333333333333,120,"preference"
"ssfOUT_120_12_2_VULTURE.20",0.871166927287252,0.28408046610441,1.45825338847009,"ssf","mf.is","exp","unif",500,"ssfOUT_120_12_2_VULTURE","VULTURE",2,0.0833333333333333,120,"preference"
"ssfOUT_120_12_2_VULTURE.21",0.342947773090932,-0.292096671917003,0.977992218098867,"ssf","mf.ss","gamma","vonmises",5,"ssfOUT_120_12_2_VULTURE","VULTURE",2,0.0833333333333333,120,"no effect"
"ssfOUT_120_12_2_VULTURE.22",0.538942905576311,-0.0584162157262725,1.13630202687889,"ssf","mf.ss","gamma","vonmises",15,"ssfOUT_120_12_2_VULTURE","VULTURE",2,0.0833333333333333,120,"no effect"
"ssfOUT_120_12_2_VULTURE.23",0.615780685712184,0.0277329811616376,1.20382839026273,"ssf","mf.ss","gamma","vonmises",50,"ssfOUT_120_12_2_VULTURE","VULTURE",2,0.0833333333333333,120,"preference"
"ssfOUT_120_12_2_VULTURE.24",0.616523897383555,0.0299715174507508,1.20307627731636,"ssf","mf.ss","gamma","vonmises",158,"ssfOUT_120_12_2_VULTURE","VULTURE",2,0.0833333333333333,120,"preference"
"ssfOUT_120_12_2_VULTURE.25",0.612073565915049,0.0263746876904322,1.19777244413967,"ssf","mf.ss","gamma","vonmises",500,"ssfOUT_120_12_2_VULTURE","VULTURE",2,0.0833333333333333,120,"preference"
"ssfOUT_120_12_2_VULTURE.26",0.796317726631925,0.180392571230194,1.41224288203366,"ssf","mf.ss","gamma","unif",5,"ssfOUT_120_12_2_VULTURE","VULTURE",2,0.0833333333333333,120,"preference"
"ssfOUT_120_12_2_VULTURE.27",0.81688120297133,0.222770297292923,1.41099210864974,"ssf","mf.ss","gamma","unif",15,"ssfOUT_120_12_2_VULTURE","VULTURE",2,0.0833333333333333,120,"preference"
"ssfOUT_120_12_2_VULTURE.28",0.584501020884362,-0.00497319872063351,1.17397524048936,"ssf","mf.ss","gamma","unif",50,"ssfOUT_120_12_2_VULTURE","VULTURE",2,0.0833333333333333,120,"no effect"
"ssfOUT_120_12_2_VULTURE.29",0.732231109673062,0.145763275203923,1.3186989441422,"ssf","mf.ss","gamma","unif",158,"ssfOUT_120_12_2_VULTURE","VULTURE",2,0.0833333333333333,120,"preference"
"ssfOUT_120_12_2_VULTURE.30",0.749267042172836,0.163463484768195,1.33507059957748,"ssf","mf.ss","gamma","unif",500,"ssfOUT_120_12_2_VULTURE","VULTURE",2,0.0833333333333333,120,"preference"
"ssfOUT_120_12_2_VULTURE.31",0.428528740372029,-0.189646252898392,1.04670373364245,"ssf","mf.ss","exp","vonmises",5,"ssfOUT_120_12_2_VULTURE","VULTURE",2,0.0833333333333333,120,"no effect"
"ssfOUT_120_12_2_VULTURE.32",0.732442051606792,0.138327318737349,1.32655678447623,"ssf","mf.ss","exp","vonmises",15,"ssfOUT_120_12_2_VULTURE","VULTURE",2,0.0833333333333333,120,"preference"
"ssfOUT_120_12_2_VULTURE.33",0.525208514996345,-0.0647510903053519,1.11516812029804,"ssf","mf.ss","exp","vonmises",50,"ssfOUT_120_12_2_VULTURE","VULTURE",2,0.0833333333333333,120,"no effect"
"ssfOUT_120_12_2_VULTURE.34",0.607261672074688,0.0197558506230383,1.19476749352634,"ssf","mf.ss","exp","vonmises",158,"ssfOUT_120_12_2_VULTURE","VULTURE",2,0.0833333333333333,120,"preference"
"ssfOUT_120_12_2_VULTURE.35",0.634763078682577,0.047802452877607,1.22172370448755,"ssf","mf.ss","exp","vonmises",500,"ssfOUT_120_12_2_VULTURE","VULTURE",2,0.0833333333333333,120,"preference"
"ssfOUT_120_12_2_VULTURE.36",0.450498781356105,-0.175879809073241,1.07687737178545,"ssf","mf.ss","exp","unif",5,"ssfOUT_120_12_2_VULTURE","VULTURE",2,0.0833333333333333,120,"no effect"
"ssfOUT_120_12_2_VULTURE.37",0.716656549301454,0.119351815692151,1.31396128291076,"ssf","mf.ss","exp","unif",15,"ssfOUT_120_12_2_VULTURE","VULTURE",2,0.0833333333333333,120,"preference"
"ssfOUT_120_12_2_VULTURE.38",0.669679453105103,0.0802735307600999,1.25908537545011,"ssf","mf.ss","exp","unif",50,"ssfOUT_120_12_2_VULTURE","VULTURE",2,0.0833333333333333,120,"preference"
"ssfOUT_120_12_2_VULTURE.39",0.631434663891785,0.0439443208768784,1.21892500690669,"ssf","mf.ss","exp","unif",158,"ssfOUT_120_12_2_VULTURE","VULTURE",2,0.0833333333333333,120,"preference"
"ssfOUT_120_12_2_VULTURE.40",0.72079219007092,0.13391919716604,1.3076651829758,"ssf","mf.ss","exp","unif",500,"ssfOUT_120_12_2_VULTURE","VULTURE",2,0.0833333333333333,120,"preference"
"ssfOUT_120_12_2_KINGCOBRA.1",0.994631388958778,0.344133558371305,1.64512921954625,"ssf","mf.is","gamma","vonmises",5,"ssfOUT_120_12_2_KINGCOBRA","KINGCOBRA",2,0.0833333333333333,120,"preference"
"ssfOUT_120_12_2_KINGCOBRA.2",0.367808773345953,-0.251092781357954,0.986710328049859,"ssf","mf.is","gamma","vonmises",15,"ssfOUT_120_12_2_KINGCOBRA","KINGCOBRA",2,0.0833333333333333,120,"no effect"
"ssfOUT_120_12_2_KINGCOBRA.3",0.30187382771694,-0.298034035686076,0.901781691119956,"ssf","mf.is","gamma","vonmises",50,"ssfOUT_120_12_2_KINGCOBRA","KINGCOBRA",2,0.0833333333333333,120,"no effect"
"ssfOUT_120_12_2_KINGCOBRA.4",0.507584552030505,-0.0981143793814011,1.11328348344241,"ssf","mf.is","gamma","vonmises",158,"ssfOUT_120_12_2_KINGCOBRA","KINGCOBRA",2,0.0833333333333333,120,"no effect"
"ssfOUT_120_12_2_KINGCOBRA.5",0.538452051620349,-0.0665293274522798,1.14343343069298,"ssf","mf.is","gamma","vonmises",500,"ssfOUT_120_12_2_KINGCOBRA","KINGCOBRA",2,0.0833333333333333,120,"no effect"
"ssfOUT_120_12_2_KINGCOBRA.6",0.729947502317523,0.0936995518105739,1.36619545282447,"ssf","mf.is","gamma","unif",5,"ssfOUT_120_12_2_KINGCOBRA","KINGCOBRA",2,0.0833333333333333,120,"preference"
"ssfOUT_120_12_2_KINGCOBRA.7",0.454500853810618,-0.159547998097346,1.06854970571858,"ssf","mf.is","gamma","unif",15,"ssfOUT_120_12_2_KINGCOBRA","KINGCOBRA",2,0.0833333333333333,120,"no effect"
"ssfOUT_120_12_2_KINGCOBRA.8",0.463686070223185,-0.14440704210152,1.07177918254789,"ssf","mf.is","gamma","unif",50,"ssfOUT_120_12_2_KINGCOBRA","KINGCOBRA",2,0.0833333333333333,120,"no effect"
"ssfOUT_120_12_2_KINGCOBRA.9",0.523662832816132,-0.082955077153463,1.13028074278573,"ssf","mf.is","gamma","unif",158,"ssfOUT_120_12_2_KINGCOBRA","KINGCOBRA",2,0.0833333333333333,120,"no effect"
"ssfOUT_120_12_2_KINGCOBRA.10",0.541160598787389,-0.0600844437842072,1.14240564135899,"ssf","mf.is","gamma","unif",500,"ssfOUT_120_12_2_KINGCOBRA","KINGCOBRA",2,0.0833333333333333,120,"no effect"
"ssfOUT_120_12_2_KINGCOBRA.11",0.661718282714163,0.00819982782615625,1.31523673760217,"ssf","mf.is","exp","vonmises",5,"ssfOUT_120_12_2_KINGCOBRA","KINGCOBRA",2,0.0833333333333333,120,"preference"
"ssfOUT_120_12_2_KINGCOBRA.12",0.31248000910877,-0.301497494751926,0.926457512969467,"ssf","mf.is","exp","vonmises",15,"ssfOUT_120_12_2_KINGCOBRA","KINGCOBRA",2,0.0833333333333333,120,"no effect"
"ssfOUT_120_12_2_KINGCOBRA.13",0.275830354182933,-0.327433931912363,0.879094640278228,"ssf","mf.is","exp","vonmises",50,"ssfOUT_120_12_2_KINGCOBRA","KINGCOBRA",2,0.0833333333333333,120,"no effect"
"ssfOUT_120_12_2_KINGCOBRA.14",0.508087685159419,-0.0955638112809112,1.11173918159975,"ssf","mf.is","exp","vonmises",158,"ssfOUT_120_12_2_KINGCOBRA","KINGCOBRA",2,0.0833333333333333,120,"no effect"
"ssfOUT_120_12_2_KINGCOBRA.15",0.486417819207883,-0.117038277070433,1.0898739154862,"ssf","mf.is","exp","vonmises",500,"ssfOUT_120_12_2_KINGCOBRA","KINGCOBRA",2,0.0833333333333333,120,"no effect"
"ssfOUT_120_12_2_KINGCOBRA.16",0.0997876898588611,-0.575466480084453,0.775041859802175,"ssf","mf.is","exp","unif",5,"ssfOUT_120_12_2_KINGCOBRA","KINGCOBRA",2,0.0833333333333333,120,"no effect"
"ssfOUT_120_12_2_KINGCOBRA.17",0.629278426658429,0.012396587716758,1.2461602656001,"ssf","mf.is","exp","unif",15,"ssfOUT_120_12_2_KINGCOBRA","KINGCOBRA",2,0.0833333333333333,120,"preference"
"ssfOUT_120_12_2_KINGCOBRA.18",0.313327699083906,-0.283982593411592,0.910637991579404,"ssf","mf.is","exp","unif",50,"ssfOUT_120_12_2_KINGCOBRA","KINGCOBRA",2,0.0833333333333333,120,"no effect"
"ssfOUT_120_12_2_KINGCOBRA.19",0.406173375326755,-0.191354946740195,1.00370169739371,"ssf","mf.is","exp","unif",158,"ssfOUT_120_12_2_KINGCOBRA","KINGCOBRA",2,0.0833333333333333,120,"no effect"
"ssfOUT_120_12_2_KINGCOBRA.20",0.479979263633375,-0.123000453460489,1.08295898072724,"ssf","mf.is","exp","unif",500,"ssfOUT_120_12_2_KINGCOBRA","KINGCOBRA",2,0.0833333333333333,120,"no effect"
"ssfOUT_120_12_2_KINGCOBRA.21",0.622594848659893,-0.014679702313889,1.25986939963368,"ssf","mf.ss","gamma","vonmises",5,"ssfOUT_120_12_2_KINGCOBRA","KINGCOBRA",2,0.0833333333333333,120,"no effect"
"ssfOUT_120_12_2_KINGCOBRA.22",0.462386406601101,-0.148954378007687,1.07372719120989,"ssf","mf.ss","gamma","vonmises",15,"ssfOUT_120_12_2_KINGCOBRA","KINGCOBRA",2,0.0833333333333333,120,"no effect"
"ssfOUT_120_12_2_KINGCOBRA.23",0.398985623305545,-0.202174727387572,1.00014597399866,"ssf","mf.ss","gamma","vonmises",50,"ssfOUT_120_12_2_KINGCOBRA","KINGCOBRA",2,0.0833333333333333,120,"no effect"
"ssfOUT_120_12_2_KINGCOBRA.24",0.494065557397181,-0.10680596594348,1.09493708073784,"ssf","mf.ss","gamma","vonmises",158,"ssfOUT_120_12_2_KINGCOBRA","KINGCOBRA",2,0.0833333333333333,120,"no effect"
"ssfOUT_120_12_2_KINGCOBRA.25",0.505315904052394,-0.096931380683988,1.10756318878878,"ssf","mf.ss","gamma","vonmises",500,"ssfOUT_120_12_2_KINGCOBRA","KINGCOBRA",2,0.0833333333333333,120,"no effect"
"ssfOUT_120_12_2_KINGCOBRA.26",0.62650711679126,-0.00181570772625728,1.25482994130878,"ssf","mf.ss","gamma","unif",5,"ssfOUT_120_12_2_KINGCOBRA","KINGCOBRA",2,0.0833333333333333,120,"no effect"
"ssfOUT_120_12_2_KINGCOBRA.27",0.389884225282809,-0.224585804751348,1.00435425531697,"ssf","mf.ss","gamma","unif",15,"ssfOUT_120_12_2_KINGCOBRA","KINGCOBRA",2,0.0833333333333333,120,"no effect"
"ssfOUT_120_12_2_KINGCOBRA.28",0.459346402880611,-0.147603228330781,1.066296034092,"ssf","mf.ss","gamma","unif",50,"ssfOUT_120_12_2_KINGCOBRA","KINGCOBRA",2,0.0833333333333333,120,"no effect"
"ssfOUT_120_12_2_KINGCOBRA.29",0.513469240927173,-0.0927248250439363,1.11966330689828,"ssf","mf.ss","gamma","unif",158,"ssfOUT_120_12_2_KINGCOBRA","KINGCOBRA",2,0.0833333333333333,120,"no effect"
"ssfOUT_120_12_2_KINGCOBRA.30",0.526407263044659,-0.0740082028422619,1.12682272893158,"ssf","mf.ss","gamma","unif",500,"ssfOUT_120_12_2_KINGCOBRA","KINGCOBRA",2,0.0833333333333333,120,"no effect"
"ssfOUT_120_12_2_KINGCOBRA.31",0.562465652208132,-0.0591342551220849,1.18406555953835,"ssf","mf.ss","exp","vonmises",5,"ssfOUT_120_12_2_KINGCOBRA","KINGCOBRA",2,0.0833333333333333,120,"no effect"
"ssfOUT_120_12_2_KINGCOBRA.32",0.64816821413839,0.045737733528205,1.25059869474858,"ssf","mf.ss","exp","vonmises",15,"ssfOUT_120_12_2_KINGCOBRA","KINGCOBRA",2,0.0833333333333333,120,"preference"
"ssfOUT_120_12_2_KINGCOBRA.33",0.437081475724657,-0.155799612625442,1.02996256407476,"ssf","mf.ss","exp","vonmises",50,"ssfOUT_120_12_2_KINGCOBRA","KINGCOBRA",2,0.0833333333333333,120,"no effect"
"ssfOUT_120_12_2_KINGCOBRA.34",0.568954856410152,-0.0206781087664379,1.15858782158674,"ssf","mf.ss","exp","vonmises",158,"ssfOUT_120_12_2_KINGCOBRA","KINGCOBRA",2,0.0833333333333333,120,"no effect"
"ssfOUT_120_12_2_KINGCOBRA.35",0.572373363332424,-0.0161667631733102,1.16091348983816,"ssf","mf.ss","exp","vonmises",500,"ssfOUT_120_12_2_KINGCOBRA","KINGCOBRA",2,0.0833333333333333,120,"no effect"
"ssfOUT_120_12_2_KINGCOBRA.36",0.239565740795146,-0.403536091774472,0.882667573364765,"ssf","mf.ss","exp","unif",5,"ssfOUT_120_12_2_KINGCOBRA","KINGCOBRA",2,0.0833333333333333,120,"no effect"
"ssfOUT_120_12_2_KINGCOBRA.37",0.699312418687184,0.0964225179641947,1.30220231941017,"ssf","mf.ss","exp","unif",15,"ssfOUT_120_12_2_KINGCOBRA","KINGCOBRA",2,0.0833333333333333,120,"preference"
"ssfOUT_120_12_2_KINGCOBRA.38",0.498846521533315,-0.0910734258723527,1.08876646893898,"ssf","mf.ss","exp","unif",50,"ssfOUT_120_12_2_KINGCOBRA","KINGCOBRA",2,0.0833333333333333,120,"no effect"
"ssfOUT_120_12_2_KINGCOBRA.39",0.550866542222882,-0.0371591636554368,1.1388922481012,"ssf","mf.ss","exp","unif",158,"ssfOUT_120_12_2_KINGCOBRA","KINGCOBRA",2,0.0833333333333333,120,"no effect"
"ssfOUT_120_12_2_KINGCOBRA.40",0.577565928251833,-0.0109709691780691,1.16610282568174,"ssf","mf.ss","exp","unif",500,"ssfOUT_120_12_2_KINGCOBRA","KINGCOBRA",2,0.0833333333333333,120,"no effect"
"ssfOUT_120_12_3_BADGER.1",0.562667812705444,-0.00550652426032849,1.13084214967122,"ssf","mf.is","gamma","vonmises",5,"ssfOUT_120_12_3_BADGER","BADGER",3,0.0833333333333333,120,"no effect"
"ssfOUT_120_12_3_BADGER.2",0.446146432814048,-0.0852995935799364,0.977592459208033,"ssf","mf.is","gamma","vonmises",15,"ssfOUT_120_12_3_BADGER","BADGER",3,0.0833333333333333,120,"no effect"
"ssfOUT_120_12_3_BADGER.3",0.538122074595338,0.0218938550762877,1.05435029411439,"ssf","mf.is","gamma","vonmises",50,"ssfOUT_120_12_3_BADGER","BADGER",3,0.0833333333333333,120,"preference"
"ssfOUT_120_12_3_BADGER.4",0.576707952618297,0.0641921483176491,1.08922375691894,"ssf","mf.is","gamma","vonmises",158,"ssfOUT_120_12_3_BADGER","BADGER",3,0.0833333333333333,120,"preference"
"ssfOUT_120_12_3_BADGER.5",0.574962069116195,0.063404824492034,1.08651931374036,"ssf","mf.is","gamma","vonmises",500,"ssfOUT_120_12_3_BADGER","BADGER",3,0.0833333333333333,120,"preference"
"ssfOUT_120_12_3_BADGER.6",0.212799774342564,-0.343178283839755,0.768777832524884,"ssf","mf.is","gamma","unif",5,"ssfOUT_120_12_3_BADGER","BADGER",3,0.0833333333333333,120,"no effect"
"ssfOUT_120_12_3_BADGER.7",0.537076090860947,0.0153539269621655,1.05879825475973,"ssf","mf.is","gamma","unif",15,"ssfOUT_120_12_3_BADGER","BADGER",3,0.0833333333333333,120,"preference"
"ssfOUT_120_12_3_BADGER.8",0.532928323193263,0.0184292007996896,1.04742744558684,"ssf","mf.is","gamma","unif",50,"ssfOUT_120_12_3_BADGER","BADGER",3,0.0833333333333333,120,"preference"
"ssfOUT_120_12_3_BADGER.9",0.597986855480019,0.0856805773194419,1.1102931336406,"ssf","mf.is","gamma","unif",158,"ssfOUT_120_12_3_BADGER","BADGER",3,0.0833333333333333,120,"preference"
"ssfOUT_120_12_3_BADGER.10",0.586859537942905,0.0756604771647342,1.09805859872108,"ssf","mf.is","gamma","unif",500,"ssfOUT_120_12_3_BADGER","BADGER",3,0.0833333333333333,120,"preference"
"ssfOUT_120_12_3_BADGER.11",0.992992022150418,0.41945689994191,1.56652714435893,"ssf","mf.is","exp","vonmises",5,"ssfOUT_120_12_3_BADGER","BADGER",3,0.0833333333333333,120,"preference"
"ssfOUT_120_12_3_BADGER.12",0.504937040885548,-0.0252646025340176,1.03513868430511,"ssf","mf.is","exp","vonmises",15,"ssfOUT_120_12_3_BADGER","BADGER",3,0.0833333333333333,120,"no effect"
"ssfOUT_120_12_3_BADGER.13",0.433843256571978,-0.0828795827983442,0.9505660959423,"ssf","mf.is","exp","vonmises",50,"ssfOUT_120_12_3_BADGER","BADGER",3,0.0833333333333333,120,"no effect"
"ssfOUT_120_12_3_BADGER.14",0.546396096000938,0.0338180659747612,1.05897412602711,"ssf","mf.is","exp","vonmises",158,"ssfOUT_120_12_3_BADGER","BADGER",3,0.0833333333333333,120,"preference"
"ssfOUT_120_12_3_BADGER.15",0.598097496715041,0.0868915098907498,1.10930348353933,"ssf","mf.is","exp","vonmises",500,"ssfOUT_120_12_3_BADGER","BADGER",3,0.0833333333333333,120,"preference"
"ssfOUT_120_12_3_BADGER.16",0.776439632843902,0.234736837877387,1.31814242781042,"ssf","mf.is","exp","unif",5,"ssfOUT_120_12_3_BADGER","BADGER",3,0.0833333333333333,120,"preference"
"ssfOUT_120_12_3_BADGER.17",0.738714710187702,0.215299937714602,1.2621294826608,"ssf","mf.is","exp","unif",15,"ssfOUT_120_12_3_BADGER","BADGER",3,0.0833333333333333,120,"preference"
"ssfOUT_120_12_3_BADGER.18",0.428877210560855,-0.0858327126463295,0.943587133768039,"ssf","mf.is","exp","unif",50,"ssfOUT_120_12_3_BADGER","BADGER",3,0.0833333333333333,120,"no effect"
"ssfOUT_120_12_3_BADGER.19",0.569571472179516,0.0564345922889136,1.08270835207012,"ssf","mf.is","exp","unif",158,"ssfOUT_120_12_3_BADGER","BADGER",3,0.0833333333333333,120,"preference"
"ssfOUT_120_12_3_BADGER.20",0.593005215167922,0.0809936787521924,1.10501675158365,"ssf","mf.is","exp","unif",500,"ssfOUT_120_12_3_BADGER","BADGER",3,0.0833333333333333,120,"preference"
"ssfOUT_120_12_3_BADGER.21",0.498957865096925,-0.039358245182699,1.03727397537655,"ssf","mf.ss","gamma","vonmises",5,"ssfOUT_120_12_3_BADGER","BADGER",3,0.0833333333333333,120,"no effect"
"ssfOUT_120_12_3_BADGER.22",0.476371618813896,-0.0426352984279815,0.995378536055773,"ssf","mf.ss","gamma","vonmises",15,"ssfOUT_120_12_3_BADGER","BADGER",3,0.0833333333333333,120,"no effect"
"ssfOUT_120_12_3_BADGER.23",0.551590568027534,0.0393956142883771,1.06378552176669,"ssf","mf.ss","gamma","vonmises",50,"ssfOUT_120_12_3_BADGER","BADGER",3,0.0833333333333333,120,"preference"
"ssfOUT_120_12_3_BADGER.24",0.556972124891633,0.0469640430867378,1.06698020669653,"ssf","mf.ss","gamma","vonmises",158,"ssfOUT_120_12_3_BADGER","BADGER",3,0.0833333333333333,120,"preference"
"ssfOUT_120_12_3_BADGER.25",0.563640765096972,0.0540680512423235,1.07321347895162,"ssf","mf.ss","gamma","vonmises",500,"ssfOUT_120_12_3_BADGER","BADGER",3,0.0833333333333333,120,"preference"
"ssfOUT_120_12_3_BADGER.26",0.23186576082241,-0.318119238201633,0.781850759846453,"ssf","mf.ss","gamma","unif",5,"ssfOUT_120_12_3_BADGER","BADGER",3,0.0833333333333333,120,"no effect"
"ssfOUT_120_12_3_BADGER.27",0.532188227114201,0.0125295377248031,1.0518469165036,"ssf","mf.ss","gamma","unif",15,"ssfOUT_120_12_3_BADGER","BADGER",3,0.0833333333333333,120,"preference"
"ssfOUT_120_12_3_BADGER.28",0.538140538613291,0.0251597586255855,1.051121318601,"ssf","mf.ss","gamma","unif",50,"ssfOUT_120_12_3_BADGER","BADGER",3,0.0833333333333333,120,"preference"
"ssfOUT_120_12_3_BADGER.29",0.570258788932102,0.0597723760639837,1.08074520180022,"ssf","mf.ss","gamma","unif",158,"ssfOUT_120_12_3_BADGER","BADGER",3,0.0833333333333333,120,"preference"
"ssfOUT_120_12_3_BADGER.30",0.580028494938514,0.0702648069212078,1.08979218295582,"ssf","mf.ss","gamma","unif",500,"ssfOUT_120_12_3_BADGER","BADGER",3,0.0833333333333333,120,"preference"
"ssfOUT_120_12_3_BADGER.31",0.718044075987295,0.178090564582999,1.25799758739159,"ssf","mf.ss","exp","vonmises",5,"ssfOUT_120_12_3_BADGER","BADGER",3,0.0833333333333333,120,"preference"
"ssfOUT_120_12_3_BADGER.32",0.613244963206132,0.0921182626463882,1.13437166376588,"ssf","mf.ss","exp","vonmises",15,"ssfOUT_120_12_3_BADGER","BADGER",3,0.0833333333333333,120,"preference"
"ssfOUT_120_12_3_BADGER.33",0.430727756859078,-0.0849683779176231,0.946423891635779,"ssf","mf.ss","exp","vonmises",50,"ssfOUT_120_12_3_BADGER","BADGER",3,0.0833333333333333,120,"no effect"
"ssfOUT_120_12_3_BADGER.34",0.526785061106002,0.0144995653366374,1.03907055687537,"ssf","mf.ss","exp","vonmises",158,"ssfOUT_120_12_3_BADGER","BADGER",3,0.0833333333333333,120,"preference"
"ssfOUT_120_12_3_BADGER.35",0.517449631464792,0.00639379989817068,1.02850546303141,"ssf","mf.ss","exp","vonmises",500,"ssfOUT_120_12_3_BADGER","BADGER",3,0.0833333333333333,120,"preference"
"ssfOUT_120_12_3_BADGER.36",0.833152100011851,0.300622206213949,1.36568199380975,"ssf","mf.ss","exp","unif",5,"ssfOUT_120_12_3_BADGER","BADGER",3,0.0833333333333333,120,"preference"
"ssfOUT_120_12_3_BADGER.37",0.634888306990102,0.114398981508919,1.15537763247128,"ssf","mf.ss","exp","unif",15,"ssfOUT_120_12_3_BADGER","BADGER",3,0.0833333333333333,120,"preference"
"ssfOUT_120_12_3_BADGER.38",0.365092289734322,-0.149622688792982,0.879807268261627,"ssf","mf.ss","exp","unif",50,"ssfOUT_120_12_3_BADGER","BADGER",3,0.0833333333333333,120,"no effect"
"ssfOUT_120_12_3_BADGER.39",0.488679804766132,-0.0241662069662632,1.00152581649853,"ssf","mf.ss","exp","unif",158,"ssfOUT_120_12_3_BADGER","BADGER",3,0.0833333333333333,120,"no effect"
"ssfOUT_120_12_3_BADGER.40",0.513386568862414,0.00189874153891711,1.02487439618591,"ssf","mf.ss","exp","unif",500,"ssfOUT_120_12_3_BADGER","BADGER",3,0.0833333333333333,120,"preference"
"ssfOUT_120_12_3_VULTURE.1",1.87120441723457,1.10159766533466,2.64081116913448,"ssf","mf.is","gamma","vonmises",5,"ssfOUT_120_12_3_VULTURE","VULTURE",3,0.0833333333333333,120,"preference"
"ssfOUT_120_12_3_VULTURE.2",1.20135726577548,0.46960643301075,1.93310809854021,"ssf","mf.is","gamma","vonmises",15,"ssfOUT_120_12_3_VULTURE","VULTURE",3,0.0833333333333333,120,"preference"
"ssfOUT_120_12_3_VULTURE.3",1.33519277253044,0.614545899302856,2.05583964575802,"ssf","mf.is","gamma","vonmises",50,"ssfOUT_120_12_3_VULTURE","VULTURE",3,0.0833333333333333,120,"preference"
"ssfOUT_120_12_3_VULTURE.4",1.41580241013147,0.700176012601557,2.13142880766138,"ssf","mf.is","gamma","vonmises",158,"ssfOUT_120_12_3_VULTURE","VULTURE",3,0.0833333333333333,120,"preference"
"ssfOUT_120_12_3_VULTURE.5",1.44372753134027,0.728913679543562,2.15854138313697,"ssf","mf.is","gamma","vonmises",500,"ssfOUT_120_12_3_VULTURE","VULTURE",3,0.0833333333333333,120,"preference"
"ssfOUT_120_12_3_VULTURE.6",1.32317681930644,0.579180521625254,2.06717311698762,"ssf","mf.is","gamma","unif",5,"ssfOUT_120_12_3_VULTURE","VULTURE",3,0.0833333333333333,120,"preference"
"ssfOUT_120_12_3_VULTURE.7",1.61347264043154,0.89090204800276,2.33604323286032,"ssf","mf.is","gamma","unif",15,"ssfOUT_120_12_3_VULTURE","VULTURE",3,0.0833333333333333,120,"preference"
"ssfOUT_120_12_3_VULTURE.8",1.45528678351976,0.737221443008975,2.17335212403054,"ssf","mf.is","gamma","unif",50,"ssfOUT_120_12_3_VULTURE","VULTURE",3,0.0833333333333333,120,"preference"
"ssfOUT_120_12_3_VULTURE.9",1.46572258909367,0.750879575724626,2.1805656024627,"ssf","mf.is","gamma","unif",158,"ssfOUT_120_12_3_VULTURE","VULTURE",3,0.0833333333333333,120,"preference"
"ssfOUT_120_12_3_VULTURE.10",1.48263361885758,0.768272499771825,2.19699473794333,"ssf","mf.is","gamma","unif",500,"ssfOUT_120_12_3_VULTURE","VULTURE",3,0.0833333333333333,120,"preference"
"ssfOUT_120_12_3_VULTURE.11",1.16581893503786,0.366657315032908,1.96498055504282,"ssf","mf.is","exp","vonmises",5,"ssfOUT_120_12_3_VULTURE","VULTURE",3,0.0833333333333333,120,"preference"
"ssfOUT_120_12_3_VULTURE.12",0.617936653396839,-0.12841602072288,1.36428932751656,"ssf","mf.is","exp","vonmises",15,"ssfOUT_120_12_3_VULTURE","VULTURE",3,0.0833333333333333,120,"no effect"
"ssfOUT_120_12_3_VULTURE.13",1.28538742968492,0.56441007602034,2.00636478334949,"ssf","mf.is","exp","vonmises",50,"ssfOUT_120_12_3_VULTURE","VULTURE",3,0.0833333333333333,120,"preference"
"ssfOUT_120_12_3_VULTURE.14",1.55646325537892,0.839427343044482,2.27349916771337,"ssf","mf.is","exp","vonmises",158,"ssfOUT_120_12_3_VULTURE","VULTURE",3,0.0833333333333333,120,"preference"
"ssfOUT_120_12_3_VULTURE.15",1.46425679922848,0.749402990675159,2.1791106077818,"ssf","mf.is","exp","vonmises",500,"ssfOUT_120_12_3_VULTURE","VULTURE",3,0.0833333333333333,120,"preference"
"ssfOUT_120_12_3_VULTURE.16",1.14242560235105,0.367912748839145,1.91693845586296,"ssf","mf.is","exp","unif",5,"ssfOUT_120_12_3_VULTURE","VULTURE",3,0.0833333333333333,120,"preference"
"ssfOUT_120_12_3_VULTURE.17",1.08495452263121,0.35241194225456,1.81749710300787,"ssf","mf.is","exp","unif",15,"ssfOUT_120_12_3_VULTURE","VULTURE",3,0.0833333333333333,120,"preference"
"ssfOUT_120_12_3_VULTURE.18",1.32211401348535,0.603676824288184,2.04055120268252,"ssf","mf.is","exp","unif",50,"ssfOUT_120_12_3_VULTURE","VULTURE",3,0.0833333333333333,120,"preference"
"ssfOUT_120_12_3_VULTURE.19",1.53157448215412,0.816127971823129,2.2470209924851,"ssf","mf.is","exp","unif",158,"ssfOUT_120_12_3_VULTURE","VULTURE",3,0.0833333333333333,120,"preference"
"ssfOUT_120_12_3_VULTURE.20",1.45110767516688,0.73634390260398,2.16587144772978,"ssf","mf.is","exp","unif",500,"ssfOUT_120_12_3_VULTURE","VULTURE",3,0.0833333333333333,120,"preference"
"ssfOUT_120_12_3_VULTURE.21",1.50754332057722,0.772885503744091,2.24220113741036,"ssf","mf.ss","gamma","vonmises",5,"ssfOUT_120_12_3_VULTURE","VULTURE",3,0.0833333333333333,120,"preference"
"ssfOUT_120_12_3_VULTURE.22",1.16308179793268,0.443650027319515,1.88251356854584,"ssf","mf.ss","gamma","vonmises",15,"ssfOUT_120_12_3_VULTURE","VULTURE",3,0.0833333333333333,120,"preference"
"ssfOUT_120_12_3_VULTURE.23",1.11836327013909,0.402513091458776,1.8342134488194,"ssf","mf.ss","gamma","vonmises",50,"ssfOUT_120_12_3_VULTURE","VULTURE",3,0.0833333333333333,120,"preference"
"ssfOUT_120_12_3_VULTURE.24",1.16792822165423,0.454267617094741,1.88158882621373,"ssf","mf.ss","gamma","vonmises",158,"ssfOUT_120_12_3_VULTURE","VULTURE",3,0.0833333333333333,120,"preference"
"ssfOUT_120_12_3_VULTURE.25",1.14819059714889,0.435231870314692,1.86114932398308,"ssf","mf.ss","gamma","vonmises",500,"ssfOUT_120_12_3_VULTURE","VULTURE",3,0.0833333333333333,120,"preference"
"ssfOUT_120_12_3_VULTURE.26",1.45618439203521,0.718103699873769,2.19426508419664,"ssf","mf.ss","gamma","unif",5,"ssfOUT_120_12_3_VULTURE","VULTURE",3,0.0833333333333333,120,"preference"
"ssfOUT_120_12_3_VULTURE.27",1.52004106289223,0.801074022711603,2.23900810307286,"ssf","mf.ss","gamma","unif",15,"ssfOUT_120_12_3_VULTURE","VULTURE",3,0.0833333333333333,120,"preference"
"ssfOUT_120_12_3_VULTURE.28",1.31130397188716,0.595803933253763,2.02680401052056,"ssf","mf.ss","gamma","unif",50,"ssfOUT_120_12_3_VULTURE","VULTURE",3,0.0833333333333333,120,"preference"
"ssfOUT_120_12_3_VULTURE.29",1.34406195465896,0.630523350512491,2.05760055880544,"ssf","mf.ss","gamma","unif",158,"ssfOUT_120_12_3_VULTURE","VULTURE",3,0.0833333333333333,120,"preference"
"ssfOUT_120_12_3_VULTURE.30",1.32584929257468,0.612651016370058,2.03904756877931,"ssf","mf.ss","gamma","unif",500,"ssfOUT_120_12_3_VULTURE","VULTURE",3,0.0833333333333333,120,"preference"
"ssfOUT_120_12_3_VULTURE.31",1.03356242948836,0.282526997765634,1.78459786121109,"ssf","mf.ss","exp","vonmises",5,"ssfOUT_120_12_3_VULTURE","VULTURE",3,0.0833333333333333,120,"preference"
"ssfOUT_120_12_3_VULTURE.32",0.703776455101405,-0.0230674642327541,1.43062037443556,"ssf","mf.ss","exp","vonmises",15,"ssfOUT_120_12_3_VULTURE","VULTURE",3,0.0833333333333333,120,"no effect"
"ssfOUT_120_12_3_VULTURE.33",1.06044576512038,0.342915770128705,1.77797576011205,"ssf","mf.ss","exp","vonmises",50,"ssfOUT_120_12_3_VULTURE","VULTURE",3,0.0833333333333333,120,"preference"
"ssfOUT_120_12_3_VULTURE.34",1.11808618019756,0.403112779582488,1.83305958081264,"ssf","mf.ss","exp","vonmises",158,"ssfOUT_120_12_3_VULTURE","VULTURE",3,0.0833333333333333,120,"preference"
"ssfOUT_120_12_3_VULTURE.35",1.09105931682087,0.376874660582745,1.80524397305899,"ssf","mf.ss","exp","vonmises",500,"ssfOUT_120_12_3_VULTURE","VULTURE",3,0.0833333333333333,120,"preference"
"ssfOUT_120_12_3_VULTURE.36",1.00424612926178,0.254286530981264,1.7542057275423,"ssf","mf.ss","exp","unif",5,"ssfOUT_120_12_3_VULTURE","VULTURE",3,0.0833333333333333,120,"preference"
"ssfOUT_120_12_3_VULTURE.37",0.938536287511983,0.21345378829214,1.66361878673183,"ssf","mf.ss","exp","unif",15,"ssfOUT_120_12_3_VULTURE","VULTURE",3,0.0833333333333333,120,"preference"
"ssfOUT_120_12_3_VULTURE.38",1.14687820119615,0.42869081020808,1.86506559218421,"ssf","mf.ss","exp","unif",50,"ssfOUT_120_12_3_VULTURE","VULTURE",3,0.0833333333333333,120,"preference"
"ssfOUT_120_12_3_VULTURE.39",1.33285504357157,0.617459917204172,2.04825016993897,"ssf","mf.ss","exp","unif",158,"ssfOUT_120_12_3_VULTURE","VULTURE",3,0.0833333333333333,120,"preference"
"ssfOUT_120_12_3_VULTURE.40",1.22670947909263,0.511991208017694,1.94142775016757,"ssf","mf.ss","exp","unif",500,"ssfOUT_120_12_3_VULTURE","VULTURE",3,0.0833333333333333,120,"preference"
"ssfOUT_120_12_3_KINGCOBRA.1",16.0505380417712,-4081.48267432156,4113.5837504051,"ssf","mf.is","gamma","vonmises",5,"ssfOUT_120_12_3_KINGCOBRA","KINGCOBRA",3,0.0833333333333333,120,"no effect"
"ssfOUT_120_12_3_KINGCOBRA.2",16.4297323465761,-2621.423475436,2654.28294012915,"ssf","mf.is","gamma","vonmises",15,"ssfOUT_120_12_3_KINGCOBRA","KINGCOBRA",3,0.0833333333333333,120,"no effect"
"ssfOUT_120_12_3_KINGCOBRA.3",15.5323013028316,-1701.31941250455,1732.38401511022,"ssf","mf.is","gamma","vonmises",50,"ssfOUT_120_12_3_KINGCOBRA","KINGCOBRA",3,0.0833333333333333,120,"no effect"
"ssfOUT_120_12_3_KINGCOBRA.4",15.5117512004746,-1711.26972671403,1742.29322911498,"ssf","mf.is","gamma","vonmises",158,"ssfOUT_120_12_3_KINGCOBRA","KINGCOBRA",3,0.0833333333333333,120,"no effect"
"ssfOUT_120_12_3_KINGCOBRA.5",15.4913951384945,-1716.06241431975,1747.04520459674,"ssf","mf.is","gamma","vonmises",500,"ssfOUT_120_12_3_KINGCOBRA","KINGCOBRA",3,0.0833333333333333,120,"no effect"
"ssfOUT_120_12_3_KINGCOBRA.6",16.9355226877541,-2461.97286202908,2495.84390740459,"ssf","mf.is","gamma","unif",5,"ssfOUT_120_12_3_KINGCOBRA","KINGCOBRA",3,0.0833333333333333,120,"no effect"
"ssfOUT_120_12_3_KINGCOBRA.7",16.482281804224,-2596.7729942491,2629.73755785755,"ssf","mf.is","gamma","unif",15,"ssfOUT_120_12_3_KINGCOBRA","KINGCOBRA",3,0.0833333333333333,120,"no effect"
"ssfOUT_120_12_3_KINGCOBRA.8",15.4909098091381,-1872.04086861491,1903.02268823318,"ssf","mf.is","gamma","unif",50,"ssfOUT_120_12_3_KINGCOBRA","KINGCOBRA",3,0.0833333333333333,120,"no effect"
"ssfOUT_120_12_3_KINGCOBRA.9",15.4483860168144,-1647.47317933922,1678.36995137285,"ssf","mf.is","gamma","unif",158,"ssfOUT_120_12_3_KINGCOBRA","KINGCOBRA",3,0.0833333333333333,120,"no effect"
"ssfOUT_120_12_3_KINGCOBRA.10",15.4832509962208,-1608.73602069759,1639.70252269003,"ssf","mf.is","gamma","unif",500,"ssfOUT_120_12_3_KINGCOBRA","KINGCOBRA",3,0.0833333333333333,120,"no effect"
"ssfOUT_120_12_3_KINGCOBRA.11",16.6244135100689,-2771.76074504538,2805.00957206552,"ssf","mf.is","exp","vonmises",5,"ssfOUT_120_12_3_KINGCOBRA","KINGCOBRA",3,0.0833333333333333,120,"no effect"
"ssfOUT_120_12_3_KINGCOBRA.12",15.9668572750983,-2339.74192200844,2371.67563655863,"ssf","mf.is","exp","vonmises",15,"ssfOUT_120_12_3_KINGCOBRA","KINGCOBRA",3,0.0833333333333333,120,"no effect"
"ssfOUT_120_12_3_KINGCOBRA.13",15.3116420600353,-1553.95742390263,1584.58070802271,"ssf","mf.is","exp","vonmises",50,"ssfOUT_120_12_3_KINGCOBRA","KINGCOBRA",3,0.0833333333333333,120,"no effect"
"ssfOUT_120_12_3_KINGCOBRA.14",15.4273303138964,-1571.10456756875,1601.95922819654,"ssf","mf.is","exp","vonmises",158,"ssfOUT_120_12_3_KINGCOBRA","KINGCOBRA",3,0.0833333333333333,120,"no effect"
"ssfOUT_120_12_3_KINGCOBRA.15",15.3760512635582,-1613.86268844076,1644.61479096788,"ssf","mf.is","exp","vonmises",500,"ssfOUT_120_12_3_KINGCOBRA","KINGCOBRA",3,0.0833333333333333,120,"no effect"
"ssfOUT_120_12_3_KINGCOBRA.16",15.9672543344892,-2606.99775715627,2638.93226582525,"ssf","mf.is","exp","unif",5,"ssfOUT_120_12_3_KINGCOBRA","KINGCOBRA",3,0.0833333333333333,120,"no effect"
"ssfOUT_120_12_3_KINGCOBRA.17",16.6406447732727,-2781.29424733639,2814.57553688294,"ssf","mf.is","exp","unif",15,"ssfOUT_120_12_3_KINGCOBRA","KINGCOBRA",3,0.0833333333333333,120,"no effect"
"ssfOUT_120_12_3_KINGCOBRA.18",15.2468448050543,-1487.39900712396,1517.89269673406,"ssf","mf.is","exp","unif",50,"ssfOUT_120_12_3_KINGCOBRA","KINGCOBRA",3,0.0833333333333333,120,"no effect"
"ssfOUT_120_12_3_KINGCOBRA.19",15.2263850045897,-1601.06919975527,1631.52196976445,"ssf","mf.is","exp","unif",158,"ssfOUT_120_12_3_KINGCOBRA","KINGCOBRA",3,0.0833333333333333,120,"no effect"
"ssfOUT_120_12_3_KINGCOBRA.20",15.1113916721231,-1322.69071807379,1352.91350141803,"ssf","mf.is","exp","unif",500,"ssfOUT_120_12_3_KINGCOBRA","KINGCOBRA",3,0.0833333333333333,120,"no effect"
"ssfOUT_120_12_3_KINGCOBRA.21",16.4555254545349,-3869.89833501756,3902.80938592663,"ssf","mf.ss","gamma","vonmises",5,"ssfOUT_120_12_3_KINGCOBRA","KINGCOBRA",3,0.0833333333333333,120,"no effect"
"ssfOUT_120_12_3_KINGCOBRA.22",16.3667997483428,-2607.78149463537,2640.51509413206,"ssf","mf.ss","gamma","vonmises",15,"ssfOUT_120_12_3_KINGCOBRA","KINGCOBRA",3,0.0833333333333333,120,"no effect"
"ssfOUT_120_12_3_KINGCOBRA.23",15.2685514320642,-1681.39886999146,1711.93597285559,"ssf","mf.ss","gamma","vonmises",50,"ssfOUT_120_12_3_KINGCOBRA","KINGCOBRA",3,0.0833333333333333,120,"no effect"
"ssfOUT_120_12_3_KINGCOBRA.24",15.2951599922306,-1717.0647979071,1747.65511789156,"ssf","mf.ss","gamma","vonmises",158,"ssfOUT_120_12_3_KINGCOBRA","KINGCOBRA",3,0.0833333333333333,120,"no effect"
"ssfOUT_120_12_3_KINGCOBRA.25",15.2477259956829,-1719.47665416473,1749.97210615609,"ssf","mf.ss","gamma","vonmises",500,"ssfOUT_120_12_3_KINGCOBRA","KINGCOBRA",3,0.0833333333333333,120,"no effect"
"ssfOUT_120_12_3_KINGCOBRA.26",16.7006556831784,-2448.32114692372,2481.72245829008,"ssf","mf.ss","gamma","unif",5,"ssfOUT_120_12_3_KINGCOBRA","KINGCOBRA",3,0.0833333333333333,120,"no effect"
"ssfOUT_120_12_3_KINGCOBRA.27",16.2839325633693,-2602.29513778287,2634.86300290961,"ssf","mf.ss","gamma","unif",15,"ssfOUT_120_12_3_KINGCOBRA","KINGCOBRA",3,0.0833333333333333,120,"no effect"
"ssfOUT_120_12_3_KINGCOBRA.28",15.3101643178166,-1851.07781391839,1881.69814255402,"ssf","mf.ss","gamma","unif",50,"ssfOUT_120_12_3_KINGCOBRA","KINGCOBRA",3,0.0833333333333333,120,"no effect"
"ssfOUT_120_12_3_KINGCOBRA.29",15.2704314631317,-1641.11856217278,1671.65942509904,"ssf","mf.ss","gamma","unif",158,"ssfOUT_120_12_3_KINGCOBRA","KINGCOBRA",3,0.0833333333333333,120,"no effect"
"ssfOUT_120_12_3_KINGCOBRA.30",15.3039091846966,-1599.31036441235,1629.91818278174,"ssf","mf.ss","gamma","unif",500,"ssfOUT_120_12_3_KINGCOBRA","KINGCOBRA",3,0.0833333333333333,120,"no effect"
"ssfOUT_120_12_3_KINGCOBRA.31",16.5817001030888,-2978.07488345339,3011.23828365957,"ssf","mf.ss","exp","vonmises",5,"ssfOUT_120_12_3_KINGCOBRA","KINGCOBRA",3,0.0833333333333333,120,"no effect"
"ssfOUT_120_12_3_KINGCOBRA.32",15.3109399626831,-1851.90857600429,1882.53045592966,"ssf","mf.ss","exp","vonmises",15,"ssfOUT_120_12_3_KINGCOBRA","KINGCOBRA",3,0.0833333333333333,120,"no effect"
"ssfOUT_120_12_3_KINGCOBRA.33",15.3516292093784,-2023.10035537037,2053.80361378913,"ssf","mf.ss","exp","vonmises",50,"ssfOUT_120_12_3_KINGCOBRA","KINGCOBRA",3,0.0833333333333333,120,"no effect"
"ssfOUT_120_12_3_KINGCOBRA.34",14.314810079065,-1204.09484902559,1232.72446918372,"ssf","mf.ss","exp","vonmises",158,"ssfOUT_120_12_3_KINGCOBRA","KINGCOBRA",3,0.0833333333333333,120,"no effect"
"ssfOUT_120_12_3_KINGCOBRA.35",14.3074041951375,-1154.75981088772,1183.374619278,"ssf","mf.ss","exp","vonmises",500,"ssfOUT_120_12_3_KINGCOBRA","KINGCOBRA",3,0.0833333333333333,120,"no effect"
"ssfOUT_120_12_3_KINGCOBRA.36",15.5968146952827,-2319.72725736857,2350.92088675914,"ssf","mf.ss","exp","unif",5,"ssfOUT_120_12_3_KINGCOBRA","KINGCOBRA",3,0.0833333333333333,120,"no effect"
"ssfOUT_120_12_3_KINGCOBRA.37",15.4838561083578,-1767.17579240164,1798.14350461836,"ssf","mf.ss","exp","unif",15,"ssfOUT_120_12_3_KINGCOBRA","KINGCOBRA",3,0.0833333333333333,120,"no effect"
"ssfOUT_120_12_3_KINGCOBRA.38",15.3900756851958,-1956.93037135936,1987.71052272975,"ssf","mf.ss","exp","unif",50,"ssfOUT_120_12_3_KINGCOBRA","KINGCOBRA",3,0.0833333333333333,120,"no effect"
"ssfOUT_120_12_3_KINGCOBRA.39",14.3568582786323,-1207.64143255738,1236.35514911465,"ssf","mf.ss","exp","unif",158,"ssfOUT_120_12_3_KINGCOBRA","KINGCOBRA",3,0.0833333333333333,120,"no effect"
"ssfOUT_120_12_3_KINGCOBRA.40",14.3396831912937,-1112.36747972886,1141.04684611145,"ssf","mf.ss","exp","unif",500,"ssfOUT_120_12_3_KINGCOBRA","KINGCOBRA",3,0.0833333333333333,120,"no effect"
"ssfOUT_120_12_4_BADGER.1",0.472123833095998,-0.110283075303507,1.0545307414955,"ssf","mf.is","gamma","vonmises",5,"ssfOUT_120_12_4_BADGER","BADGER",4,0.0833333333333333,120,"no effect"
"ssfOUT_120_12_4_BADGER.2",0.792754524631326,0.261350520033489,1.32415852922916,"ssf","mf.is","gamma","vonmises",15,"ssfOUT_120_12_4_BADGER","BADGER",4,0.0833333333333333,120,"preference"
"ssfOUT_120_12_4_BADGER.3",0.648736311489568,0.129841255668735,1.1676313673104,"ssf","mf.is","gamma","vonmises",50,"ssfOUT_120_12_4_BADGER","BADGER",4,0.0833333333333333,120,"preference"
"ssfOUT_120_12_4_BADGER.4",0.766606538854848,0.25389259046562,1.27932048724408,"ssf","mf.is","gamma","vonmises",158,"ssfOUT_120_12_4_BADGER","BADGER",4,0.0833333333333333,120,"preference"
"ssfOUT_120_12_4_BADGER.5",0.770648507319648,0.258726968002006,1.28257004663729,"ssf","mf.is","gamma","vonmises",500,"ssfOUT_120_12_4_BADGER","BADGER",4,0.0833333333333333,120,"preference"
"ssfOUT_120_12_4_BADGER.6",0.776255295234535,0.227603286456942,1.32490730401213,"ssf","mf.is","gamma","unif",5,"ssfOUT_120_12_4_BADGER","BADGER",4,0.0833333333333333,120,"preference"
"ssfOUT_120_12_4_BADGER.7",0.757963459288025,0.235489365835875,1.28043755274018,"ssf","mf.is","gamma","unif",15,"ssfOUT_120_12_4_BADGER","BADGER",4,0.0833333333333333,120,"preference"
"ssfOUT_120_12_4_BADGER.8",0.754968134904907,0.239711600866649,1.27022466894317,"ssf","mf.is","gamma","unif",50,"ssfOUT_120_12_4_BADGER","BADGER",4,0.0833333333333333,120,"preference"
"ssfOUT_120_12_4_BADGER.9",0.750482344378672,0.237861416109426,1.26310327264792,"ssf","mf.is","gamma","unif",158,"ssfOUT_120_12_4_BADGER","BADGER",4,0.0833333333333333,120,"preference"
"ssfOUT_120_12_4_BADGER.10",0.765733004427505,0.253801122116956,1.27766488673805,"ssf","mf.is","gamma","unif",500,"ssfOUT_120_12_4_BADGER","BADGER",4,0.0833333333333333,120,"preference"
"ssfOUT_120_12_4_BADGER.11",0.294451734959174,-0.37752763538004,0.966431105298388,"ssf","mf.is","exp","vonmises",5,"ssfOUT_120_12_4_BADGER","BADGER",4,0.0833333333333333,120,"no effect"
"ssfOUT_120_12_4_BADGER.12",0.709613390247405,0.171227210610518,1.24799956988429,"ssf","mf.is","exp","vonmises",15,"ssfOUT_120_12_4_BADGER","BADGER",4,0.0833333333333333,120,"preference"
"ssfOUT_120_12_4_BADGER.13",0.737909701370531,0.218874570418453,1.25694483232261,"ssf","mf.is","exp","vonmises",50,"ssfOUT_120_12_4_BADGER","BADGER",4,0.0833333333333333,120,"preference"
"ssfOUT_120_12_4_BADGER.14",0.760444915914931,0.246194365574986,1.27469546625488,"ssf","mf.is","exp","vonmises",158,"ssfOUT_120_12_4_BADGER","BADGER",4,0.0833333333333333,120,"preference"
"ssfOUT_120_12_4_BADGER.15",0.74758016515158,0.235197665398949,1.25996266490421,"ssf","mf.is","exp","vonmises",500,"ssfOUT_120_12_4_BADGER","BADGER",4,0.0833333333333333,120,"preference"
"ssfOUT_120_12_4_BADGER.16",0.734816838954632,0.188295073057955,1.28133860485131,"ssf","mf.is","exp","unif",5,"ssfOUT_120_12_4_BADGER","BADGER",4,0.0833333333333333,120,"preference"
"ssfOUT_120_12_4_BADGER.17",0.762474069928704,0.237258901955082,1.28768923790233,"ssf","mf.is","exp","unif",15,"ssfOUT_120_12_4_BADGER","BADGER",4,0.0833333333333333,120,"preference"
"ssfOUT_120_12_4_BADGER.18",0.617966376857723,0.100298693023972,1.13563406069147,"ssf","mf.is","exp","unif",50,"ssfOUT_120_12_4_BADGER","BADGER",4,0.0833333333333333,120,"preference"
"ssfOUT_120_12_4_BADGER.19",0.714607119776694,0.202245022523746,1.22696921702964,"ssf","mf.is","exp","unif",158,"ssfOUT_120_12_4_BADGER","BADGER",4,0.0833333333333333,120,"preference"
"ssfOUT_120_12_4_BADGER.20",0.733978772070822,0.222231310658757,1.24572623348289,"ssf","mf.is","exp","unif",500,"ssfOUT_120_12_4_BADGER","BADGER",4,0.0833333333333333,120,"preference"
"ssfOUT_120_12_4_BADGER.21",0.44682760437498,-0.107411411873974,1.00106662062393,"ssf","mf.ss","gamma","vonmises",5,"ssfOUT_120_12_4_BADGER","BADGER",4,0.0833333333333333,120,"no effect"
"ssfOUT_120_12_4_BADGER.22",0.691583023994118,0.171378155582466,1.21178789240577,"ssf","mf.ss","gamma","vonmises",15,"ssfOUT_120_12_4_BADGER","BADGER",4,0.0833333333333333,120,"preference"
"ssfOUT_120_12_4_BADGER.23",0.512096830033371,-0.00184828559150474,1.02604194565825,"ssf","mf.ss","gamma","vonmises",50,"ssfOUT_120_12_4_BADGER","BADGER",4,0.0833333333333333,120,"no effect"
"ssfOUT_120_12_4_BADGER.24",0.645442916751433,0.133944805833113,1.15694102766975,"ssf","mf.ss","gamma","vonmises",158,"ssfOUT_120_12_4_BADGER","BADGER",4,0.0833333333333333,120,"preference"
"ssfOUT_120_12_4_BADGER.25",0.609567044907393,0.099194685112292,1.11993940470249,"ssf","mf.ss","gamma","vonmises",500,"ssfOUT_120_12_4_BADGER","BADGER",4,0.0833333333333333,120,"preference"
"ssfOUT_120_12_4_BADGER.26",0.830183376511252,0.291206905478602,1.3691598475439,"ssf","mf.ss","gamma","unif",5,"ssfOUT_120_12_4_BADGER","BADGER",4,0.0833333333333333,120,"preference"
"ssfOUT_120_12_4_BADGER.27",0.703393183144611,0.182710126751287,1.22407623953793,"ssf","mf.ss","gamma","unif",15,"ssfOUT_120_12_4_BADGER","BADGER",4,0.0833333333333333,120,"preference"
"ssfOUT_120_12_4_BADGER.28",0.665886866091689,0.153185728079167,1.17858800410421,"ssf","mf.ss","gamma","unif",50,"ssfOUT_120_12_4_BADGER","BADGER",4,0.0833333333333333,120,"preference"
"ssfOUT_120_12_4_BADGER.29",0.661884227355309,0.150958540065781,1.17280991464484,"ssf","mf.ss","gamma","unif",158,"ssfOUT_120_12_4_BADGER","BADGER",4,0.0833333333333333,120,"preference"
"ssfOUT_120_12_4_BADGER.30",0.674064892581265,0.163639247015278,1.18449053814725,"ssf","mf.ss","gamma","unif",500,"ssfOUT_120_12_4_BADGER","BADGER",4,0.0833333333333333,120,"preference"
"ssfOUT_120_12_4_BADGER.31",0.421951312263467,-0.173217956971315,1.01712058149825,"ssf","mf.ss","exp","vonmises",5,"ssfOUT_120_12_4_BADGER","BADGER",4,0.0833333333333333,120,"no effect"
"ssfOUT_120_12_4_BADGER.32",0.571814172255467,0.0483640275031552,1.09526431700778,"ssf","mf.ss","exp","vonmises",15,"ssfOUT_120_12_4_BADGER","BADGER",4,0.0833333333333333,120,"preference"
"ssfOUT_120_12_4_BADGER.33",0.52195733368148,0.00503233357900712,1.03888233378395,"ssf","mf.ss","exp","vonmises",50,"ssfOUT_120_12_4_BADGER","BADGER",4,0.0833333333333333,120,"preference"
"ssfOUT_120_12_4_BADGER.34",0.499255881380933,-0.0140391135810347,1.0125508763429,"ssf","mf.ss","exp","vonmises",158,"ssfOUT_120_12_4_BADGER","BADGER",4,0.0833333333333333,120,"no effect"
"ssfOUT_120_12_4_BADGER.35",0.486961701719996,-0.0258537473112686,0.99977715075126,"ssf","mf.ss","exp","vonmises",500,"ssfOUT_120_12_4_BADGER","BADGER",4,0.0833333333333333,120,"no effect"
"ssfOUT_120_12_4_BADGER.36",0.601110657077241,0.058071713268278,1.1441496008862,"ssf","mf.ss","exp","unif",5,"ssfOUT_120_12_4_BADGER","BADGER",4,0.0833333333333333,120,"preference"
"ssfOUT_120_12_4_BADGER.37",0.549534108824928,0.0266256806204972,1.07244253702936,"ssf","mf.ss","exp","unif",15,"ssfOUT_120_12_4_BADGER","BADGER",4,0.0833333333333333,120,"preference"
"ssfOUT_120_12_4_BADGER.38",0.449324939584972,-0.0686152601846167,0.967265139354561,"ssf","mf.ss","exp","unif",50,"ssfOUT_120_12_4_BADGER","BADGER",4,0.0833333333333333,120,"no effect"
"ssfOUT_120_12_4_BADGER.39",0.534244638663967,0.021173797330281,1.04731547999765,"ssf","mf.ss","exp","unif",158,"ssfOUT_120_12_4_BADGER","BADGER",4,0.0833333333333333,120,"preference"
"ssfOUT_120_12_4_BADGER.40",0.512439379734298,0.000487421733766702,1.02439133773483,"ssf","mf.ss","exp","unif",500,"ssfOUT_120_12_4_BADGER","BADGER",4,0.0833333333333333,120,"preference"
"ssfOUT_120_12_4_VULTURE.1",0.143480125701346,-0.356890782819313,0.643851034222005,"ssf","mf.is","gamma","vonmises",5,"ssfOUT_120_12_4_VULTURE","VULTURE",4,0.0833333333333333,120,"no effect"
"ssfOUT_120_12_4_VULTURE.2",0.410772383174309,-0.0639396154486213,0.885484381797238,"ssf","mf.is","gamma","vonmises",15,"ssfOUT_120_12_4_VULTURE","VULTURE",4,0.0833333333333333,120,"no effect"
"ssfOUT_120_12_4_VULTURE.3",0.373517979454658,-0.0906178823070388,0.837653841216354,"ssf","mf.is","gamma","vonmises",50,"ssfOUT_120_12_4_VULTURE","VULTURE",4,0.0833333333333333,120,"no effect"
"ssfOUT_120_12_4_VULTURE.4",0.43641758836441,-0.0234894702129909,0.896324646941811,"ssf","mf.is","gamma","vonmises",158,"ssfOUT_120_12_4_VULTURE","VULTURE",4,0.0833333333333333,120,"no effect"
"ssfOUT_120_12_4_VULTURE.5",0.472018615354281,0.0131834815548172,0.930853749153745,"ssf","mf.is","gamma","vonmises",500,"ssfOUT_120_12_4_VULTURE","VULTURE",4,0.0833333333333333,120,"preference"
"ssfOUT_120_12_4_VULTURE.6",0.179842795122491,-0.325001621722549,0.684687211967532,"ssf","mf.is","gamma","unif",5,"ssfOUT_120_12_4_VULTURE","VULTURE",4,0.0833333333333333,120,"no effect"
"ssfOUT_120_12_4_VULTURE.7",0.512621284496374,0.0437238875557968,0.98151868143695,"ssf","mf.is","gamma","unif",15,"ssfOUT_120_12_4_VULTURE","VULTURE",4,0.0833333333333333,120,"preference"
"ssfOUT_120_12_4_VULTURE.8",0.488570586794275,0.0266786586149101,0.950462514973641,"ssf","mf.is","gamma","unif",50,"ssfOUT_120_12_4_VULTURE","VULTURE",4,0.0833333333333333,120,"preference"
"ssfOUT_120_12_4_VULTURE.9",0.474680857182418,0.0154333817880196,0.933928332576816,"ssf","mf.is","gamma","unif",158,"ssfOUT_120_12_4_VULTURE","VULTURE",4,0.0833333333333333,120,"preference"
"ssfOUT_120_12_4_VULTURE.10",0.48410225300679,0.025653656707757,0.942550849305823,"ssf","mf.is","gamma","unif",500,"ssfOUT_120_12_4_VULTURE","VULTURE",4,0.0833333333333333,120,"preference"
"ssfOUT_120_12_4_VULTURE.11",-0.862776214360981,-1.43532859338438,-0.29022383533758,"ssf","mf.is","exp","vonmises",5,"ssfOUT_120_12_4_VULTURE","VULTURE",4,0.0833333333333333,120,"avoidance"
"ssfOUT_120_12_4_VULTURE.12",0.163628245468001,-0.31785439517955,0.645110886115552,"ssf","mf.is","exp","vonmises",15,"ssfOUT_120_12_4_VULTURE","VULTURE",4,0.0833333333333333,120,"no effect"
"ssfOUT_120_12_4_VULTURE.13",0.443078431965914,-0.0213950443978716,0.9075519083297,"ssf","mf.is","exp","vonmises",50,"ssfOUT_120_12_4_VULTURE","VULTURE",4,0.0833333333333333,120,"no effect"
"ssfOUT_120_12_4_VULTURE.14",0.445826459461813,-0.0144519134998962,0.906104832423522,"ssf","mf.is","exp","vonmises",158,"ssfOUT_120_12_4_VULTURE","VULTURE",4,0.0833333333333333,120,"no effect"
"ssfOUT_120_12_4_VULTURE.15",0.43863699372519,-0.0203613780211385,0.897635365471519,"ssf","mf.is","exp","vonmises",500,"ssfOUT_120_12_4_VULTURE","VULTURE",4,0.0833333333333333,120,"no effect"
"ssfOUT_120_12_4_VULTURE.16",0.797967459551459,0.287577236948561,1.30835768215436,"ssf","mf.is","exp","unif",5,"ssfOUT_120_12_4_VULTURE","VULTURE",4,0.0833333333333333,120,"preference"
"ssfOUT_120_12_4_VULTURE.17",0.630372727608728,0.159725317678309,1.10102013753915,"ssf","mf.is","exp","unif",15,"ssfOUT_120_12_4_VULTURE","VULTURE",4,0.0833333333333333,120,"preference"
"ssfOUT_120_12_4_VULTURE.18",0.533525126855017,0.0711888151869058,0.995861438523128,"ssf","mf.is","exp","unif",50,"ssfOUT_120_12_4_VULTURE","VULTURE",4,0.0833333333333333,120,"preference"
"ssfOUT_120_12_4_VULTURE.19",0.457292344738201,-0.00256338922018245,0.917148078696585,"ssf","mf.is","exp","unif",158,"ssfOUT_120_12_4_VULTURE","VULTURE",4,0.0833333333333333,120,"no effect"
"ssfOUT_120_12_4_VULTURE.20",0.455154812021702,-0.0035285229697376,0.913838147013141,"ssf","mf.is","exp","unif",500,"ssfOUT_120_12_4_VULTURE","VULTURE",4,0.0833333333333333,120,"no effect"
"ssfOUT_120_12_4_VULTURE.21",0.617998711788237,0.131921717251709,1.10407570632476,"ssf","mf.ss","gamma","vonmises",5,"ssfOUT_120_12_4_VULTURE","VULTURE",4,0.0833333333333333,120,"preference"
"ssfOUT_120_12_4_VULTURE.22",0.443335210112639,-0.0239565136866466,0.910626933911924,"ssf","mf.ss","gamma","vonmises",15,"ssfOUT_120_12_4_VULTURE","VULTURE",4,0.0833333333333333,120,"no effect"
"ssfOUT_120_12_4_VULTURE.23",0.331952189816493,-0.128961954629335,0.792866334262321,"ssf","mf.ss","gamma","vonmises",50,"ssfOUT_120_12_4_VULTURE","VULTURE",4,0.0833333333333333,120,"no effect"
"ssfOUT_120_12_4_VULTURE.24",0.362071369848076,-0.0962222957818032,0.820365035477955,"ssf","mf.ss","gamma","vonmises",158,"ssfOUT_120_12_4_VULTURE","VULTURE",4,0.0833333333333333,120,"no effect"
"ssfOUT_120_12_4_VULTURE.25",0.388852414912873,-0.0688912672437029,0.846596097069448,"ssf","mf.ss","gamma","vonmises",500,"ssfOUT_120_12_4_VULTURE","VULTURE",4,0.0833333333333333,120,"no effect"
"ssfOUT_120_12_4_VULTURE.26",0.160557532693526,-0.336902253107099,0.658017318494151,"ssf","mf.ss","gamma","unif",5,"ssfOUT_120_12_4_VULTURE","VULTURE",4,0.0833333333333333,120,"no effect"
"ssfOUT_120_12_4_VULTURE.27",0.525226042550797,0.057774351474726,0.992677733626869,"ssf","mf.ss","gamma","unif",15,"ssfOUT_120_12_4_VULTURE","VULTURE",4,0.0833333333333333,120,"preference"
"ssfOUT_120_12_4_VULTURE.28",0.426518999972794,-0.0341979379467044,0.887235937892292,"ssf","mf.ss","gamma","unif",50,"ssfOUT_120_12_4_VULTURE","VULTURE",4,0.0833333333333333,120,"no effect"
"ssfOUT_120_12_4_VULTURE.29",0.439938035172581,-0.0184962517415667,0.898372322086728,"ssf","mf.ss","gamma","unif",158,"ssfOUT_120_12_4_VULTURE","VULTURE",4,0.0833333333333333,120,"no effect"
"ssfOUT_120_12_4_VULTURE.30",0.441885113441737,-0.0157394037881183,0.899509630671592,"ssf","mf.ss","gamma","unif",500,"ssfOUT_120_12_4_VULTURE","VULTURE",4,0.0833333333333333,120,"no effect"
"ssfOUT_120_12_4_VULTURE.31",-0.66708296152794,-1.20495655850449,-0.129209364551385,"ssf","mf.ss","exp","vonmises",5,"ssfOUT_120_12_4_VULTURE","VULTURE",4,0.0833333333333333,120,"avoidance"
"ssfOUT_120_12_4_VULTURE.32",0.330558371919939,-0.140156616128523,0.801273359968401,"ssf","mf.ss","exp","vonmises",15,"ssfOUT_120_12_4_VULTURE","VULTURE",4,0.0833333333333333,120,"no effect"
"ssfOUT_120_12_4_VULTURE.33",0.269694298561767,-0.192001256419467,0.731389853543,"ssf","mf.ss","exp","vonmises",50,"ssfOUT_120_12_4_VULTURE","VULTURE",4,0.0833333333333333,120,"no effect"
"ssfOUT_120_12_4_VULTURE.34",0.292063692188695,-0.167451045531713,0.751578429909103,"ssf","mf.ss","exp","vonmises",158,"ssfOUT_120_12_4_VULTURE","VULTURE",4,0.0833333333333333,120,"no effect"
"ssfOUT_120_12_4_VULTURE.35",0.294653875638934,-0.164126488040304,0.753434239318172,"ssf","mf.ss","exp","vonmises",500,"ssfOUT_120_12_4_VULTURE","VULTURE",4,0.0833333333333333,120,"no effect"
"ssfOUT_120_12_4_VULTURE.36",0.58151500090648,0.0867226388345356,1.07630736297842,"ssf","mf.ss","exp","unif",5,"ssfOUT_120_12_4_VULTURE","VULTURE",4,0.0833333333333333,120,"preference"
"ssfOUT_120_12_4_VULTURE.37",0.501644311609631,0.0330728896265879,0.970215733592674,"ssf","mf.ss","exp","unif",15,"ssfOUT_120_12_4_VULTURE","VULTURE",4,0.0833333333333333,120,"preference"
"ssfOUT_120_12_4_VULTURE.38",0.4636968652528,0.0024889854705395,0.92490474503506,"ssf","mf.ss","exp","unif",50,"ssfOUT_120_12_4_VULTURE","VULTURE",4,0.0833333333333333,120,"preference"
"ssfOUT_120_12_4_VULTURE.39",0.339240856803735,-0.120419773541623,0.798901487149094,"ssf","mf.ss","exp","unif",158,"ssfOUT_120_12_4_VULTURE","VULTURE",4,0.0833333333333333,120,"no effect"
"ssfOUT_120_12_4_VULTURE.40",0.327216996496368,-0.131749111127302,0.786183104120039,"ssf","mf.ss","exp","unif",500,"ssfOUT_120_12_4_VULTURE","VULTURE",4,0.0833333333333333,120,"no effect"
"ssfOUT_120_12_4_KINGCOBRA.1",17.147361361148,-3580.24695877864,3614.54168150094,"ssf","mf.is","gamma","vonmises",5,"ssfOUT_120_12_4_KINGCOBRA","KINGCOBRA",4,0.0833333333333333,120,"no effect"
"ssfOUT_120_12_4_KINGCOBRA.2",16.2679985869101,-1887.50158191753,1920.03757909135,"ssf","mf.is","gamma","vonmises",15,"ssfOUT_120_12_4_KINGCOBRA","KINGCOBRA",4,0.0833333333333333,120,"no effect"
"ssfOUT_120_12_4_KINGCOBRA.3",15.9846866164177,-1703.29762272861,1735.26699596145,"ssf","mf.is","gamma","vonmises",50,"ssfOUT_120_12_4_KINGCOBRA","KINGCOBRA",4,0.0833333333333333,120,"no effect"
"ssfOUT_120_12_4_KINGCOBRA.4",16.0054792990785,-1763.0050865699,1795.01604516806,"ssf","mf.is","gamma","vonmises",158,"ssfOUT_120_12_4_KINGCOBRA","KINGCOBRA",4,0.0833333333333333,120,"no effect"
"ssfOUT_120_12_4_KINGCOBRA.5",15.9859043176257,-1689.40986396675,1721.381672602,"ssf","mf.is","gamma","vonmises",500,"ssfOUT_120_12_4_KINGCOBRA","KINGCOBRA",4,0.0833333333333333,120,"no effect"
"ssfOUT_120_12_4_KINGCOBRA.6",16.1817946105949,-2167.45834997048,2199.82193919167,"ssf","mf.is","gamma","unif",5,"ssfOUT_120_12_4_KINGCOBRA","KINGCOBRA",4,0.0833333333333333,120,"no effect"
"ssfOUT_120_12_4_KINGCOBRA.7",16.0554558986683,-1766.74495426351,1798.85586606085,"ssf","mf.is","gamma","unif",15,"ssfOUT_120_12_4_KINGCOBRA","KINGCOBRA",4,0.0833333333333333,120,"no effect"
"ssfOUT_120_12_4_KINGCOBRA.8",16.0005136655885,-1679.0103749062,1711.01140223738,"ssf","mf.is","gamma","unif",50,"ssfOUT_120_12_4_KINGCOBRA","KINGCOBRA",4,0.0833333333333333,120,"no effect"
"ssfOUT_120_12_4_KINGCOBRA.9",16.0138101267438,-1692.30982207653,1724.33744233001,"ssf","mf.is","gamma","unif",158,"ssfOUT_120_12_4_KINGCOBRA","KINGCOBRA",4,0.0833333333333333,120,"no effect"
"ssfOUT_120_12_4_KINGCOBRA.10",16.0038779034655,-1656.07031444466,1688.07807025159,"ssf","mf.is","gamma","unif",500,"ssfOUT_120_12_4_KINGCOBRA","KINGCOBRA",4,0.0833333333333333,120,"no effect"
"ssfOUT_120_12_4_KINGCOBRA.11",16.1418132715743,-2272.02150229871,2304.30512884186,"ssf","mf.is","exp","vonmises",5,"ssfOUT_120_12_4_KINGCOBRA","KINGCOBRA",4,0.0833333333333333,120,"no effect"
"ssfOUT_120_12_4_KINGCOBRA.12",16.0237423593511,-1790.12851550578,1822.17600022448,"ssf","mf.is","exp","vonmises",15,"ssfOUT_120_12_4_KINGCOBRA","KINGCOBRA",4,0.0833333333333333,120,"no effect"
"ssfOUT_120_12_4_KINGCOBRA.13",16.4954730876263,-2177.10627626314,2210.09722243839,"ssf","mf.is","exp","vonmises",50,"ssfOUT_120_12_4_KINGCOBRA","KINGCOBRA",4,0.0833333333333333,120,"no effect"
"ssfOUT_120_12_4_KINGCOBRA.14",15.4890646783367,-1303.27993211196,1334.25806146864,"ssf","mf.is","exp","vonmises",158,"ssfOUT_120_12_4_KINGCOBRA","KINGCOBRA",4,0.0833333333333333,120,"no effect"
"ssfOUT_120_12_4_KINGCOBRA.15",15.4909099104357,-1332.70016169626,1363.68198151713,"ssf","mf.is","exp","vonmises",500,"ssfOUT_120_12_4_KINGCOBRA","KINGCOBRA",4,0.0833333333333333,120,"no effect"
"ssfOUT_120_12_4_KINGCOBRA.16",16.8742031254237,-3545.68551632082,3579.43392257167,"ssf","mf.is","exp","unif",5,"ssfOUT_120_12_4_KINGCOBRA","KINGCOBRA",4,0.0833333333333333,120,"no effect"
"ssfOUT_120_12_4_KINGCOBRA.17",17.0481335815246,-2804.8689906563,2838.96525781935,"ssf","mf.is","exp","unif",15,"ssfOUT_120_12_4_KINGCOBRA","KINGCOBRA",4,0.0833333333333333,120,"no effect"
"ssfOUT_120_12_4_KINGCOBRA.18",16.4623170746158,-2127.9019791942,2160.82661334344,"ssf","mf.is","exp","unif",50,"ssfOUT_120_12_4_KINGCOBRA","KINGCOBRA",4,0.0833333333333333,120,"no effect"
"ssfOUT_120_12_4_KINGCOBRA.19",15.4645236927949,-1268.57087326144,1299.49992064703,"ssf","mf.is","exp","unif",158,"ssfOUT_120_12_4_KINGCOBRA","KINGCOBRA",4,0.0833333333333333,120,"no effect"
"ssfOUT_120_12_4_KINGCOBRA.20",15.4333271444592,-1305.93128222404,1336.79793651296,"ssf","mf.is","exp","unif",500,"ssfOUT_120_12_4_KINGCOBRA","KINGCOBRA",4,0.0833333333333333,120,"no effect"
"ssfOUT_120_12_4_KINGCOBRA.21",17.2212381245913,-3515.30904049831,3549.75151674749,"ssf","mf.ss","gamma","vonmises",5,"ssfOUT_120_12_4_KINGCOBRA","KINGCOBRA",4,0.0833333333333333,120,"no effect"
"ssfOUT_120_12_4_KINGCOBRA.22",16.0906460677941,-1868.65692484771,1900.8382169833,"ssf","mf.ss","gamma","vonmises",15,"ssfOUT_120_12_4_KINGCOBRA","KINGCOBRA",4,0.0833333333333333,120,"no effect"
"ssfOUT_120_12_4_KINGCOBRA.23",16.0022637567873,-1725.17382753212,1757.1783550457,"ssf","mf.ss","gamma","vonmises",50,"ssfOUT_120_12_4_KINGCOBRA","KINGCOBRA",4,0.0833333333333333,120,"no effect"
"ssfOUT_120_12_4_KINGCOBRA.24",16.0072451624129,-1754.52392513414,1786.53841545896,"ssf","mf.ss","gamma","vonmises",158,"ssfOUT_120_12_4_KINGCOBRA","KINGCOBRA",4,0.0833333333333333,120,"no effect"
"ssfOUT_120_12_4_KINGCOBRA.25",15.9867927544006,-1684.73169868152,1716.70528419032,"ssf","mf.ss","gamma","vonmises",500,"ssfOUT_120_12_4_KINGCOBRA","KINGCOBRA",4,0.0833333333333333,120,"no effect"
"ssfOUT_120_12_4_KINGCOBRA.26",16.2075018361675,-2125.83498400027,2158.24998767261,"ssf","mf.ss","gamma","unif",5,"ssfOUT_120_12_4_KINGCOBRA","KINGCOBRA",4,0.0833333333333333,120,"no effect"
"ssfOUT_120_12_4_KINGCOBRA.27",16.0563391713261,-1746.83385376997,1778.94653211262,"ssf","mf.ss","gamma","unif",15,"ssfOUT_120_12_4_KINGCOBRA","KINGCOBRA",4,0.0833333333333333,120,"no effect"
"ssfOUT_120_12_4_KINGCOBRA.28",16.0049615750229,-1668.51308884799,1700.52301199804,"ssf","mf.ss","gamma","unif",50,"ssfOUT_120_12_4_KINGCOBRA","KINGCOBRA",4,0.0833333333333333,120,"no effect"
"ssfOUT_120_12_4_KINGCOBRA.29",15.9965155604236,-1684.94915702194,1716.94218814279,"ssf","mf.ss","gamma","unif",158,"ssfOUT_120_12_4_KINGCOBRA","KINGCOBRA",4,0.0833333333333333,120,"no effect"
"ssfOUT_120_12_4_KINGCOBRA.30",15.9861655788688,-1652.52209965818,1684.49443081592,"ssf","mf.ss","gamma","unif",500,"ssfOUT_120_12_4_KINGCOBRA","KINGCOBRA",4,0.0833333333333333,120,"no effect"
"ssfOUT_120_12_4_KINGCOBRA.31",16.2838335794181,-2124.08749799821,2156.65516515704,"ssf","mf.ss","exp","vonmises",5,"ssfOUT_120_12_4_KINGCOBRA","KINGCOBRA",4,0.0833333333333333,120,"no effect"
"ssfOUT_120_12_4_KINGCOBRA.32",17.0670270672896,-2620.53243703426,2654.66649116884,"ssf","mf.ss","exp","vonmises",15,"ssfOUT_120_12_4_KINGCOBRA","KINGCOBRA",4,0.0833333333333333,120,"no effect"
"ssfOUT_120_12_4_KINGCOBRA.33",16.0375085820695,-1527.54186716522,1559.61688432936,"ssf","mf.ss","exp","vonmises",50,"ssfOUT_120_12_4_KINGCOBRA","KINGCOBRA",4,0.0833333333333333,120,"no effect"
"ssfOUT_120_12_4_KINGCOBRA.34",16.0268674008579,-1532.37460683218,1564.42834163389,"ssf","mf.ss","exp","vonmises",158,"ssfOUT_120_12_4_KINGCOBRA","KINGCOBRA",4,0.0833333333333333,120,"no effect"
"ssfOUT_120_12_4_KINGCOBRA.35",16.0173134912978,-1487.15420170481,1519.1888286874,"ssf","mf.ss","exp","vonmises",500,"ssfOUT_120_12_4_KINGCOBRA","KINGCOBRA",4,0.0833333333333333,120,"no effect"
"ssfOUT_120_12_4_KINGCOBRA.36",16.225096834647,-2213.80478666635,2246.25498033564,"ssf","mf.ss","exp","unif",5,"ssfOUT_120_12_4_KINGCOBRA","KINGCOBRA",4,0.0833333333333333,120,"no effect"
"ssfOUT_120_12_4_KINGCOBRA.37",17.0962171459558,-2486.04029008384,2520.23272437575,"ssf","mf.ss","exp","unif",15,"ssfOUT_120_12_4_KINGCOBRA","KINGCOBRA",4,0.0833333333333333,120,"no effect"
"ssfOUT_120_12_4_KINGCOBRA.38",16.0564425349676,-1532.30596744224,1564.41885251218,"ssf","mf.ss","exp","unif",50,"ssfOUT_120_12_4_KINGCOBRA","KINGCOBRA",4,0.0833333333333333,120,"no effect"
"ssfOUT_120_12_4_KINGCOBRA.39",16.020790660232,-1520.81774126695,1552.85932258742,"ssf","mf.ss","exp","unif",158,"ssfOUT_120_12_4_KINGCOBRA","KINGCOBRA",4,0.0833333333333333,120,"no effect"
"ssfOUT_120_12_4_KINGCOBRA.40",16.0107036724748,-1509.39997606423,1541.42138340918,"ssf","mf.ss","exp","unif",500,"ssfOUT_120_12_4_KINGCOBRA","KINGCOBRA",4,0.0833333333333333,120,"no effect"
"ssfOUT_120_24_1_BADGER.1",0.574630019068148,-0.504210289169144,1.65347032730544,"ssf","mf.is","gamma","vonmises",5,"ssfOUT_120_24_1_BADGER","BADGER",1,0.0416666666666667,120,"no effect"
"ssfOUT_120_24_1_BADGER.2",1.12364302765348,0.0658295560938809,2.18145649921308,"ssf","mf.is","gamma","vonmises",15,"ssfOUT_120_24_1_BADGER","BADGER",1,0.0416666666666667,120,"preference"
"ssfOUT_120_24_1_BADGER.3",1.1363990603294,0.115722818091483,2.15707530256731,"ssf","mf.is","gamma","vonmises",50,"ssfOUT_120_24_1_BADGER","BADGER",1,0.0416666666666667,120,"preference"
"ssfOUT_120_24_1_BADGER.4",0.704949123544212,-0.309749826375236,1.71964807346366,"ssf","mf.is","gamma","vonmises",158,"ssfOUT_120_24_1_BADGER","BADGER",1,0.0416666666666667,120,"no effect"
"ssfOUT_120_24_1_BADGER.5",0.96367590291399,-0.0495158088522224,1.9768676146802,"ssf","mf.is","gamma","vonmises",500,"ssfOUT_120_24_1_BADGER","BADGER",1,0.0416666666666667,120,"no effect"
"ssfOUT_120_24_1_BADGER.6",0.910774670783364,-0.173222617692095,1.99477195925882,"ssf","mf.is","gamma","unif",5,"ssfOUT_120_24_1_BADGER","BADGER",1,0.0416666666666667,120,"no effect"
"ssfOUT_120_24_1_BADGER.7",0.807237378697281,-0.226058626893734,1.8405333842883,"ssf","mf.is","gamma","unif",15,"ssfOUT_120_24_1_BADGER","BADGER",1,0.0416666666666667,120,"no effect"
"ssfOUT_120_24_1_BADGER.8",1.01057174482132,-0.00620137495278605,2.02734486459543,"ssf","mf.is","gamma","unif",50,"ssfOUT_120_24_1_BADGER","BADGER",1,0.0416666666666667,120,"no effect"
"ssfOUT_120_24_1_BADGER.9",0.962391742450491,-0.0531061943206931,1.97788967922168,"ssf","mf.is","gamma","unif",158,"ssfOUT_120_24_1_BADGER","BADGER",1,0.0416666666666667,120,"no effect"
"ssfOUT_120_24_1_BADGER.10",0.970960965697033,-0.0431860779633445,1.98510800935741,"ssf","mf.is","gamma","unif",500,"ssfOUT_120_24_1_BADGER","BADGER",1,0.0416666666666667,120,"no effect"
"ssfOUT_120_24_1_BADGER.11",-0.507051452282554,-2.06022005201881,1.04611714745371,"ssf","mf.is","exp","vonmises",5,"ssfOUT_120_24_1_BADGER","BADGER",1,0.0416666666666667,120,"no effect"
"ssfOUT_120_24_1_BADGER.12",1.8810538322373,0.842524726269271,2.91958293820533,"ssf","mf.is","exp","vonmises",15,"ssfOUT_120_24_1_BADGER","BADGER",1,0.0416666666666667,120,"preference"
"ssfOUT_120_24_1_BADGER.13",1.03306598306113,0.00459364524807793,2.06153832087418,"ssf","mf.is","exp","vonmises",50,"ssfOUT_120_24_1_BADGER","BADGER",1,0.0416666666666667,120,"preference"
"ssfOUT_120_24_1_BADGER.14",0.833470721331205,-0.18303239011307,1.84997383277548,"ssf","mf.is","exp","vonmises",158,"ssfOUT_120_24_1_BADGER","BADGER",1,0.0416666666666667,120,"no effect"
"ssfOUT_120_24_1_BADGER.15",0.95236018362735,-0.0613781425021068,1.96609850975681,"ssf","mf.is","exp","vonmises",500,"ssfOUT_120_24_1_BADGER","BADGER",1,0.0416666666666667,120,"no effect"
"ssfOUT_120_24_1_BADGER.16",1.2656447775314,0.158059903248521,2.37322965181427,"ssf","mf.is","exp","unif",5,"ssfOUT_120_24_1_BADGER","BADGER",1,0.0416666666666667,120,"preference"
"ssfOUT_120_24_1_BADGER.17",1.12361547313797,0.0840168257149112,2.16321412056102,"ssf","mf.is","exp","unif",15,"ssfOUT_120_24_1_BADGER","BADGER",1,0.0416666666666667,120,"preference"
"ssfOUT_120_24_1_BADGER.18",1.2025350747322,0.181844365388348,2.22322578407606,"ssf","mf.is","exp","unif",50,"ssfOUT_120_24_1_BADGER","BADGER",1,0.0416666666666667,120,"preference"
"ssfOUT_120_24_1_BADGER.19",0.880343539641336,-0.134500291232809,1.89518737051548,"ssf","mf.is","exp","unif",158,"ssfOUT_120_24_1_BADGER","BADGER",1,0.0416666666666667,120,"no effect"
"ssfOUT_120_24_1_BADGER.20",0.91053507791263,-0.102055635868249,1.92312579169351,"ssf","mf.is","exp","unif",500,"ssfOUT_120_24_1_BADGER","BADGER",1,0.0416666666666667,120,"no effect"
"ssfOUT_120_24_1_BADGER.21",0.762080285734273,-0.296549355813091,1.82070992728164,"ssf","mf.ss","gamma","vonmises",5,"ssfOUT_120_24_1_BADGER","BADGER",1,0.0416666666666667,120,"no effect"
"ssfOUT_120_24_1_BADGER.22",0.987336672428899,-0.0388124709697764,2.01348581582758,"ssf","mf.ss","gamma","vonmises",15,"ssfOUT_120_24_1_BADGER","BADGER",1,0.0416666666666667,120,"no effect"
"ssfOUT_120_24_1_BADGER.23",0.931085082604281,-0.084893823112287,1.94706398832085,"ssf","mf.ss","gamma","vonmises",50,"ssfOUT_120_24_1_BADGER","BADGER",1,0.0416666666666667,120,"no effect"
"ssfOUT_120_24_1_BADGER.24",0.915580139750916,-0.0964450353868135,1.92760531488865,"ssf","mf.ss","gamma","vonmises",158,"ssfOUT_120_24_1_BADGER","BADGER",1,0.0416666666666667,120,"no effect"
"ssfOUT_120_24_1_BADGER.25",0.911637010698667,-0.0999730417026068,1.92324706309994,"ssf","mf.ss","gamma","vonmises",500,"ssfOUT_120_24_1_BADGER","BADGER",1,0.0416666666666667,120,"no effect"
"ssfOUT_120_24_1_BADGER.26",0.839051087389886,-0.230511317599563,1.90861349237934,"ssf","mf.ss","gamma","unif",5,"ssfOUT_120_24_1_BADGER","BADGER",1,0.0416666666666667,120,"no effect"
"ssfOUT_120_24_1_BADGER.27",0.951639679597216,-0.075436165103803,1.97871552429824,"ssf","mf.ss","gamma","unif",15,"ssfOUT_120_24_1_BADGER","BADGER",1,0.0416666666666667,120,"no effect"
"ssfOUT_120_24_1_BADGER.28",0.995214907926243,-0.0185728942423289,2.00900271009482,"ssf","mf.ss","gamma","unif",50,"ssfOUT_120_24_1_BADGER","BADGER",1,0.0416666666666667,120,"no effect"
"ssfOUT_120_24_1_BADGER.29",0.966811626460999,-0.0455375268548283,1.97916077977683,"ssf","mf.ss","gamma","unif",158,"ssfOUT_120_24_1_BADGER","BADGER",1,0.0416666666666667,120,"no effect"
"ssfOUT_120_24_1_BADGER.30",0.944468644822232,-0.0673111504363091,1.95624844008077,"ssf","mf.ss","gamma","unif",500,"ssfOUT_120_24_1_BADGER","BADGER",1,0.0416666666666667,120,"no effect"
"ssfOUT_120_24_1_BADGER.31",0.207388015817645,-0.880998789347842,1.29577482098313,"ssf","mf.ss","exp","vonmises",5,"ssfOUT_120_24_1_BADGER","BADGER",1,0.0416666666666667,120,"no effect"
"ssfOUT_120_24_1_BADGER.32",1.27904429184666,0.259577871417917,2.2985107122754,"ssf","mf.ss","exp","vonmises",15,"ssfOUT_120_24_1_BADGER","BADGER",1,0.0416666666666667,120,"preference"
"ssfOUT_120_24_1_BADGER.33",0.902869170111403,-0.114109111828385,1.91984745205119,"ssf","mf.ss","exp","vonmises",50,"ssfOUT_120_24_1_BADGER","BADGER",1,0.0416666666666667,120,"no effect"
"ssfOUT_120_24_1_BADGER.34",0.854885329661645,-0.158496826968343,1.86826748629163,"ssf","mf.ss","exp","vonmises",158,"ssfOUT_120_24_1_BADGER","BADGER",1,0.0416666666666667,120,"no effect"
"ssfOUT_120_24_1_BADGER.35",0.853897241677906,-0.158756542044756,1.86655102540057,"ssf","mf.ss","exp","vonmises",500,"ssfOUT_120_24_1_BADGER","BADGER",1,0.0416666666666667,120,"no effect"
"ssfOUT_120_24_1_BADGER.36",0.620033521131821,-0.451868083768179,1.69193512603182,"ssf","mf.ss","exp","unif",5,"ssfOUT_120_24_1_BADGER","BADGER",1,0.0416666666666667,120,"no effect"
"ssfOUT_120_24_1_BADGER.37",1.02259634579135,-0.00513812247116796,2.05033081405387,"ssf","mf.ss","exp","unif",15,"ssfOUT_120_24_1_BADGER","BADGER",1,0.0416666666666667,120,"no effect"
"ssfOUT_120_24_1_BADGER.38",0.925535214121924,-0.0924469577616922,1.94351738600554,"ssf","mf.ss","exp","unif",50,"ssfOUT_120_24_1_BADGER","BADGER",1,0.0416666666666667,120,"no effect"
"ssfOUT_120_24_1_BADGER.39",0.881834237343548,-0.131517116991102,1.8951855916782,"ssf","mf.ss","exp","unif",158,"ssfOUT_120_24_1_BADGER","BADGER",1,0.0416666666666667,120,"no effect"
"ssfOUT_120_24_1_BADGER.40",0.887169379280995,-0.125090938505392,1.89942969706738,"ssf","mf.ss","exp","unif",500,"ssfOUT_120_24_1_BADGER","BADGER",1,0.0416666666666667,120,"no effect"
"ssfOUT_120_24_1_VULTURE.1",0.30571240927645,-0.886751090095012,1.49817590864791,"ssf","mf.is","gamma","vonmises",5,"ssfOUT_120_24_1_VULTURE","VULTURE",1,0.0416666666666667,120,"no effect"
"ssfOUT_120_24_1_VULTURE.2",1.46718897768265,0.395008385233244,2.53936957013206,"ssf","mf.is","gamma","vonmises",15,"ssfOUT_120_24_1_VULTURE","VULTURE",1,0.0416666666666667,120,"preference"
"ssfOUT_120_24_1_VULTURE.3",0.865767563765475,-0.159391937971559,1.89092706550251,"ssf","mf.is","gamma","vonmises",50,"ssfOUT_120_24_1_VULTURE","VULTURE",1,0.0416666666666667,120,"no effect"
"ssfOUT_120_24_1_VULTURE.4",1.47863391269934,0.464163747094279,2.49310407830441,"ssf","mf.is","gamma","vonmises",158,"ssfOUT_120_24_1_VULTURE","VULTURE",1,0.0416666666666667,120,"preference"
"ssfOUT_120_24_1_VULTURE.5",1.3205011444238,0.30962987810147,2.33137241074612,"ssf","mf.is","gamma","vonmises",500,"ssfOUT_120_24_1_VULTURE","VULTURE",1,0.0416666666666667,120,"preference"
"ssfOUT_120_24_1_VULTURE.6",1.44942721983809,0.387477847925516,2.51137659175067,"ssf","mf.is","gamma","unif",5,"ssfOUT_120_24_1_VULTURE","VULTURE",1,0.0416666666666667,120,"preference"
"ssfOUT_120_24_1_VULTURE.7",1.52477929167427,0.504422845953413,2.54513573739513,"ssf","mf.is","gamma","unif",15,"ssfOUT_120_24_1_VULTURE","VULTURE",1,0.0416666666666667,120,"preference"
"ssfOUT_120_24_1_VULTURE.8",1.32479364643602,0.309871705892296,2.33971558697974,"ssf","mf.is","gamma","unif",50,"ssfOUT_120_24_1_VULTURE","VULTURE",1,0.0416666666666667,120,"preference"
"ssfOUT_120_24_1_VULTURE.9",1.39513845322875,0.384282233615967,2.40599467284152,"ssf","mf.is","gamma","unif",158,"ssfOUT_120_24_1_VULTURE","VULTURE",1,0.0416666666666667,120,"preference"
"ssfOUT_120_24_1_VULTURE.10",1.442184052213,0.432245432516617,2.45212267190939,"ssf","mf.is","gamma","unif",500,"ssfOUT_120_24_1_VULTURE","VULTURE",1,0.0416666666666667,120,"preference"
"ssfOUT_120_24_1_VULTURE.11",-0.0241843645911022,-1.75371251804291,1.70534378886071,"ssf","mf.is","exp","vonmises",5,"ssfOUT_120_24_1_VULTURE","VULTURE",1,0.0416666666666667,120,"no effect"
"ssfOUT_120_24_1_VULTURE.12",0.83147344760698,-0.224112713094639,1.8870596083086,"ssf","mf.is","exp","vonmises",15,"ssfOUT_120_24_1_VULTURE","VULTURE",1,0.0416666666666667,120,"no effect"
"ssfOUT_120_24_1_VULTURE.13",1.60626266588621,0.568968377178657,2.64355695459376,"ssf","mf.is","exp","vonmises",50,"ssfOUT_120_24_1_VULTURE","VULTURE",1,0.0416666666666667,120,"preference"
"ssfOUT_120_24_1_VULTURE.14",1.43805284853536,0.419231954360822,2.4568737427099,"ssf","mf.is","exp","vonmises",158,"ssfOUT_120_24_1_VULTURE","VULTURE",1,0.0416666666666667,120,"preference"
"ssfOUT_120_24_1_VULTURE.15",1.36373786374886,0.352493649058006,2.37498207843972,"ssf","mf.is","exp","vonmises",500,"ssfOUT_120_24_1_VULTURE","VULTURE",1,0.0416666666666667,120,"preference"
"ssfOUT_120_24_1_VULTURE.16",0.444115569603367,-0.713484582086126,1.60171572129286,"ssf","mf.is","exp","unif",5,"ssfOUT_120_24_1_VULTURE","VULTURE",1,0.0416666666666667,120,"no effect"
"ssfOUT_120_24_1_VULTURE.17",1.14188039084329,0.114267291410586,2.16949349027599,"ssf","mf.is","exp","unif",15,"ssfOUT_120_24_1_VULTURE","VULTURE",1,0.0416666666666667,120,"preference"
"ssfOUT_120_24_1_VULTURE.18",1.59887396721264,0.583656773995896,2.61409116042938,"ssf","mf.is","exp","unif",50,"ssfOUT_120_24_1_VULTURE","VULTURE",1,0.0416666666666667,120,"preference"
"ssfOUT_120_24_1_VULTURE.19",1.37657535122587,0.365867144458137,2.38728355799361,"ssf","mf.is","exp","unif",158,"ssfOUT_120_24_1_VULTURE","VULTURE",1,0.0416666666666667,120,"preference"
"ssfOUT_120_24_1_VULTURE.20",1.47375837566445,0.463648247092417,2.48386850423649,"ssf","mf.is","exp","unif",500,"ssfOUT_120_24_1_VULTURE","VULTURE",1,0.0416666666666667,120,"preference"
"ssfOUT_120_24_1_VULTURE.21",0.600261690486882,-0.459904506388811,1.66042788736257,"ssf","mf.ss","gamma","vonmises",5,"ssfOUT_120_24_1_VULTURE","VULTURE",1,0.0416666666666667,120,"no effect"
"ssfOUT_120_24_1_VULTURE.22",1.20420299900691,0.182678990683075,2.22572700733075,"ssf","mf.ss","gamma","vonmises",15,"ssfOUT_120_24_1_VULTURE","VULTURE",1,0.0416666666666667,120,"preference"
"ssfOUT_120_24_1_VULTURE.23",0.91550351133578,-0.0989784013515841,1.92998542402314,"ssf","mf.ss","gamma","vonmises",50,"ssfOUT_120_24_1_VULTURE","VULTURE",1,0.0416666666666667,120,"no effect"
"ssfOUT_120_24_1_VULTURE.24",1.14316667430853,0.133678860942214,2.15265448767484,"ssf","mf.ss","gamma","vonmises",158,"ssfOUT_120_24_1_VULTURE","VULTURE",1,0.0416666666666667,120,"preference"
"ssfOUT_120_24_1_VULTURE.25",1.12896827565683,0.119672882221222,2.13826366909245,"ssf","mf.ss","gamma","vonmises",500,"ssfOUT_120_24_1_VULTURE","VULTURE",1,0.0416666666666667,120,"preference"
"ssfOUT_120_24_1_VULTURE.26",1.34769596219789,0.303569797405959,2.39182212698982,"ssf","mf.ss","gamma","unif",5,"ssfOUT_120_24_1_VULTURE","VULTURE",1,0.0416666666666667,120,"preference"
"ssfOUT_120_24_1_VULTURE.27",1.52524093467162,0.509532942578019,2.54094892676522,"ssf","mf.ss","gamma","unif",15,"ssfOUT_120_24_1_VULTURE","VULTURE",1,0.0416666666666667,120,"preference"
"ssfOUT_120_24_1_VULTURE.28",1.27893965474533,0.26658590971614,2.29129339977451,"ssf","mf.ss","gamma","unif",50,"ssfOUT_120_24_1_VULTURE","VULTURE",1,0.0416666666666667,120,"preference"
"ssfOUT_120_24_1_VULTURE.29",1.28222351247164,0.272843409342989,2.2916036156003,"ssf","mf.ss","gamma","unif",158,"ssfOUT_120_24_1_VULTURE","VULTURE",1,0.0416666666666667,120,"preference"
"ssfOUT_120_24_1_VULTURE.30",1.33785870295984,0.329092784428974,2.3466246214907,"ssf","mf.ss","gamma","unif",500,"ssfOUT_120_24_1_VULTURE","VULTURE",1,0.0416666666666667,120,"preference"
"ssfOUT_120_24_1_VULTURE.31",0.487572113995298,-0.578907816968089,1.55405204495869,"ssf","mf.ss","exp","vonmises",5,"ssfOUT_120_24_1_VULTURE","VULTURE",1,0.0416666666666667,120,"no effect"
"ssfOUT_120_24_1_VULTURE.32",1.36070094934141,0.342156195995037,2.37924570268779,"ssf","mf.ss","exp","vonmises",15,"ssfOUT_120_24_1_VULTURE","VULTURE",1,0.0416666666666667,120,"preference"
"ssfOUT_120_24_1_VULTURE.33",1.19458296489126,0.18102821515687,2.20813771462564,"ssf","mf.ss","exp","vonmises",50,"ssfOUT_120_24_1_VULTURE","VULTURE",1,0.0416666666666667,120,"preference"
"ssfOUT_120_24_1_VULTURE.34",1.19172280921497,0.18012226902983,2.20332334940011,"ssf","mf.ss","exp","vonmises",158,"ssfOUT_120_24_1_VULTURE","VULTURE",1,0.0416666666666667,120,"preference"
"ssfOUT_120_24_1_VULTURE.35",1.17830634819359,0.168096033012405,2.18851666337478,"ssf","mf.ss","exp","vonmises",500,"ssfOUT_120_24_1_VULTURE","VULTURE",1,0.0416666666666667,120,"preference"
"ssfOUT_120_24_1_VULTURE.36",0.807523706525885,-0.26817670900219,1.88322412205396,"ssf","mf.ss","exp","unif",5,"ssfOUT_120_24_1_VULTURE","VULTURE",1,0.0416666666666667,120,"no effect"
"ssfOUT_120_24_1_VULTURE.37",1.20782267029503,0.188629589628602,2.22701575096146,"ssf","mf.ss","exp","unif",15,"ssfOUT_120_24_1_VULTURE","VULTURE",1,0.0416666666666667,120,"preference"
"ssfOUT_120_24_1_VULTURE.38",1.31938879002367,0.30558974155622,2.33318783849112,"ssf","mf.ss","exp","unif",50,"ssfOUT_120_24_1_VULTURE","VULTURE",1,0.0416666666666667,120,"preference"
"ssfOUT_120_24_1_VULTURE.39",1.23445888341698,0.223927919759355,2.2449898470746,"ssf","mf.ss","exp","unif",158,"ssfOUT_120_24_1_VULTURE","VULTURE",1,0.0416666666666667,120,"preference"
"ssfOUT_120_24_1_VULTURE.40",1.28944605378487,0.278905337979832,2.2999867695899,"ssf","mf.ss","exp","unif",500,"ssfOUT_120_24_1_VULTURE","VULTURE",1,0.0416666666666667,120,"preference"
"ssfOUT_120_24_1_KINGCOBRA.1",-0.404604657954795,-1.57326004608505,0.764050730175464,"ssf","mf.is","gamma","vonmises",5,"ssfOUT_120_24_1_KINGCOBRA","KINGCOBRA",1,0.0416666666666667,120,"no effect"
"ssfOUT_120_24_1_KINGCOBRA.2",0.69709931185545,-0.353050499671374,1.74724912338227,"ssf","mf.is","gamma","vonmises",15,"ssfOUT_120_24_1_KINGCOBRA","KINGCOBRA",1,0.0416666666666667,120,"no effect"
"ssfOUT_120_24_1_KINGCOBRA.3",0.918376596697679,-0.104853602805757,1.94160679620112,"ssf","mf.is","gamma","vonmises",50,"ssfOUT_120_24_1_KINGCOBRA","KINGCOBRA",1,0.0416666666666667,120,"no effect"
"ssfOUT_120_24_1_KINGCOBRA.4",0.596920791265947,-0.41999060183567,1.61383218436756,"ssf","mf.is","gamma","vonmises",158,"ssfOUT_120_24_1_KINGCOBRA","KINGCOBRA",1,0.0416666666666667,120,"no effect"
"ssfOUT_120_24_1_KINGCOBRA.5",0.79334431605397,-0.219043757954142,1.80573239006208,"ssf","mf.is","gamma","vonmises",500,"ssfOUT_120_24_1_KINGCOBRA","KINGCOBRA",1,0.0416666666666667,120,"no effect"
"ssfOUT_120_24_1_KINGCOBRA.6",1.0706578656315,0.0307099926546257,2.11060573860838,"ssf","mf.is","gamma","unif",5,"ssfOUT_120_24_1_KINGCOBRA","KINGCOBRA",1,0.0416666666666667,120,"preference"
"ssfOUT_120_24_1_KINGCOBRA.7",0.680173321071123,-0.35629554281717,1.71664218495942,"ssf","mf.is","gamma","unif",15,"ssfOUT_120_24_1_KINGCOBRA","KINGCOBRA",1,0.0416666666666667,120,"no effect"
"ssfOUT_120_24_1_KINGCOBRA.8",0.825977694855732,-0.191923317764537,1.843878707476,"ssf","mf.is","gamma","unif",50,"ssfOUT_120_24_1_KINGCOBRA","KINGCOBRA",1,0.0416666666666667,120,"no effect"
"ssfOUT_120_24_1_KINGCOBRA.9",0.740092725882648,-0.273635897009786,1.75382134877508,"ssf","mf.is","gamma","unif",158,"ssfOUT_120_24_1_KINGCOBRA","KINGCOBRA",1,0.0416666666666667,120,"no effect"
"ssfOUT_120_24_1_KINGCOBRA.10",0.798413576550352,-0.213788712325747,1.81061586542645,"ssf","mf.is","gamma","unif",500,"ssfOUT_120_24_1_KINGCOBRA","KINGCOBRA",1,0.0416666666666667,120,"no effect"
"ssfOUT_120_24_1_KINGCOBRA.11",0.225179062294468,-0.963150910803287,1.41350903539222,"ssf","mf.is","exp","vonmises",5,"ssfOUT_120_24_1_KINGCOBRA","KINGCOBRA",1,0.0416666666666667,120,"no effect"
"ssfOUT_120_24_1_KINGCOBRA.12",0.552841273461272,-0.522490585694325,1.62817313261687,"ssf","mf.is","exp","vonmises",15,"ssfOUT_120_24_1_KINGCOBRA","KINGCOBRA",1,0.0416666666666667,120,"no effect"
"ssfOUT_120_24_1_KINGCOBRA.13",0.690219716496076,-0.338160789707133,1.71860022269929,"ssf","mf.is","exp","vonmises",50,"ssfOUT_120_24_1_KINGCOBRA","KINGCOBRA",1,0.0416666666666667,120,"no effect"
"ssfOUT_120_24_1_KINGCOBRA.14",0.711106449951956,-0.303658554757512,1.72587145466142,"ssf","mf.is","exp","vonmises",158,"ssfOUT_120_24_1_KINGCOBRA","KINGCOBRA",1,0.0416666666666667,120,"no effect"
"ssfOUT_120_24_1_KINGCOBRA.15",0.765853941590439,-0.246910505315789,1.77861838849667,"ssf","mf.is","exp","vonmises",500,"ssfOUT_120_24_1_KINGCOBRA","KINGCOBRA",1,0.0416666666666667,120,"no effect"
"ssfOUT_120_24_1_KINGCOBRA.16",0.343389065065872,-0.835478480334809,1.52225661046655,"ssf","mf.is","exp","unif",5,"ssfOUT_120_24_1_KINGCOBRA","KINGCOBRA",1,0.0416666666666667,120,"no effect"
"ssfOUT_120_24_1_KINGCOBRA.17",1.0687182533689,0.0350386600094841,2.10239784672831,"ssf","mf.is","exp","unif",15,"ssfOUT_120_24_1_KINGCOBRA","KINGCOBRA",1,0.0416666666666667,120,"preference"
"ssfOUT_120_24_1_KINGCOBRA.18",0.93266745928876,-0.0856010218406885,1.95093594041821,"ssf","mf.is","exp","unif",50,"ssfOUT_120_24_1_KINGCOBRA","KINGCOBRA",1,0.0416666666666667,120,"no effect"
"ssfOUT_120_24_1_KINGCOBRA.19",0.642399183474269,-0.372632523537944,1.65743089048648,"ssf","mf.is","exp","unif",158,"ssfOUT_120_24_1_KINGCOBRA","KINGCOBRA",1,0.0416666666666667,120,"no effect"
"ssfOUT_120_24_1_KINGCOBRA.20",0.771987380702529,-0.240830183006157,1.78480494441122,"ssf","mf.is","exp","unif",500,"ssfOUT_120_24_1_KINGCOBRA","KINGCOBRA",1,0.0416666666666667,120,"no effect"
"ssfOUT_120_24_1_KINGCOBRA.21",0.0254328757382298,-1.07392985009571,1.12479560157217,"ssf","mf.ss","gamma","vonmises",5,"ssfOUT_120_24_1_KINGCOBRA","KINGCOBRA",1,0.0416666666666667,120,"no effect"
"ssfOUT_120_24_1_KINGCOBRA.22",0.628866207276994,-0.394947400221933,1.65267981477592,"ssf","mf.ss","gamma","vonmises",15,"ssfOUT_120_24_1_KINGCOBRA","KINGCOBRA",1,0.0416666666666667,120,"no effect"
"ssfOUT_120_24_1_KINGCOBRA.23",0.638730375192496,-0.375666403721763,1.65312715410675,"ssf","mf.ss","gamma","vonmises",50,"ssfOUT_120_24_1_KINGCOBRA","KINGCOBRA",1,0.0416666666666667,120,"no effect"
"ssfOUT_120_24_1_KINGCOBRA.24",0.422037493569871,-0.589234539175883,1.43330952631562,"ssf","mf.ss","gamma","vonmises",158,"ssfOUT_120_24_1_KINGCOBRA","KINGCOBRA",1,0.0416666666666667,120,"no effect"
"ssfOUT_120_24_1_KINGCOBRA.25",0.62114281357261,-0.389934264359196,1.63221989150442,"ssf","mf.ss","gamma","vonmises",500,"ssfOUT_120_24_1_KINGCOBRA","KINGCOBRA",1,0.0416666666666667,120,"no effect"
"ssfOUT_120_24_1_KINGCOBRA.26",1.29059208525836,0.258090809447194,2.32309336106953,"ssf","mf.ss","gamma","unif",5,"ssfOUT_120_24_1_KINGCOBRA","KINGCOBRA",1,0.0416666666666667,120,"preference"
"ssfOUT_120_24_1_KINGCOBRA.27",0.683193825350794,-0.342545527663227,1.70893317836482,"ssf","mf.ss","gamma","unif",15,"ssfOUT_120_24_1_KINGCOBRA","KINGCOBRA",1,0.0416666666666667,120,"no effect"
"ssfOUT_120_24_1_KINGCOBRA.28",0.777742444080354,-0.23706423974795,1.79254912790866,"ssf","mf.ss","gamma","unif",50,"ssfOUT_120_24_1_KINGCOBRA","KINGCOBRA",1,0.0416666666666667,120,"no effect"
"ssfOUT_120_24_1_KINGCOBRA.29",0.653460283772724,-0.357630826180859,1.66455139372631,"ssf","mf.ss","gamma","unif",158,"ssfOUT_120_24_1_KINGCOBRA","KINGCOBRA",1,0.0416666666666667,120,"no effect"
"ssfOUT_120_24_1_KINGCOBRA.30",0.723427093232595,-0.286326324671723,1.73318051113691,"ssf","mf.ss","gamma","unif",500,"ssfOUT_120_24_1_KINGCOBRA","KINGCOBRA",1,0.0416666666666667,120,"no effect"
"ssfOUT_120_24_1_KINGCOBRA.31",0.200347756071368,-0.883892659484021,1.28458817162676,"ssf","mf.ss","exp","vonmises",5,"ssfOUT_120_24_1_KINGCOBRA","KINGCOBRA",1,0.0416666666666667,120,"no effect"
"ssfOUT_120_24_1_KINGCOBRA.32",0.410484226670008,-0.617741023126518,1.43870947646653,"ssf","mf.ss","exp","vonmises",15,"ssfOUT_120_24_1_KINGCOBRA","KINGCOBRA",1,0.0416666666666667,120,"no effect"
"ssfOUT_120_24_1_KINGCOBRA.33",0.486380695173073,-0.527747776780102,1.50050916712625,"ssf","mf.ss","exp","vonmises",50,"ssfOUT_120_24_1_KINGCOBRA","KINGCOBRA",1,0.0416666666666667,120,"no effect"
"ssfOUT_120_24_1_KINGCOBRA.34",0.589842416806454,-0.422080401241783,1.60176523485469,"ssf","mf.ss","exp","vonmises",158,"ssfOUT_120_24_1_KINGCOBRA","KINGCOBRA",1,0.0416666666666667,120,"no effect"
"ssfOUT_120_24_1_KINGCOBRA.35",0.561277741179502,-0.450917040976526,1.57347252333553,"ssf","mf.ss","exp","vonmises",500,"ssfOUT_120_24_1_KINGCOBRA","KINGCOBRA",1,0.0416666666666667,120,"no effect"
"ssfOUT_120_24_1_KINGCOBRA.36",0.396322895062267,-0.698049583544256,1.49069537366879,"ssf","mf.ss","exp","unif",5,"ssfOUT_120_24_1_KINGCOBRA","KINGCOBRA",1,0.0416666666666667,120,"no effect"
"ssfOUT_120_24_1_KINGCOBRA.37",0.883863079163834,-0.139030477150893,1.90675663547856,"ssf","mf.ss","exp","unif",15,"ssfOUT_120_24_1_KINGCOBRA","KINGCOBRA",1,0.0416666666666667,120,"no effect"
"ssfOUT_120_24_1_KINGCOBRA.38",0.593106565840001,-0.422065808524894,1.6082789402049,"ssf","mf.ss","exp","unif",50,"ssfOUT_120_24_1_KINGCOBRA","KINGCOBRA",1,0.0416666666666667,120,"no effect"
"ssfOUT_120_24_1_KINGCOBRA.39",0.567525847948594,-0.444075726264728,1.57912742216192,"ssf","mf.ss","exp","unif",158,"ssfOUT_120_24_1_KINGCOBRA","KINGCOBRA",1,0.0416666666666667,120,"no effect"
"ssfOUT_120_24_1_KINGCOBRA.40",0.590764872715132,-0.41946905561372,1.60099880104398,"ssf","mf.ss","exp","unif",500,"ssfOUT_120_24_1_KINGCOBRA","KINGCOBRA",1,0.0416666666666667,120,"no effect"
"ssfOUT_120_24_2_BADGER.1",-0.0563109257156546,-0.6847960609988,0.572174209567491,"ssf","mf.is","gamma","vonmises",5,"ssfOUT_120_24_2_BADGER","BADGER",2,0.0416666666666667,120,"no effect"
"ssfOUT_120_24_2_BADGER.2",0.112856904213925,-0.436251129502364,0.661964937930214,"ssf","mf.is","gamma","vonmises",15,"ssfOUT_120_24_2_BADGER","BADGER",2,0.0416666666666667,120,"no effect"
"ssfOUT_120_24_2_BADGER.3",-0.0356644907181835,-0.570495650768611,0.499166669332244,"ssf","mf.is","gamma","vonmises",50,"ssfOUT_120_24_2_BADGER","BADGER",2,0.0416666666666667,120,"no effect"
"ssfOUT_120_24_2_BADGER.4",0.156875691158357,-0.370142328530023,0.683893710846738,"ssf","mf.is","gamma","vonmises",158,"ssfOUT_120_24_2_BADGER","BADGER",2,0.0416666666666667,120,"no effect"
"ssfOUT_120_24_2_BADGER.5",0.0969018715192457,-0.425434329508691,0.619238072547183,"ssf","mf.is","gamma","vonmises",500,"ssfOUT_120_24_2_BADGER","BADGER",2,0.0416666666666667,120,"no effect"
"ssfOUT_120_24_2_BADGER.6",0.0882983750882855,-0.487310940986889,0.66390769116346,"ssf","mf.is","gamma","unif",5,"ssfOUT_120_24_2_BADGER","BADGER",2,0.0416666666666667,120,"no effect"
"ssfOUT_120_24_2_BADGER.7",-0.0426167736172206,-0.587226438726696,0.501992891492255,"ssf","mf.is","gamma","unif",15,"ssfOUT_120_24_2_BADGER","BADGER",2,0.0416666666666667,120,"no effect"
"ssfOUT_120_24_2_BADGER.8",0.115714653176054,-0.411775508702937,0.643204815055045,"ssf","mf.is","gamma","unif",50,"ssfOUT_120_24_2_BADGER","BADGER",2,0.0416666666666667,120,"no effect"
"ssfOUT_120_24_2_BADGER.9",0.137936093694173,-0.38539018679375,0.661262374182096,"ssf","mf.is","gamma","unif",158,"ssfOUT_120_24_2_BADGER","BADGER",2,0.0416666666666667,120,"no effect"
"ssfOUT_120_24_2_BADGER.10",0.128159874525009,-0.39342979000777,0.649749539057788,"ssf","mf.is","gamma","unif",500,"ssfOUT_120_24_2_BADGER","BADGER",2,0.0416666666666667,120,"no effect"
"ssfOUT_120_24_2_BADGER.11",-0.0523309090964127,-0.682274918277027,0.577613100084202,"ssf","mf.is","exp","vonmises",5,"ssfOUT_120_24_2_BADGER","BADGER",2,0.0416666666666667,120,"no effect"
"ssfOUT_120_24_2_BADGER.12",-0.191063677399046,-0.753901089109595,0.371773734311503,"ssf","mf.is","exp","vonmises",15,"ssfOUT_120_24_2_BADGER","BADGER",2,0.0416666666666667,120,"no effect"
"ssfOUT_120_24_2_BADGER.13",0.0378858169003207,-0.493156058756795,0.568927692557436,"ssf","mf.is","exp","vonmises",50,"ssfOUT_120_24_2_BADGER","BADGER",2,0.0416666666666667,120,"no effect"
"ssfOUT_120_24_2_BADGER.14",0.0672407525627555,-0.457777684641711,0.592259189767222,"ssf","mf.is","exp","vonmises",158,"ssfOUT_120_24_2_BADGER","BADGER",2,0.0416666666666667,120,"no effect"
"ssfOUT_120_24_2_BADGER.15",0.0880213508881754,-0.434400045814423,0.610442747590773,"ssf","mf.is","exp","vonmises",500,"ssfOUT_120_24_2_BADGER","BADGER",2,0.0416666666666667,120,"no effect"
"ssfOUT_120_24_2_BADGER.16",0.0888037410577001,-0.499900731611405,0.677508213726805,"ssf","mf.is","exp","unif",5,"ssfOUT_120_24_2_BADGER","BADGER",2,0.0416666666666667,120,"no effect"
"ssfOUT_120_24_2_BADGER.17",-0.0441530832205896,-0.598707707938635,0.510401541497455,"ssf","mf.is","exp","unif",15,"ssfOUT_120_24_2_BADGER","BADGER",2,0.0416666666666667,120,"no effect"
"ssfOUT_120_24_2_BADGER.18",0.0884776953935013,-0.441500116891549,0.618455507678552,"ssf","mf.is","exp","unif",50,"ssfOUT_120_24_2_BADGER","BADGER",2,0.0416666666666667,120,"no effect"
"ssfOUT_120_24_2_BADGER.19",0.0417509158103177,-0.482280029463746,0.565781861084381,"ssf","mf.is","exp","unif",158,"ssfOUT_120_24_2_BADGER","BADGER",2,0.0416666666666667,120,"no effect"
"ssfOUT_120_24_2_BADGER.20",0.19758008820788,-0.324401212045513,0.719561388461272,"ssf","mf.is","exp","unif",500,"ssfOUT_120_24_2_BADGER","BADGER",2,0.0416666666666667,120,"no effect"
"ssfOUT_120_24_2_BADGER.21",-0.370188891218911,-0.961490662619743,0.221112880181922,"ssf","mf.ss","gamma","vonmises",5,"ssfOUT_120_24_2_BADGER","BADGER",2,0.0416666666666667,120,"no effect"
"ssfOUT_120_24_2_BADGER.22",0.0226180260032098,-0.517124595256024,0.562360647262444,"ssf","mf.ss","gamma","vonmises",15,"ssfOUT_120_24_2_BADGER","BADGER",2,0.0416666666666667,120,"no effect"
"ssfOUT_120_24_2_BADGER.23",-0.172536648118079,-0.697798551382464,0.352725255146305,"ssf","mf.ss","gamma","vonmises",50,"ssfOUT_120_24_2_BADGER","BADGER",2,0.0416666666666667,120,"no effect"
"ssfOUT_120_24_2_BADGER.24",0.0659371624596606,-0.455283060292817,0.587157385212138,"ssf","mf.ss","gamma","vonmises",158,"ssfOUT_120_24_2_BADGER","BADGER",2,0.0416666666666667,120,"no effect"
"ssfOUT_120_24_2_BADGER.25",0.0543321640508278,-0.465239756203767,0.573904084305422,"ssf","mf.ss","gamma","vonmises",500,"ssfOUT_120_24_2_BADGER","BADGER",2,0.0416666666666667,120,"no effect"
"ssfOUT_120_24_2_BADGER.26",0.00874110027117704,-0.558037302149867,0.575519502692221,"ssf","mf.ss","gamma","unif",5,"ssfOUT_120_24_2_BADGER","BADGER",2,0.0416666666666667,120,"no effect"
"ssfOUT_120_24_2_BADGER.27",-0.0745004395044624,-0.613656152557346,0.464655273548422,"ssf","mf.ss","gamma","unif",15,"ssfOUT_120_24_2_BADGER","BADGER",2,0.0416666666666667,120,"no effect"
"ssfOUT_120_24_2_BADGER.28",0.108807978664753,-0.415135821414887,0.632751778744394,"ssf","mf.ss","gamma","unif",50,"ssfOUT_120_24_2_BADGER","BADGER",2,0.0416666666666667,120,"no effect"
"ssfOUT_120_24_2_BADGER.29",0.103150610260692,-0.41784744861509,0.624148669136475,"ssf","mf.ss","gamma","unif",158,"ssfOUT_120_24_2_BADGER","BADGER",2,0.0416666666666667,120,"no effect"
"ssfOUT_120_24_2_BADGER.30",0.119353744941244,-0.400452083953763,0.639159573836252,"ssf","mf.ss","gamma","unif",500,"ssfOUT_120_24_2_BADGER","BADGER",2,0.0416666666666667,120,"no effect"
"ssfOUT_120_24_2_BADGER.31",-0.1251514258225,-0.700429953618896,0.450127101973895,"ssf","mf.ss","exp","vonmises",5,"ssfOUT_120_24_2_BADGER","BADGER",2,0.0416666666666667,120,"no effect"
"ssfOUT_120_24_2_BADGER.32",-0.173394073522318,-0.71633450883261,0.369546361787973,"ssf","mf.ss","exp","vonmises",15,"ssfOUT_120_24_2_BADGER","BADGER",2,0.0416666666666667,120,"no effect"
"ssfOUT_120_24_2_BADGER.33",0.0698082035087101,-0.460127059027456,0.599743466044876,"ssf","mf.ss","exp","vonmises",50,"ssfOUT_120_24_2_BADGER","BADGER",2,0.0416666666666667,120,"no effect"
"ssfOUT_120_24_2_BADGER.34",0.118770118897922,-0.405740158603323,0.643280396399167,"ssf","mf.ss","exp","vonmises",158,"ssfOUT_120_24_2_BADGER","BADGER",2,0.0416666666666667,120,"no effect"
"ssfOUT_120_24_2_BADGER.35",0.038055850406215,-0.486062810571758,0.562174511384188,"ssf","mf.ss","exp","vonmises",500,"ssfOUT_120_24_2_BADGER","BADGER",2,0.0416666666666667,120,"no effect"
"ssfOUT_120_24_2_BADGER.36",0.103684265843978,-0.460639110371934,0.66800764205989,"ssf","mf.ss","exp","unif",5,"ssfOUT_120_24_2_BADGER","BADGER",2,0.0416666666666667,120,"no effect"
"ssfOUT_120_24_2_BADGER.37",-0.0907817417299775,-0.631893743574977,0.450330260115022,"ssf","mf.ss","exp","unif",15,"ssfOUT_120_24_2_BADGER","BADGER",2,0.0416666666666667,120,"no effect"
"ssfOUT_120_24_2_BADGER.38",0.0677283217307576,-0.463857238649289,0.599313882110804,"ssf","mf.ss","exp","unif",50,"ssfOUT_120_24_2_BADGER","BADGER",2,0.0416666666666667,120,"no effect"
"ssfOUT_120_24_2_BADGER.39",0.0182636699841651,-0.507308117172491,0.543835457140822,"ssf","mf.ss","exp","unif",158,"ssfOUT_120_24_2_BADGER","BADGER",2,0.0416666666666667,120,"no effect"
"ssfOUT_120_24_2_BADGER.40",0.106861008958088,-0.415995571000018,0.629717588916193,"ssf","mf.ss","exp","unif",500,"ssfOUT_120_24_2_BADGER","BADGER",2,0.0416666666666667,120,"no effect"
"ssfOUT_120_24_2_VULTURE.1",0.706391713222406,-0.0933672574232489,1.50615068386806,"ssf","mf.is","gamma","vonmises",5,"ssfOUT_120_24_2_VULTURE","VULTURE",2,0.0416666666666667,120,"no effect"
"ssfOUT_120_24_2_VULTURE.2",0.665441794819799,-0.0890176326477768,1.41990122228737,"ssf","mf.is","gamma","vonmises",15,"ssfOUT_120_24_2_VULTURE","VULTURE",2,0.0416666666666667,120,"no effect"
"ssfOUT_120_24_2_VULTURE.3",0.781169347682185,0.0476959314643064,1.51464276390006,"ssf","mf.is","gamma","vonmises",50,"ssfOUT_120_24_2_VULTURE","VULTURE",2,0.0416666666666667,120,"preference"
"ssfOUT_120_24_2_VULTURE.4",0.890314477036768,0.164415556285502,1.61621339778803,"ssf","mf.is","gamma","vonmises",158,"ssfOUT_120_24_2_VULTURE","VULTURE",2,0.0416666666666667,120,"preference"
"ssfOUT_120_24_2_VULTURE.5",0.790737240593223,0.0677756236175012,1.51369885756894,"ssf","mf.is","gamma","vonmises",500,"ssfOUT_120_24_2_VULTURE","VULTURE",2,0.0416666666666667,120,"preference"
"ssfOUT_120_24_2_VULTURE.6",0.542364872149933,-0.225666246475537,1.3103959907754,"ssf","mf.is","gamma","unif",5,"ssfOUT_120_24_2_VULTURE","VULTURE",2,0.0416666666666667,120,"no effect"
"ssfOUT_120_24_2_VULTURE.7",0.894707002532084,0.15632312844087,1.6330908766233,"ssf","mf.is","gamma","unif",15,"ssfOUT_120_24_2_VULTURE","VULTURE",2,0.0416666666666667,120,"preference"
"ssfOUT_120_24_2_VULTURE.8",0.866141512975782,0.141465703285058,1.59081732266651,"ssf","mf.is","gamma","unif",50,"ssfOUT_120_24_2_VULTURE","VULTURE",2,0.0416666666666667,120,"preference"
"ssfOUT_120_24_2_VULTURE.9",0.823298220427998,0.0999035241642889,1.54669291669171,"ssf","mf.is","gamma","unif",158,"ssfOUT_120_24_2_VULTURE","VULTURE",2,0.0416666666666667,120,"preference"
"ssfOUT_120_24_2_VULTURE.10",0.821778178991329,0.100055331089868,1.54350102689279,"ssf","mf.is","gamma","unif",500,"ssfOUT_120_24_2_VULTURE","VULTURE",2,0.0416666666666667,120,"preference"
"ssfOUT_120_24_2_VULTURE.11",1.20831638575679,0.308329358018826,2.10830341349476,"ssf","mf.is","exp","vonmises",5,"ssfOUT_120_24_2_VULTURE","VULTURE",2,0.0416666666666667,120,"preference"
"ssfOUT_120_24_2_VULTURE.12",1.20091762560053,0.43331469985188,1.96852055134918,"ssf","mf.is","exp","vonmises",15,"ssfOUT_120_24_2_VULTURE","VULTURE",2,0.0416666666666667,120,"preference"
"ssfOUT_120_24_2_VULTURE.13",0.820722501235513,0.083198502253504,1.55824650021752,"ssf","mf.is","exp","vonmises",50,"ssfOUT_120_24_2_VULTURE","VULTURE",2,0.0416666666666667,120,"preference"
"ssfOUT_120_24_2_VULTURE.14",0.809042069935325,0.0801887981382496,1.5378953417324,"ssf","mf.is","exp","vonmises",158,"ssfOUT_120_24_2_VULTURE","VULTURE",2,0.0416666666666667,120,"preference"
"ssfOUT_120_24_2_VULTURE.15",0.849791230634039,0.126898379798347,1.57268408146973,"ssf","mf.is","exp","vonmises",500,"ssfOUT_120_24_2_VULTURE","VULTURE",2,0.0416666666666667,120,"preference"
"ssfOUT_120_24_2_VULTURE.16",0.737869602126326,-0.0465683398805832,1.52230754413324,"ssf","mf.is","exp","unif",5,"ssfOUT_120_24_2_VULTURE","VULTURE",2,0.0416666666666667,120,"no effect"
"ssfOUT_120_24_2_VULTURE.17",0.95142290434158,0.171339102083501,1.73150670659966,"ssf","mf.is","exp","unif",15,"ssfOUT_120_24_2_VULTURE","VULTURE",2,0.0416666666666667,120,"preference"
"ssfOUT_120_24_2_VULTURE.18",0.737479591333935,0.00751318584870397,1.46744599681917,"ssf","mf.is","exp","unif",50,"ssfOUT_120_24_2_VULTURE","VULTURE",2,0.0416666666666667,120,"preference"
"ssfOUT_120_24_2_VULTURE.19",0.778540010614101,0.05504135422835,1.50203866699985,"ssf","mf.is","exp","unif",158,"ssfOUT_120_24_2_VULTURE","VULTURE",2,0.0416666666666667,120,"preference"
"ssfOUT_120_24_2_VULTURE.20",0.831283889058311,0.109260258606919,1.5533075195097,"ssf","mf.is","exp","unif",500,"ssfOUT_120_24_2_VULTURE","VULTURE",2,0.0416666666666667,120,"preference"
"ssfOUT_120_24_2_VULTURE.21",0.848500585579287,0.0982050397036139,1.59879613145496,"ssf","mf.ss","gamma","vonmises",5,"ssfOUT_120_24_2_VULTURE","VULTURE",2,0.0416666666666667,120,"preference"
"ssfOUT_120_24_2_VULTURE.22",0.553661346821792,-0.182209201747395,1.28953189539098,"ssf","mf.ss","gamma","vonmises",15,"ssfOUT_120_24_2_VULTURE","VULTURE",2,0.0416666666666667,120,"no effect"
"ssfOUT_120_24_2_VULTURE.23",0.61958152594021,-0.105381178624994,1.34454423050541,"ssf","mf.ss","gamma","vonmises",50,"ssfOUT_120_24_2_VULTURE","VULTURE",2,0.0416666666666667,120,"no effect"
"ssfOUT_120_24_2_VULTURE.24",0.691334617869682,-0.0302474982804292,1.41291673401979,"ssf","mf.ss","gamma","vonmises",158,"ssfOUT_120_24_2_VULTURE","VULTURE",2,0.0416666666666667,120,"no effect"
"ssfOUT_120_24_2_VULTURE.25",0.637156669527105,-0.0830837531868498,1.35739709224106,"ssf","mf.ss","gamma","vonmises",500,"ssfOUT_120_24_2_VULTURE","VULTURE",2,0.0416666666666667,120,"no effect"
"ssfOUT_120_24_2_VULTURE.26",0.47796582989466,-0.279926872484627,1.23585853227395,"ssf","mf.ss","gamma","unif",5,"ssfOUT_120_24_2_VULTURE","VULTURE",2,0.0416666666666667,120,"no effect"
"ssfOUT_120_24_2_VULTURE.27",0.741472163247254,0.00610726288197005,1.47683706361254,"ssf","mf.ss","gamma","unif",15,"ssfOUT_120_24_2_VULTURE","VULTURE",2,0.0416666666666667,120,"preference"
"ssfOUT_120_24_2_VULTURE.28",0.793575866337432,0.0706033794116681,1.5165483532632,"ssf","mf.ss","gamma","unif",50,"ssfOUT_120_24_2_VULTURE","VULTURE",2,0.0416666666666667,120,"preference"
"ssfOUT_120_24_2_VULTURE.29",0.78608136578421,0.0643319120228572,1.50783081954556,"ssf","mf.ss","gamma","unif",158,"ssfOUT_120_24_2_VULTURE","VULTURE",2,0.0416666666666667,120,"preference"
"ssfOUT_120_24_2_VULTURE.30",0.729025442661821,0.00889839686714811,1.44915248845649,"ssf","mf.ss","gamma","unif",500,"ssfOUT_120_24_2_VULTURE","VULTURE",2,0.0416666666666667,120,"preference"
"ssfOUT_120_24_2_VULTURE.31",0.619842092673802,-0.140988300266196,1.3806724856138,"ssf","mf.ss","exp","vonmises",5,"ssfOUT_120_24_2_VULTURE","VULTURE",2,0.0416666666666667,120,"no effect"
"ssfOUT_120_24_2_VULTURE.32",0.809639726451263,0.06869937524615,1.55058007765638,"ssf","mf.ss","exp","vonmises",15,"ssfOUT_120_24_2_VULTURE","VULTURE",2,0.0416666666666667,120,"preference"
"ssfOUT_120_24_2_VULTURE.33",0.497264053782863,-0.230195012888257,1.22472312045398,"ssf","mf.ss","exp","vonmises",50,"ssfOUT_120_24_2_VULTURE","VULTURE",2,0.0416666666666667,120,"no effect"
"ssfOUT_120_24_2_VULTURE.34",0.631778453407653,-0.0922096779024938,1.3557665847178,"ssf","mf.ss","exp","vonmises",158,"ssfOUT_120_24_2_VULTURE","VULTURE",2,0.0416666666666667,120,"no effect"
"ssfOUT_120_24_2_VULTURE.35",0.585747644748503,-0.136706231158848,1.30820152065585,"ssf","mf.ss","exp","vonmises",500,"ssfOUT_120_24_2_VULTURE","VULTURE",2,0.0416666666666667,120,"no effect"
"ssfOUT_120_24_2_VULTURE.36",0.750819351591147,-0.00582777080932972,1.50746647399162,"ssf","mf.ss","exp","unif",5,"ssfOUT_120_24_2_VULTURE","VULTURE",2,0.0416666666666667,120,"no effect"
"ssfOUT_120_24_2_VULTURE.37",0.761093612736043,0.0179825556224399,1.50420466984965,"ssf","mf.ss","exp","unif",15,"ssfOUT_120_24_2_VULTURE","VULTURE",2,0.0416666666666667,120,"preference"
"ssfOUT_120_24_2_VULTURE.38",0.610135581174994,-0.118446925072411,1.3387180874224,"ssf","mf.ss","exp","unif",50,"ssfOUT_120_24_2_VULTURE","VULTURE",2,0.0416666666666667,120,"no effect"
"ssfOUT_120_24_2_VULTURE.39",0.645875631021482,-0.0785560165025291,1.37030727854549,"ssf","mf.ss","exp","unif",158,"ssfOUT_120_24_2_VULTURE","VULTURE",2,0.0416666666666667,120,"no effect"
"ssfOUT_120_24_2_VULTURE.40",0.655534918148827,-0.0662937076820737,1.37736354397973,"ssf","mf.ss","exp","unif",500,"ssfOUT_120_24_2_VULTURE","VULTURE",2,0.0416666666666667,120,"no effect"
"ssfOUT_120_24_2_KINGCOBRA.1",17.4473260705745,-4084.53278991311,4119.42744205425,"ssf","mf.is","gamma","vonmises",5,"ssfOUT_120_24_2_KINGCOBRA","KINGCOBRA",2,0.0416666666666667,120,"no effect"
"ssfOUT_120_24_2_KINGCOBRA.2",17.2154576701862,-3332.30987091266,3366.74078625303,"ssf","mf.is","gamma","vonmises",15,"ssfOUT_120_24_2_KINGCOBRA","KINGCOBRA",2,0.0416666666666667,120,"no effect"
"ssfOUT_120_24_2_KINGCOBRA.3",16.9499539671047,-3050.04014030698,3083.94004824119,"ssf","mf.is","gamma","vonmises",50,"ssfOUT_120_24_2_KINGCOBRA","KINGCOBRA",2,0.0416666666666667,120,"no effect"
"ssfOUT_120_24_2_KINGCOBRA.4",16.0874131322302,-1845.59337983939,1877.76820610385,"ssf","mf.is","gamma","vonmises",158,"ssfOUT_120_24_2_KINGCOBRA","KINGCOBRA",2,0.0416666666666667,120,"no effect"
"ssfOUT_120_24_2_KINGCOBRA.5",16.0324335096032,-1942.45726671759,1974.5221337368,"ssf","mf.is","gamma","vonmises",500,"ssfOUT_120_24_2_KINGCOBRA","KINGCOBRA",2,0.0416666666666667,120,"no effect"
"ssfOUT_120_24_2_KINGCOBRA.6",17.0546668219326,-3120.42533460619,3154.53466825005,"ssf","mf.is","gamma","unif",5,"ssfOUT_120_24_2_KINGCOBRA","KINGCOBRA",2,0.0416666666666667,120,"no effect"
"ssfOUT_120_24_2_KINGCOBRA.7",17.1276387325698,-2948.10647540272,2982.36175286786,"ssf","mf.is","gamma","unif",15,"ssfOUT_120_24_2_KINGCOBRA","KINGCOBRA",2,0.0416666666666667,120,"no effect"
"ssfOUT_120_24_2_KINGCOBRA.8",17.0776906624312,-3149.64729007599,3183.80267140085,"ssf","mf.is","gamma","unif",50,"ssfOUT_120_24_2_KINGCOBRA","KINGCOBRA",2,0.0416666666666667,120,"no effect"
"ssfOUT_120_24_2_KINGCOBRA.9",16.0371053512012,-1814.51976562009,1846.5939763225,"ssf","mf.is","gamma","unif",158,"ssfOUT_120_24_2_KINGCOBRA","KINGCOBRA",2,0.0416666666666667,120,"no effect"
"ssfOUT_120_24_2_KINGCOBRA.10",16.0248819304404,-1845.15132378956,1877.20108765044,"ssf","mf.is","gamma","unif",500,"ssfOUT_120_24_2_KINGCOBRA","KINGCOBRA",2,0.0416666666666667,120,"no effect"
"ssfOUT_120_24_2_KINGCOBRA.11",16.9249517995542,-3559.57970709669,3593.4296106958,"ssf","mf.is","exp","vonmises",5,"ssfOUT_120_24_2_KINGCOBRA","KINGCOBRA",2,0.0416666666666667,120,"no effect"
"ssfOUT_120_24_2_KINGCOBRA.12",17.4168757953643,-3711.69875708601,3746.53250867674,"ssf","mf.is","exp","vonmises",15,"ssfOUT_120_24_2_KINGCOBRA","KINGCOBRA",2,0.0416666666666667,120,"no effect"
"ssfOUT_120_24_2_KINGCOBRA.13",17.3139641877357,-3250.80270774904,3285.43063612451,"ssf","mf.is","exp","vonmises",50,"ssfOUT_120_24_2_KINGCOBRA","KINGCOBRA",2,0.0416666666666667,120,"no effect"
"ssfOUT_120_24_2_KINGCOBRA.14",16.1478548678547,-1846.17138670147,1878.46709643718,"ssf","mf.is","exp","vonmises",158,"ssfOUT_120_24_2_KINGCOBRA","KINGCOBRA",2,0.0416666666666667,120,"no effect"
"ssfOUT_120_24_2_KINGCOBRA.15",16.0042049021615,-1907.69658175856,1939.70499156289,"ssf","mf.is","exp","vonmises",500,"ssfOUT_120_24_2_KINGCOBRA","KINGCOBRA",2,0.0416666666666667,120,"no effect"
"ssfOUT_120_24_2_KINGCOBRA.16",18.5243175362214,-5007.40859343386,5044.4572285063,"ssf","mf.is","exp","unif",5,"ssfOUT_120_24_2_KINGCOBRA","KINGCOBRA",2,0.0416666666666667,120,"no effect"
"ssfOUT_120_24_2_KINGCOBRA.17",16.1144597762201,-2588.70294600815,2620.93186556059,"ssf","mf.is","exp","unif",15,"ssfOUT_120_24_2_KINGCOBRA","KINGCOBRA",2,0.0416666666666667,120,"no effect"
"ssfOUT_120_24_2_KINGCOBRA.18",17.0639945935645,-3128.26028426066,3162.38827344779,"ssf","mf.is","exp","unif",50,"ssfOUT_120_24_2_KINGCOBRA","KINGCOBRA",2,0.0416666666666667,120,"no effect"
"ssfOUT_120_24_2_KINGCOBRA.19",15.9999560081883,-1977.96926828184,2009.96918029822,"ssf","mf.is","exp","unif",158,"ssfOUT_120_24_2_KINGCOBRA","KINGCOBRA",2,0.0416666666666667,120,"no effect"
"ssfOUT_120_24_2_KINGCOBRA.20",16.0641290148058,-1884.85197982407,1916.98023785368,"ssf","mf.is","exp","unif",500,"ssfOUT_120_24_2_KINGCOBRA","KINGCOBRA",2,0.0416666666666667,120,"no effect"
"ssfOUT_120_24_2_KINGCOBRA.21",17.1594413212316,-4501.02397017695,4535.34285281942,"ssf","mf.ss","gamma","vonmises",5,"ssfOUT_120_24_2_KINGCOBRA","KINGCOBRA",2,0.0416666666666667,120,"no effect"
"ssfOUT_120_24_2_KINGCOBRA.22",16.9661370721922,-3493.37777389041,3527.31004803479,"ssf","mf.ss","gamma","vonmises",15,"ssfOUT_120_24_2_KINGCOBRA","KINGCOBRA",2,0.0416666666666667,120,"no effect"
"ssfOUT_120_24_2_KINGCOBRA.23",16.975789995095,-3135.58585450786,3169.53743449806,"ssf","mf.ss","gamma","vonmises",50,"ssfOUT_120_24_2_KINGCOBRA","KINGCOBRA",2,0.0416666666666667,120,"no effect"
"ssfOUT_120_24_2_KINGCOBRA.24",15.903241105382,-1870.68095388883,1902.4874360996,"ssf","mf.ss","gamma","vonmises",158,"ssfOUT_120_24_2_KINGCOBRA","KINGCOBRA",2,0.0416666666666667,120,"no effect"
"ssfOUT_120_24_2_KINGCOBRA.25",15.9055462331914,-1949.72579688792,1981.5368893543,"ssf","mf.ss","gamma","vonmises",500,"ssfOUT_120_24_2_KINGCOBRA","KINGCOBRA",2,0.0416666666666667,120,"no effect"
"ssfOUT_120_24_2_KINGCOBRA.26",17.1559196265019,-3171.63930778793,3205.95114704094,"ssf","mf.ss","gamma","unif",5,"ssfOUT_120_24_2_KINGCOBRA","KINGCOBRA",2,0.0416666666666667,120,"no effect"
"ssfOUT_120_24_2_KINGCOBRA.27",16.9909422337666,-2921.10265191998,2955.08453638751,"ssf","mf.ss","gamma","unif",15,"ssfOUT_120_24_2_KINGCOBRA","KINGCOBRA",2,0.0416666666666667,120,"no effect"
"ssfOUT_120_24_2_KINGCOBRA.28",16.9353021258199,-3113.06920721298,3146.93981146462,"ssf","mf.ss","gamma","unif",50,"ssfOUT_120_24_2_KINGCOBRA","KINGCOBRA",2,0.0416666666666667,120,"no effect"
"ssfOUT_120_24_2_KINGCOBRA.29",15.926749944484,-1803.89804788406,1835.75154777302,"ssf","mf.ss","gamma","unif",158,"ssfOUT_120_24_2_KINGCOBRA","KINGCOBRA",2,0.0416666666666667,120,"no effect"
"ssfOUT_120_24_2_KINGCOBRA.30",15.9191746108576,-1837.85863945696,1869.69698867868,"ssf","mf.ss","gamma","unif",500,"ssfOUT_120_24_2_KINGCOBRA","KINGCOBRA",2,0.0416666666666667,120,"no effect"
"ssfOUT_120_24_2_KINGCOBRA.31",17.309548495484,-3450.06138564089,3484.68048263186,"ssf","mf.ss","exp","vonmises",5,"ssfOUT_120_24_2_KINGCOBRA","KINGCOBRA",2,0.0416666666666667,120,"no effect"
"ssfOUT_120_24_2_KINGCOBRA.32",16.9941772293765,-3616.65820291981,3650.64655737857,"ssf","mf.ss","exp","vonmises",15,"ssfOUT_120_24_2_KINGCOBRA","KINGCOBRA",2,0.0416666666666667,120,"no effect"
"ssfOUT_120_24_2_KINGCOBRA.33",16.9611668006385,-3188.29991581313,3222.2222494144,"ssf","mf.ss","exp","vonmises",50,"ssfOUT_120_24_2_KINGCOBRA","KINGCOBRA",2,0.0416666666666667,120,"no effect"
"ssfOUT_120_24_2_KINGCOBRA.34",15.9380007923669,-1832.63187372214,1864.50787530687,"ssf","mf.ss","exp","vonmises",158,"ssfOUT_120_24_2_KINGCOBRA","KINGCOBRA",2,0.0416666666666667,120,"no effect"
"ssfOUT_120_24_2_KINGCOBRA.35",15.9299596443454,-1902.23312570987,1934.09304499857,"ssf","mf.ss","exp","vonmises",500,"ssfOUT_120_24_2_KINGCOBRA","KINGCOBRA",2,0.0416666666666667,120,"no effect"
"ssfOUT_120_24_2_KINGCOBRA.36",17.3091130029815,-2920.4373615589,2955.05558756486,"ssf","mf.ss","exp","unif",5,"ssfOUT_120_24_2_KINGCOBRA","KINGCOBRA",2,0.0416666666666667,120,"no effect"
"ssfOUT_120_24_2_KINGCOBRA.37",16.020148904024,-2594.16058375711,2626.20088156516,"ssf","mf.ss","exp","unif",15,"ssfOUT_120_24_2_KINGCOBRA","KINGCOBRA",2,0.0416666666666667,120,"no effect"
"ssfOUT_120_24_2_KINGCOBRA.38",16.9906596680539,-3069.05014914203,3103.03146847814,"ssf","mf.ss","exp","unif",50,"ssfOUT_120_24_2_KINGCOBRA","KINGCOBRA",2,0.0416666666666667,120,"no effect"
"ssfOUT_120_24_2_KINGCOBRA.39",15.9318887467803,-1937.20943618144,1969.073213675,"ssf","mf.ss","exp","unif",158,"ssfOUT_120_24_2_KINGCOBRA","KINGCOBRA",2,0.0416666666666667,120,"no effect"
"ssfOUT_120_24_2_KINGCOBRA.40",15.9408138148136,-1853.29512139922,1885.17674902885,"ssf","mf.ss","exp","unif",500,"ssfOUT_120_24_2_KINGCOBRA","KINGCOBRA",2,0.0416666666666667,120,"no effect"
"ssfOUT_120_24_3_BADGER.1",-0.43084886520841,-1.1044213027438,0.242723572326983,"ssf","mf.is","gamma","vonmises",5,"ssfOUT_120_24_3_BADGER","BADGER",3,0.0416666666666667,120,"no effect"
"ssfOUT_120_24_3_BADGER.2",0.0122997322306006,-0.568534996654367,0.593134461115568,"ssf","mf.is","gamma","vonmises",15,"ssfOUT_120_24_3_BADGER","BADGER",3,0.0416666666666667,120,"no effect"
"ssfOUT_120_24_3_BADGER.3",-0.32083287819267,-0.852451534714167,0.210785778328828,"ssf","mf.is","gamma","vonmises",50,"ssfOUT_120_24_3_BADGER","BADGER",3,0.0416666666666667,120,"no effect"
"ssfOUT_120_24_3_BADGER.4",-0.187858275760683,-0.715519382007676,0.339802830486311,"ssf","mf.is","gamma","vonmises",158,"ssfOUT_120_24_3_BADGER","BADGER",3,0.0416666666666667,120,"no effect"
"ssfOUT_120_24_3_BADGER.5",-0.205740581471809,-0.729772804072911,0.318291641129293,"ssf","mf.is","gamma","vonmises",500,"ssfOUT_120_24_3_BADGER","BADGER",3,0.0416666666666667,120,"no effect"
"ssfOUT_120_24_3_BADGER.6",0.0828154629707242,-0.517166118946147,0.682797044887595,"ssf","mf.is","gamma","unif",5,"ssfOUT_120_24_3_BADGER","BADGER",3,0.0416666666666667,120,"no effect"
"ssfOUT_120_24_3_BADGER.7",-0.0932079943898795,-0.648297070187246,0.461881081407487,"ssf","mf.is","gamma","unif",15,"ssfOUT_120_24_3_BADGER","BADGER",3,0.0416666666666667,120,"no effect"
"ssfOUT_120_24_3_BADGER.8",-0.14071354143635,-0.67308421419172,0.391657131319021,"ssf","mf.is","gamma","unif",50,"ssfOUT_120_24_3_BADGER","BADGER",3,0.0416666666666667,120,"no effect"
"ssfOUT_120_24_3_BADGER.9",-0.175448008386678,-0.701589753031441,0.350693736258085,"ssf","mf.is","gamma","unif",158,"ssfOUT_120_24_3_BADGER","BADGER",3,0.0416666666666667,120,"no effect"
"ssfOUT_120_24_3_BADGER.10",-0.22131629392443,-0.744456204373321,0.301823616524461,"ssf","mf.is","gamma","unif",500,"ssfOUT_120_24_3_BADGER","BADGER",3,0.0416666666666667,120,"no effect"
"ssfOUT_120_24_3_BADGER.11",0.106478983051802,-0.652149790291838,0.865107756395443,"ssf","mf.is","exp","vonmises",5,"ssfOUT_120_24_3_BADGER","BADGER",3,0.0416666666666667,120,"no effect"
"ssfOUT_120_24_3_BADGER.12",-0.0579705645244429,-0.643726265862696,0.52778513681381,"ssf","mf.is","exp","vonmises",15,"ssfOUT_120_24_3_BADGER","BADGER",3,0.0416666666666667,120,"no effect"
"ssfOUT_120_24_3_BADGER.13",-0.139846384155637,-0.682783579562655,0.40309081125138,"ssf","mf.is","exp","vonmises",50,"ssfOUT_120_24_3_BADGER","BADGER",3,0.0416666666666667,120,"no effect"
"ssfOUT_120_24_3_BADGER.14",-0.0923497598331732,-0.619413243523263,0.434713723856917,"ssf","mf.is","exp","vonmises",158,"ssfOUT_120_24_3_BADGER","BADGER",3,0.0416666666666667,120,"no effect"
"ssfOUT_120_24_3_BADGER.15",-0.16562042195224,-0.692174057235755,0.360933213331274,"ssf","mf.is","exp","vonmises",500,"ssfOUT_120_24_3_BADGER","BADGER",3,0.0416666666666667,120,"no effect"
"ssfOUT_120_24_3_BADGER.16",0.192389756982579,-0.415559000005419,0.800338513970577,"ssf","mf.is","exp","unif",5,"ssfOUT_120_24_3_BADGER","BADGER",3,0.0416666666666667,120,"no effect"
"ssfOUT_120_24_3_BADGER.17",-0.347795584347878,-0.912075946515374,0.216484777819619,"ssf","mf.is","exp","unif",15,"ssfOUT_120_24_3_BADGER","BADGER",3,0.0416666666666667,120,"no effect"
"ssfOUT_120_24_3_BADGER.18",-0.131453806582508,-0.662203880282882,0.399296267117866,"ssf","mf.is","exp","unif",50,"ssfOUT_120_24_3_BADGER","BADGER",3,0.0416666666666667,120,"no effect"
"ssfOUT_120_24_3_BADGER.19",-0.165417020689214,-0.693406751179087,0.362572709800658,"ssf","mf.is","exp","unif",158,"ssfOUT_120_24_3_BADGER","BADGER",3,0.0416666666666667,120,"no effect"
"ssfOUT_120_24_3_BADGER.20",-0.20919065636438,-0.732885720447217,0.314504407718457,"ssf","mf.is","exp","unif",500,"ssfOUT_120_24_3_BADGER","BADGER",3,0.0416666666666667,120,"no effect"
"ssfOUT_120_24_3_BADGER.21",-0.741506958491403,-1.28506273137534,-0.197951185607465,"ssf","mf.ss","gamma","vonmises",5,"ssfOUT_120_24_3_BADGER","BADGER",3,0.0416666666666667,120,"avoidance"
"ssfOUT_120_24_3_BADGER.22",-0.402644698484483,-0.90150185478752,0.0962124578185543,"ssf","mf.ss","gamma","vonmises",15,"ssfOUT_120_24_3_BADGER","BADGER",3,0.0416666666666667,120,"no effect"
"ssfOUT_120_24_3_BADGER.23",-0.530106123685649,-1.00705714293686,-0.0531551044344429,"ssf","mf.ss","gamma","vonmises",50,"ssfOUT_120_24_3_BADGER","BADGER",3,0.0416666666666667,120,"avoidance"
"ssfOUT_120_24_3_BADGER.24",-0.509316431603763,-0.981316001577768,-0.0373168616297568,"ssf","mf.ss","gamma","vonmises",158,"ssfOUT_120_24_3_BADGER","BADGER",3,0.0416666666666667,120,"avoidance"
"ssfOUT_120_24_3_BADGER.25",-0.467568070240808,-0.939546991173502,0.00441085069188579,"ssf","mf.ss","gamma","vonmises",500,"ssfOUT_120_24_3_BADGER","BADGER",3,0.0416666666666667,120,"no effect"
"ssfOUT_120_24_3_BADGER.26",-0.406739496385915,-0.948495590093253,0.135016597321424,"ssf","mf.ss","gamma","unif",5,"ssfOUT_120_24_3_BADGER","BADGER",3,0.0416666666666667,120,"no effect"
"ssfOUT_120_24_3_BADGER.27",-0.382921836299106,-0.877898662169453,0.11205498957124,"ssf","mf.ss","gamma","unif",15,"ssfOUT_120_24_3_BADGER","BADGER",3,0.0416666666666667,120,"no effect"
"ssfOUT_120_24_3_BADGER.28",-0.424031656099685,-0.903242610505185,0.0551792983058143,"ssf","mf.ss","gamma","unif",50,"ssfOUT_120_24_3_BADGER","BADGER",3,0.0416666666666667,120,"no effect"
"ssfOUT_120_24_3_BADGER.29",-0.45798172643931,-0.930610231925073,0.0146467790464528,"ssf","mf.ss","gamma","unif",158,"ssfOUT_120_24_3_BADGER","BADGER",3,0.0416666666666667,120,"no effect"
"ssfOUT_120_24_3_BADGER.30",-0.470951475038963,-0.941892586421733,-1.03636561936682e-05,"ssf","mf.ss","gamma","unif",500,"ssfOUT_120_24_3_BADGER","BADGER",3,0.0416666666666667,120,"avoidance"
"ssfOUT_120_24_3_BADGER.31",-0.20932755885212,-0.740462092939731,0.321806975235492,"ssf","mf.ss","exp","vonmises",5,"ssfOUT_120_24_3_BADGER","BADGER",3,0.0416666666666667,120,"no effect"
"ssfOUT_120_24_3_BADGER.32",-0.383024904843589,-0.873688852555046,0.107639042867868,"ssf","mf.ss","exp","vonmises",15,"ssfOUT_120_24_3_BADGER","BADGER",3,0.0416666666666667,120,"no effect"
"ssfOUT_120_24_3_BADGER.33",-0.529885451992932,-1.01298307525915,-0.0467878287267108,"ssf","mf.ss","exp","vonmises",50,"ssfOUT_120_24_3_BADGER","BADGER",3,0.0416666666666667,120,"avoidance"
"ssfOUT_120_24_3_BADGER.34",-0.372743736289252,-0.847556863904648,0.102069391326143,"ssf","mf.ss","exp","vonmises",158,"ssfOUT_120_24_3_BADGER","BADGER",3,0.0416666666666667,120,"no effect"
"ssfOUT_120_24_3_BADGER.35",-0.451639146451176,-0.925986068412573,0.0227077755102201,"ssf","mf.ss","exp","vonmises",500,"ssfOUT_120_24_3_BADGER","BADGER",3,0.0416666666666667,120,"no effect"
"ssfOUT_120_24_3_BADGER.36",-0.376992826513222,-0.913401277748239,0.159415624721795,"ssf","mf.ss","exp","unif",5,"ssfOUT_120_24_3_BADGER","BADGER",3,0.0416666666666667,120,"no effect"
"ssfOUT_120_24_3_BADGER.37",-0.578487051666531,-1.08182715262655,-0.0751469507065102,"ssf","mf.ss","exp","unif",15,"ssfOUT_120_24_3_BADGER","BADGER",3,0.0416666666666667,120,"avoidance"
"ssfOUT_120_24_3_BADGER.38",-0.335431331137064,-0.816353904543927,0.145491242269799,"ssf","mf.ss","exp","unif",50,"ssfOUT_120_24_3_BADGER","BADGER",3,0.0416666666666667,120,"no effect"
"ssfOUT_120_24_3_BADGER.39",-0.435649268056851,-0.90957618473208,0.0382776486183778,"ssf","mf.ss","exp","unif",158,"ssfOUT_120_24_3_BADGER","BADGER",3,0.0416666666666667,120,"no effect"
"ssfOUT_120_24_3_BADGER.40",-0.44417330579638,-0.917475782362126,0.0291291707693657,"ssf","mf.ss","exp","unif",500,"ssfOUT_120_24_3_BADGER","BADGER",3,0.0416666666666667,120,"no effect"
"ssfOUT_120_24_3_VULTURE.1",-0.210687628393649,-0.917702725129127,0.49632746834183,"ssf","mf.is","gamma","vonmises",5,"ssfOUT_120_24_3_VULTURE","VULTURE",3,0.0416666666666667,120,"no effect"
"ssfOUT_120_24_3_VULTURE.2",0.28680400853253,-0.305422329145429,0.879030346210488,"ssf","mf.is","gamma","vonmises",15,"ssfOUT_120_24_3_VULTURE","VULTURE",3,0.0416666666666667,120,"no effect"
"ssfOUT_120_24_3_VULTURE.3",0.151565873450143,-0.384844743491132,0.687976490391419,"ssf","mf.is","gamma","vonmises",50,"ssfOUT_120_24_3_VULTURE","VULTURE",3,0.0416666666666667,120,"no effect"
"ssfOUT_120_24_3_VULTURE.4",0.0488074894923814,-0.475652388109826,0.573267367094589,"ssf","mf.is","gamma","vonmises",158,"ssfOUT_120_24_3_VULTURE","VULTURE",3,0.0416666666666667,120,"no effect"
"ssfOUT_120_24_3_VULTURE.5",0.0899865791119895,-0.432598726055549,0.612571884279528,"ssf","mf.is","gamma","vonmises",500,"ssfOUT_120_24_3_VULTURE","VULTURE",3,0.0416666666666667,120,"no effect"
"ssfOUT_120_24_3_VULTURE.6",0.239531483922268,-0.338552767294678,0.817615735139214,"ssf","mf.is","gamma","unif",5,"ssfOUT_120_24_3_VULTURE","VULTURE",3,0.0416666666666667,120,"no effect"
"ssfOUT_120_24_3_VULTURE.7",0.0513827345415184,-0.487113306301671,0.589878775384708,"ssf","mf.is","gamma","unif",15,"ssfOUT_120_24_3_VULTURE","VULTURE",3,0.0416666666666667,120,"no effect"
"ssfOUT_120_24_3_VULTURE.8",0.146636932563745,-0.380922319762491,0.67419618488998,"ssf","mf.is","gamma","unif",50,"ssfOUT_120_24_3_VULTURE","VULTURE",3,0.0416666666666667,120,"no effect"
"ssfOUT_120_24_3_VULTURE.9",0.127044221634219,-0.394605161365214,0.648693604633652,"ssf","mf.is","gamma","unif",158,"ssfOUT_120_24_3_VULTURE","VULTURE",3,0.0416666666666667,120,"no effect"
"ssfOUT_120_24_3_VULTURE.10",0.0648340573716252,-0.455335529827028,0.585003644570278,"ssf","mf.is","gamma","unif",500,"ssfOUT_120_24_3_VULTURE","VULTURE",3,0.0416666666666667,120,"no effect"
"ssfOUT_120_24_3_VULTURE.11",-0.614805225091872,-1.38109892876933,0.151488478585582,"ssf","mf.is","exp","vonmises",5,"ssfOUT_120_24_3_VULTURE","VULTURE",3,0.0416666666666667,120,"no effect"
"ssfOUT_120_24_3_VULTURE.12",0.133995031513522,-0.468399885641213,0.736389948668257,"ssf","mf.is","exp","vonmises",15,"ssfOUT_120_24_3_VULTURE","VULTURE",3,0.0416666666666667,120,"no effect"
"ssfOUT_120_24_3_VULTURE.13",-0.120934657165365,-0.667983832244091,0.426114517913361,"ssf","mf.is","exp","vonmises",50,"ssfOUT_120_24_3_VULTURE","VULTURE",3,0.0416666666666667,120,"no effect"
"ssfOUT_120_24_3_VULTURE.14",0.110872287242552,-0.417193056526207,0.63893763101131,"ssf","mf.is","exp","vonmises",158,"ssfOUT_120_24_3_VULTURE","VULTURE",3,0.0416666666666667,120,"no effect"
"ssfOUT_120_24_3_VULTURE.15",0.0462629629173928,-0.476814276920113,0.569340202754899,"ssf","mf.is","exp","vonmises",500,"ssfOUT_120_24_3_VULTURE","VULTURE",3,0.0416666666666667,120,"no effect"
"ssfOUT_120_24_3_VULTURE.16",-0.330132771979474,-0.979182198036903,0.318916654077955,"ssf","mf.is","exp","unif",5,"ssfOUT_120_24_3_VULTURE","VULTURE",3,0.0416666666666667,120,"no effect"
"ssfOUT_120_24_3_VULTURE.17",0.210875907105861,-0.34826953959988,0.770021353811602,"ssf","mf.is","exp","unif",15,"ssfOUT_120_24_3_VULTURE","VULTURE",3,0.0416666666666667,120,"no effect"
"ssfOUT_120_24_3_VULTURE.18",-0.0798980456329971,-0.615076210023514,0.45528011875752,"ssf","mf.is","exp","unif",50,"ssfOUT_120_24_3_VULTURE","VULTURE",3,0.0416666666666667,120,"no effect"
"ssfOUT_120_24_3_VULTURE.19",0.163298807544301,-0.360446863098091,0.687044478186693,"ssf","mf.is","exp","unif",158,"ssfOUT_120_24_3_VULTURE","VULTURE",3,0.0416666666666667,120,"no effect"
"ssfOUT_120_24_3_VULTURE.20",0.0745525579966073,-0.44659268069875,0.595697796691964,"ssf","mf.is","exp","unif",500,"ssfOUT_120_24_3_VULTURE","VULTURE",3,0.0416666666666667,120,"no effect"
"ssfOUT_120_24_3_VULTURE.21",-0.0533979390201521,-0.633481851999854,0.526685973959549,"ssf","mf.ss","gamma","vonmises",5,"ssfOUT_120_24_3_VULTURE","VULTURE",3,0.0416666666666667,120,"no effect"
"ssfOUT_120_24_3_VULTURE.22",0.029034771382317,-0.511352465232429,0.569422007997063,"ssf","mf.ss","gamma","vonmises",15,"ssfOUT_120_24_3_VULTURE","VULTURE",3,0.0416666666666667,120,"no effect"
"ssfOUT_120_24_3_VULTURE.23",-0.149049610456987,-0.674341389904669,0.376242168990695,"ssf","mf.ss","gamma","vonmises",50,"ssfOUT_120_24_3_VULTURE","VULTURE",3,0.0416666666666667,120,"no effect"
"ssfOUT_120_24_3_VULTURE.24",-0.0349830765354856,-0.554982475210843,0.485016322139872,"ssf","mf.ss","gamma","vonmises",158,"ssfOUT_120_24_3_VULTURE","VULTURE",3,0.0416666666666667,120,"no effect"
"ssfOUT_120_24_3_VULTURE.25",-0.1416834398365,-0.660504310792245,0.377137431119244,"ssf","mf.ss","gamma","vonmises",500,"ssfOUT_120_24_3_VULTURE","VULTURE",3,0.0416666666666667,120,"no effect"
"ssfOUT_120_24_3_VULTURE.26",0.38322903263903,-0.175877922114108,0.942335987392168,"ssf","mf.ss","gamma","unif",5,"ssfOUT_120_24_3_VULTURE","VULTURE",3,0.0416666666666667,120,"no effect"
"ssfOUT_120_24_3_VULTURE.27",0.0133826540652217,-0.522423356472531,0.549188664602974,"ssf","mf.ss","gamma","unif",15,"ssfOUT_120_24_3_VULTURE","VULTURE",3,0.0416666666666667,120,"no effect"
"ssfOUT_120_24_3_VULTURE.28",-0.00678501366168312,-0.530576790581057,0.517006763257691,"ssf","mf.ss","gamma","unif",50,"ssfOUT_120_24_3_VULTURE","VULTURE",3,0.0416666666666667,120,"no effect"
"ssfOUT_120_24_3_VULTURE.29",0.0244316727392179,-0.495066439869033,0.543929785347469,"ssf","mf.ss","gamma","unif",158,"ssfOUT_120_24_3_VULTURE","VULTURE",3,0.0416666666666667,120,"no effect"
"ssfOUT_120_24_3_VULTURE.30",-0.0468144555413993,-0.565337233482932,0.471708322400134,"ssf","mf.ss","gamma","unif",500,"ssfOUT_120_24_3_VULTURE","VULTURE",3,0.0416666666666667,120,"no effect"
"ssfOUT_120_24_3_VULTURE.31",-0.218543700697671,-0.79815587322205,0.361068471826708,"ssf","mf.ss","exp","vonmises",5,"ssfOUT_120_24_3_VULTURE","VULTURE",3,0.0416666666666667,120,"no effect"
"ssfOUT_120_24_3_VULTURE.32",-0.151684338825686,-0.694033891359773,0.390665213708402,"ssf","mf.ss","exp","vonmises",15,"ssfOUT_120_24_3_VULTURE","VULTURE",3,0.0416666666666667,120,"no effect"
"ssfOUT_120_24_3_VULTURE.33",-0.165349340392922,-0.692309688147008,0.361611007361163,"ssf","mf.ss","exp","vonmises",50,"ssfOUT_120_24_3_VULTURE","VULTURE",3,0.0416666666666667,120,"no effect"
"ssfOUT_120_24_3_VULTURE.34",-0.143059282822594,-0.665512220271428,0.37939365462624,"ssf","mf.ss","exp","vonmises",158,"ssfOUT_120_24_3_VULTURE","VULTURE",3,0.0416666666666667,120,"no effect"
"ssfOUT_120_24_3_VULTURE.35",-0.196118587188548,-0.71728735736183,0.325050182984735,"ssf","mf.ss","exp","vonmises",500,"ssfOUT_120_24_3_VULTURE","VULTURE",3,0.0416666666666667,120,"no effect"
"ssfOUT_120_24_3_VULTURE.36",-0.186406488748956,-0.769411962397966,0.396598984900054,"ssf","mf.ss","exp","unif",5,"ssfOUT_120_24_3_VULTURE","VULTURE",3,0.0416666666666667,120,"no effect"
"ssfOUT_120_24_3_VULTURE.37",-0.0464483935429196,-0.58742722648458,0.494530439398741,"ssf","mf.ss","exp","unif",15,"ssfOUT_120_24_3_VULTURE","VULTURE",3,0.0416666666666667,120,"no effect"
"ssfOUT_120_24_3_VULTURE.38",-0.204492348651001,-0.7344555543227,0.325470857020699,"ssf","mf.ss","exp","unif",50,"ssfOUT_120_24_3_VULTURE","VULTURE",3,0.0416666666666667,120,"no effect"
"ssfOUT_120_24_3_VULTURE.39",0.0271971973350651,-0.494638941802953,0.549033336473083,"ssf","mf.ss","exp","unif",158,"ssfOUT_120_24_3_VULTURE","VULTURE",3,0.0416666666666667,120,"no effect"
"ssfOUT_120_24_3_VULTURE.40",-0.0608090811964695,-0.582319109899482,0.460700947506543,"ssf","mf.ss","exp","unif",500,"ssfOUT_120_24_3_VULTURE","VULTURE",3,0.0416666666666667,120,"no effect"
"ssfOUT_120_24_3_KINGCOBRA.1",-2.19953977226006,-3.12681563750146,-1.27226390701866,"ssf","mf.is","gamma","vonmises",5,"ssfOUT_120_24_3_KINGCOBRA","KINGCOBRA",3,0.0416666666666667,120,"avoidance"
"ssfOUT_120_24_3_KINGCOBRA.2",-0.774610572951369,-1.48222848717358,-0.0669926587291599,"ssf","mf.is","gamma","vonmises",15,"ssfOUT_120_24_3_KINGCOBRA","KINGCOBRA",3,0.0416666666666667,120,"avoidance"
"ssfOUT_120_24_3_KINGCOBRA.3",-1.04011712449846,-1.67514009531342,-0.405094153683494,"ssf","mf.is","gamma","vonmises",50,"ssfOUT_120_24_3_KINGCOBRA","KINGCOBRA",3,0.0416666666666667,120,"avoidance"
"ssfOUT_120_24_3_KINGCOBRA.4",-0.261317786113781,-0.869289893440346,0.346654321212784,"ssf","mf.is","gamma","vonmises",158,"ssfOUT_120_24_3_KINGCOBRA","KINGCOBRA",3,0.0416666666666667,120,"no effect"
"ssfOUT_120_24_3_KINGCOBRA.5",-0.427560358568596,-1.03327497629377,0.178154259156575,"ssf","mf.is","gamma","vonmises",500,"ssfOUT_120_24_3_KINGCOBRA","KINGCOBRA",3,0.0416666666666667,120,"no effect"
"ssfOUT_120_24_3_KINGCOBRA.6",-0.2835202104738,-0.998688090949044,0.431647670001445,"ssf","mf.is","gamma","unif",5,"ssfOUT_120_24_3_KINGCOBRA","KINGCOBRA",3,0.0416666666666667,120,"no effect"
"ssfOUT_120_24_3_KINGCOBRA.7",-0.616766029726893,-1.27606820111518,0.0425361416613977,"ssf","mf.is","gamma","unif",15,"ssfOUT_120_24_3_KINGCOBRA","KINGCOBRA",3,0.0416666666666667,120,"no effect"
"ssfOUT_120_24_3_KINGCOBRA.8",-0.627452083898732,-1.24409969343106,-0.0108044743663992,"ssf","mf.is","gamma","unif",50,"ssfOUT_120_24_3_KINGCOBRA","KINGCOBRA",3,0.0416666666666667,120,"avoidance"
"ssfOUT_120_24_3_KINGCOBRA.9",-0.546255997163396,-1.15077942778321,0.0582674334564155,"ssf","mf.is","gamma","unif",158,"ssfOUT_120_24_3_KINGCOBRA","KINGCOBRA",3,0.0416666666666667,120,"no effect"
"ssfOUT_120_24_3_KINGCOBRA.10",-0.501093572815552,-1.1040579304722,0.101870784841094,"ssf","mf.is","gamma","unif",500,"ssfOUT_120_24_3_KINGCOBRA","KINGCOBRA",3,0.0416666666666667,120,"no effect"
"ssfOUT_120_24_3_KINGCOBRA.11",-1.05880230755784,-1.86118561426954,-0.256419000846144,"ssf","mf.is","exp","vonmises",5,"ssfOUT_120_24_3_KINGCOBRA","KINGCOBRA",3,0.0416666666666667,120,"avoidance"
"ssfOUT_120_24_3_KINGCOBRA.12",-0.820369540500655,-1.51773244725162,-0.123006633749691,"ssf","mf.is","exp","vonmises",15,"ssfOUT_120_24_3_KINGCOBRA","KINGCOBRA",3,0.0416666666666667,120,"avoidance"
"ssfOUT_120_24_3_KINGCOBRA.13",-1.0774136237863,-1.7098808307541,-0.444946416818503,"ssf","mf.is","exp","vonmises",50,"ssfOUT_120_24_3_KINGCOBRA","KINGCOBRA",3,0.0416666666666667,120,"avoidance"
"ssfOUT_120_24_3_KINGCOBRA.14",-0.446331256856005,-1.05488004131354,0.162217527601533,"ssf","mf.is","exp","vonmises",158,"ssfOUT_120_24_3_KINGCOBRA","KINGCOBRA",3,0.0416666666666667,120,"no effect"
"ssfOUT_120_24_3_KINGCOBRA.15",-0.471985898985633,-1.07471773760363,0.130745939632367,"ssf","mf.is","exp","vonmises",500,"ssfOUT_120_24_3_KINGCOBRA","KINGCOBRA",3,0.0416666666666667,120,"no effect"
"ssfOUT_120_24_3_KINGCOBRA.16",-0.497746882786468,-1.23870239676743,0.243208631194496,"ssf","mf.is","exp","unif",5,"ssfOUT_120_24_3_KINGCOBRA","KINGCOBRA",3,0.0416666666666667,120,"no effect"
"ssfOUT_120_24_3_KINGCOBRA.17",-1.1425878546117,-1.83155966462896,-0.453616044594433,"ssf","mf.is","exp","unif",15,"ssfOUT_120_24_3_KINGCOBRA","KINGCOBRA",3,0.0416666666666667,120,"avoidance"
"ssfOUT_120_24_3_KINGCOBRA.18",-0.446819771607452,-1.06411424242373,0.170474699208823,"ssf","mf.is","exp","unif",50,"ssfOUT_120_24_3_KINGCOBRA","KINGCOBRA",3,0.0416666666666667,120,"no effect"
"ssfOUT_120_24_3_KINGCOBRA.19",-0.593112344318203,-1.20087288815988,0.0146481995234751,"ssf","mf.is","exp","unif",158,"ssfOUT_120_24_3_KINGCOBRA","KINGCOBRA",3,0.0416666666666667,120,"no effect"
"ssfOUT_120_24_3_KINGCOBRA.20",-0.519477377829303,-1.12125074280426,0.082295987145654,"ssf","mf.is","exp","unif",500,"ssfOUT_120_24_3_KINGCOBRA","KINGCOBRA",3,0.0416666666666667,120,"no effect"
"ssfOUT_120_24_3_KINGCOBRA.21",-1.40003689962161,-2.22127395212177,-0.578799847121447,"ssf","mf.ss","gamma","vonmises",5,"ssfOUT_120_24_3_KINGCOBRA","KINGCOBRA",3,0.0416666666666667,120,"avoidance"
"ssfOUT_120_24_3_KINGCOBRA.22",-0.620219736729796,-1.27016172793381,0.0297222544742189,"ssf","mf.ss","gamma","vonmises",15,"ssfOUT_120_24_3_KINGCOBRA","KINGCOBRA",3,0.0416666666666667,120,"no effect"
"ssfOUT_120_24_3_KINGCOBRA.23",-1.08032044992924,-1.69339315879819,-0.46724774106028,"ssf","mf.ss","gamma","vonmises",50,"ssfOUT_120_24_3_KINGCOBRA","KINGCOBRA",3,0.0416666666666667,120,"avoidance"
"ssfOUT_120_24_3_KINGCOBRA.24",-0.655900569139447,-1.25154411347715,-0.060257024801742,"ssf","mf.ss","gamma","vonmises",158,"ssfOUT_120_24_3_KINGCOBRA","KINGCOBRA",3,0.0416666666666667,120,"avoidance"
"ssfOUT_120_24_3_KINGCOBRA.25",-0.805233243772035,-1.40189298235088,-0.208573505193185,"ssf","mf.ss","gamma","vonmises",500,"ssfOUT_120_24_3_KINGCOBRA","KINGCOBRA",3,0.0416666666666667,120,"avoidance"
"ssfOUT_120_24_3_KINGCOBRA.26",-0.335508774559518,-1.03972862999732,0.368711080878283,"ssf","mf.ss","gamma","unif",5,"ssfOUT_120_24_3_KINGCOBRA","KINGCOBRA",3,0.0416666666666667,120,"no effect"
"ssfOUT_120_24_3_KINGCOBRA.27",-0.739601104860654,-1.38152906656494,-0.0976731431563728,"ssf","mf.ss","gamma","unif",15,"ssfOUT_120_24_3_KINGCOBRA","KINGCOBRA",3,0.0416666666666667,120,"avoidance"
"ssfOUT_120_24_3_KINGCOBRA.28",-0.674742880218782,-1.28546498384954,-0.0640207765880215,"ssf","mf.ss","gamma","unif",50,"ssfOUT_120_24_3_KINGCOBRA","KINGCOBRA",3,0.0416666666666667,120,"avoidance"
"ssfOUT_120_24_3_KINGCOBRA.29",-0.763653616753842,-1.35959805897855,-0.167709174529133,"ssf","mf.ss","gamma","unif",158,"ssfOUT_120_24_3_KINGCOBRA","KINGCOBRA",3,0.0416666666666667,120,"avoidance"
"ssfOUT_120_24_3_KINGCOBRA.30",-0.681873218528061,-1.27772799330742,-0.0860184437487065,"ssf","mf.ss","gamma","unif",500,"ssfOUT_120_24_3_KINGCOBRA","KINGCOBRA",3,0.0416666666666667,120,"avoidance"
"ssfOUT_120_24_3_KINGCOBRA.31",-0.664517306834857,-1.41853717327874,0.089502559609028,"ssf","mf.ss","exp","vonmises",5,"ssfOUT_120_24_3_KINGCOBRA","KINGCOBRA",3,0.0416666666666667,120,"no effect"
"ssfOUT_120_24_3_KINGCOBRA.32",-0.765203527082631,-1.40169457088564,-0.128712483279626,"ssf","mf.ss","exp","vonmises",15,"ssfOUT_120_24_3_KINGCOBRA","KINGCOBRA",3,0.0416666666666667,120,"avoidance"
"ssfOUT_120_24_3_KINGCOBRA.33",-0.982398339351143,-1.59369900582325,-0.371097672879032,"ssf","mf.ss","exp","vonmises",50,"ssfOUT_120_24_3_KINGCOBRA","KINGCOBRA",3,0.0416666666666667,120,"avoidance"
"ssfOUT_120_24_3_KINGCOBRA.34",-0.707082757016631,-1.30425184278199,-0.109913671251272,"ssf","mf.ss","exp","vonmises",158,"ssfOUT_120_24_3_KINGCOBRA","KINGCOBRA",3,0.0416666666666667,120,"avoidance"
"ssfOUT_120_24_3_KINGCOBRA.35",-0.705624843994408,-1.301530934144,-0.109718753844814,"ssf","mf.ss","exp","vonmises",500,"ssfOUT_120_24_3_KINGCOBRA","KINGCOBRA",3,0.0416666666666667,120,"avoidance"
"ssfOUT_120_24_3_KINGCOBRA.36",-0.685699301269305,-1.40276799480166,0.0313693922630465,"ssf","mf.ss","exp","unif",5,"ssfOUT_120_24_3_KINGCOBRA","KINGCOBRA",3,0.0416666666666667,120,"no effect"
"ssfOUT_120_24_3_KINGCOBRA.37",-1.04578819630419,-1.70169848621815,-0.38987790639023,"ssf","mf.ss","exp","unif",15,"ssfOUT_120_24_3_KINGCOBRA","KINGCOBRA",3,0.0416666666666667,120,"avoidance"
"ssfOUT_120_24_3_KINGCOBRA.38",-0.460977181329253,-1.06582863247223,0.143874269813721,"ssf","mf.ss","exp","unif",50,"ssfOUT_120_24_3_KINGCOBRA","KINGCOBRA",3,0.0416666666666667,120,"no effect"
"ssfOUT_120_24_3_KINGCOBRA.39",-0.684923760115585,-1.28727749255269,-0.0825700276784801,"ssf","mf.ss","exp","unif",158,"ssfOUT_120_24_3_KINGCOBRA","KINGCOBRA",3,0.0416666666666667,120,"avoidance"
"ssfOUT_120_24_3_KINGCOBRA.40",-0.597445270020318,-1.19539982868283,0.000509288642191241,"ssf","mf.ss","exp","unif",500,"ssfOUT_120_24_3_KINGCOBRA","KINGCOBRA",3,0.0416666666666667,120,"no effect"
"ssfOUT_120_24_4_BADGER.1",-2.44453028526059,-3.16282513596912,-1.72623543455207,"ssf","mf.is","gamma","vonmises",5,"ssfOUT_120_24_4_BADGER","BADGER",4,0.0416666666666667,120,"avoidance"
"ssfOUT_120_24_4_BADGER.2",-0.729099835689544,-1.22416953500374,-0.234030136375347,"ssf","mf.is","gamma","vonmises",15,"ssfOUT_120_24_4_BADGER","BADGER",4,0.0416666666666667,120,"avoidance"
"ssfOUT_120_24_4_BADGER.3",-0.986023458557105,-1.42298168521152,-0.549065231902691,"ssf","mf.is","gamma","vonmises",50,"ssfOUT_120_24_4_BADGER","BADGER",4,0.0416666666666667,120,"avoidance"
"ssfOUT_120_24_4_BADGER.4",-0.856955245531837,-1.27373295614828,-0.440177534915398,"ssf","mf.is","gamma","vonmises",158,"ssfOUT_120_24_4_BADGER","BADGER",4,0.0416666666666667,120,"avoidance"
"ssfOUT_120_24_4_BADGER.5",-1.00878923186012,-1.42150178036338,-0.596076683356854,"ssf","mf.is","gamma","vonmises",500,"ssfOUT_120_24_4_BADGER","BADGER",4,0.0416666666666667,120,"avoidance"
"ssfOUT_120_24_4_BADGER.6",-1.26569468531299,-1.78305414232229,-0.748335228303703,"ssf","mf.is","gamma","unif",5,"ssfOUT_120_24_4_BADGER","BADGER",4,0.0416666666666667,120,"avoidance"
"ssfOUT_120_24_4_BADGER.7",-1.00509529495489,-1.4539913410008,-0.556199248908978,"ssf","mf.is","gamma","unif",15,"ssfOUT_120_24_4_BADGER","BADGER",4,0.0416666666666667,120,"avoidance"
"ssfOUT_120_24_4_BADGER.8",-0.879324153844267,-1.29526077372811,-0.463387533960424,"ssf","mf.is","gamma","unif",50,"ssfOUT_120_24_4_BADGER","BADGER",4,0.0416666666666667,120,"avoidance"
"ssfOUT_120_24_4_BADGER.9",-0.969629172377713,-1.38173528950501,-0.557523055250414,"ssf","mf.is","gamma","unif",158,"ssfOUT_120_24_4_BADGER","BADGER",4,0.0416666666666667,120,"avoidance"
"ssfOUT_120_24_4_BADGER.10",-0.958774601249916,-1.36933846407871,-0.548210738421124,"ssf","mf.is","gamma","unif",500,"ssfOUT_120_24_4_BADGER","BADGER",4,0.0416666666666667,120,"avoidance"
"ssfOUT_120_24_4_BADGER.11",-1.29126584782966,-2.05283190170123,-0.529699793958085,"ssf","mf.is","exp","vonmises",5,"ssfOUT_120_24_4_BADGER","BADGER",4,0.0416666666666667,120,"avoidance"
"ssfOUT_120_24_4_BADGER.12",-1.44403714139584,-1.96112806744343,-0.926946215348261,"ssf","mf.is","exp","vonmises",15,"ssfOUT_120_24_4_BADGER","BADGER",4,0.0416666666666667,120,"avoidance"
"ssfOUT_120_24_4_BADGER.13",-1.15510580054557,-1.60789883331775,-0.70231276777339,"ssf","mf.is","exp","vonmises",50,"ssfOUT_120_24_4_BADGER","BADGER",4,0.0416666666666667,120,"avoidance"
"ssfOUT_120_24_4_BADGER.14",-0.920941733534647,-1.33632745309174,-0.505556013977553,"ssf","mf.is","exp","vonmises",158,"ssfOUT_120_24_4_BADGER","BADGER",4,0.0416666666666667,120,"avoidance"
"ssfOUT_120_24_4_BADGER.15",-1.11142681808692,-1.52421486821725,-0.698638767956589,"ssf","mf.is","exp","vonmises",500,"ssfOUT_120_24_4_BADGER","BADGER",4,0.0416666666666667,120,"avoidance"
"ssfOUT_120_24_4_BADGER.16",-0.474695613446792,-0.983848569696402,0.0344573428028188,"ssf","mf.is","exp","unif",5,"ssfOUT_120_24_4_BADGER","BADGER",4,0.0416666666666667,120,"no effect"
"ssfOUT_120_24_4_BADGER.17",-1.19917852457087,-1.66001689825094,-0.738340150890799,"ssf","mf.is","exp","unif",15,"ssfOUT_120_24_4_BADGER","BADGER",4,0.0416666666666667,120,"avoidance"
"ssfOUT_120_24_4_BADGER.18",-0.860807049294617,-1.28707147615448,-0.434542622434755,"ssf","mf.is","exp","unif",50,"ssfOUT_120_24_4_BADGER","BADGER",4,0.0416666666666667,120,"avoidance"
"ssfOUT_120_24_4_BADGER.19",-1.00816420490856,-1.42278324528853,-0.593545164528599,"ssf","mf.is","exp","unif",158,"ssfOUT_120_24_4_BADGER","BADGER",4,0.0416666666666667,120,"avoidance"
"ssfOUT_120_24_4_BADGER.20",-1.00429952305065,-1.41527779885202,-0.593321247249273,"ssf","mf.is","exp","unif",500,"ssfOUT_120_24_4_BADGER","BADGER",4,0.0416666666666667,120,"avoidance"
"ssfOUT_120_24_4_BADGER.21",-1.27369370870303,-1.7895294690903,-0.75785794831576,"ssf","mf.ss","gamma","vonmises",5,"ssfOUT_120_24_4_BADGER","BADGER",4,0.0416666666666667,120,"avoidance"
"ssfOUT_120_24_4_BADGER.22",-0.810698100851361,-1.2452089781633,-0.37618722353942,"ssf","mf.ss","gamma","vonmises",15,"ssfOUT_120_24_4_BADGER","BADGER",4,0.0416666666666667,120,"avoidance"
"ssfOUT_120_24_4_BADGER.23",-0.743845677585424,-1.15669060363644,-0.33100075153441,"ssf","mf.ss","gamma","vonmises",50,"ssfOUT_120_24_4_BADGER","BADGER",4,0.0416666666666667,120,"avoidance"
"ssfOUT_120_24_4_BADGER.24",-0.826599779478835,-1.23569478082415,-0.417504778133521,"ssf","mf.ss","gamma","vonmises",158,"ssfOUT_120_24_4_BADGER","BADGER",4,0.0416666666666667,120,"avoidance"
"ssfOUT_120_24_4_BADGER.25",-0.880655923134554,-1.28724529879689,-0.474066547472216,"ssf","mf.ss","gamma","vonmises",500,"ssfOUT_120_24_4_BADGER","BADGER",4,0.0416666666666667,120,"avoidance"
"ssfOUT_120_24_4_BADGER.26",-1.04472205569084,-1.53107413294297,-0.558369978438702,"ssf","mf.ss","gamma","unif",5,"ssfOUT_120_24_4_BADGER","BADGER",4,0.0416666666666667,120,"avoidance"
"ssfOUT_120_24_4_BADGER.27",-0.840478024650778,-1.2710595932739,-0.409896456027659,"ssf","mf.ss","gamma","unif",15,"ssfOUT_120_24_4_BADGER","BADGER",4,0.0416666666666667,120,"avoidance"
"ssfOUT_120_24_4_BADGER.28",-0.805379036226851,-1.21747985668968,-0.393278215764019,"ssf","mf.ss","gamma","unif",50,"ssfOUT_120_24_4_BADGER","BADGER",4,0.0416666666666667,120,"avoidance"
"ssfOUT_120_24_4_BADGER.29",-0.899046314853074,-1.30686916703624,-0.491223462669905,"ssf","mf.ss","gamma","unif",158,"ssfOUT_120_24_4_BADGER","BADGER",4,0.0416666666666667,120,"avoidance"
"ssfOUT_120_24_4_BADGER.30",-0.911194397817377,-1.31818089323893,-0.504207902395826,"ssf","mf.ss","gamma","unif",500,"ssfOUT_120_24_4_BADGER","BADGER",4,0.0416666666666667,120,"avoidance"
"ssfOUT_120_24_4_BADGER.31",-1.19529677488562,-1.72261140114087,-0.667982148630364,"ssf","mf.ss","exp","vonmises",5,"ssfOUT_120_24_4_BADGER","BADGER",4,0.0416666666666667,120,"avoidance"
"ssfOUT_120_24_4_BADGER.32",-0.863605316723139,-1.29667190084514,-0.430538732601141,"ssf","mf.ss","exp","vonmises",15,"ssfOUT_120_24_4_BADGER","BADGER",4,0.0416666666666667,120,"avoidance"
"ssfOUT_120_24_4_BADGER.33",-0.896081129974589,-1.31522174417852,-0.476940515770658,"ssf","mf.ss","exp","vonmises",50,"ssfOUT_120_24_4_BADGER","BADGER",4,0.0416666666666667,120,"avoidance"
"ssfOUT_120_24_4_BADGER.34",-0.783048064859168,-1.19559714143355,-0.370498988284783,"ssf","mf.ss","exp","vonmises",158,"ssfOUT_120_24_4_BADGER","BADGER",4,0.0416666666666667,120,"avoidance"
"ssfOUT_120_24_4_BADGER.35",-0.81568364588771,-1.22752973844689,-0.403837553328532,"ssf","mf.ss","exp","vonmises",500,"ssfOUT_120_24_4_BADGER","BADGER",4,0.0416666666666667,120,"avoidance"
"ssfOUT_120_24_4_BADGER.36",-0.423766737316884,-0.886556477830243,0.0390230031964753,"ssf","mf.ss","exp","unif",5,"ssfOUT_120_24_4_BADGER","BADGER",4,0.0416666666666667,120,"no effect"
"ssfOUT_120_24_4_BADGER.37",-0.783773088363871,-1.21421450306967,-0.353331673658069,"ssf","mf.ss","exp","unif",15,"ssfOUT_120_24_4_BADGER","BADGER",4,0.0416666666666667,120,"avoidance"
"ssfOUT_120_24_4_BADGER.38",-0.724004503276849,-1.14482769824903,-0.303181308304672,"ssf","mf.ss","exp","unif",50,"ssfOUT_120_24_4_BADGER","BADGER",4,0.0416666666666667,120,"avoidance"
"ssfOUT_120_24_4_BADGER.39",-0.79582037344585,-1.20848711280963,-0.383153634082074,"ssf","mf.ss","exp","unif",158,"ssfOUT_120_24_4_BADGER","BADGER",4,0.0416666666666667,120,"avoidance"
"ssfOUT_120_24_4_BADGER.40",-0.788028171950319,-1.19983506079902,-0.376221283101616,"ssf","mf.ss","exp","unif",500,"ssfOUT_120_24_4_BADGER","BADGER",4,0.0416666666666667,120,"avoidance"
"ssfOUT_120_24_4_VULTURE.1",-0.0229076882380427,-0.730897238376919,0.685081861900833,"ssf","mf.is","gamma","vonmises",5,"ssfOUT_120_24_4_VULTURE","VULTURE",4,0.0416666666666667,120,"no effect"
"ssfOUT_120_24_4_VULTURE.2",0.358113247735642,-0.294462309059054,1.01068880453034,"ssf","mf.is","gamma","vonmises",15,"ssfOUT_120_24_4_VULTURE","VULTURE",4,0.0416666666666667,120,"no effect"
"ssfOUT_120_24_4_VULTURE.3",0.368853763079868,-0.241883670685709,0.979591196845446,"ssf","mf.is","gamma","vonmises",50,"ssfOUT_120_24_4_VULTURE","VULTURE",4,0.0416666666666667,120,"no effect"
"ssfOUT_120_24_4_VULTURE.4",0.366655144514703,-0.233327710526077,0.966637999555483,"ssf","mf.is","gamma","vonmises",158,"ssfOUT_120_24_4_VULTURE","VULTURE",4,0.0416666666666667,120,"no effect"
"ssfOUT_120_24_4_VULTURE.5",0.38618022129454,-0.209931046848164,0.982291489437244,"ssf","mf.is","gamma","vonmises",500,"ssfOUT_120_24_4_VULTURE","VULTURE",4,0.0416666666666667,120,"no effect"
"ssfOUT_120_24_4_VULTURE.6",0.38638961452704,-0.24686133378294,1.01964056283702,"ssf","mf.is","gamma","unif",5,"ssfOUT_120_24_4_VULTURE","VULTURE",4,0.0416666666666667,120,"no effect"
"ssfOUT_120_24_4_VULTURE.7",-0.0282482452758542,-0.647703687639098,0.59120719708739,"ssf","mf.is","gamma","unif",15,"ssfOUT_120_24_4_VULTURE","VULTURE",4,0.0416666666666667,120,"no effect"
"ssfOUT_120_24_4_VULTURE.8",0.297364662434154,-0.306583107959712,0.901312432828021,"ssf","mf.is","gamma","unif",50,"ssfOUT_120_24_4_VULTURE","VULTURE",4,0.0416666666666667,120,"no effect"
"ssfOUT_120_24_4_VULTURE.9",0.341552645277411,-0.25563373221753,0.938739022772353,"ssf","mf.is","gamma","unif",158,"ssfOUT_120_24_4_VULTURE","VULTURE",4,0.0416666666666667,120,"no effect"
"ssfOUT_120_24_4_VULTURE.10",0.289826598831799,-0.305949875413681,0.88560307307728,"ssf","mf.is","gamma","unif",500,"ssfOUT_120_24_4_VULTURE","VULTURE",4,0.0416666666666667,120,"no effect"
"ssfOUT_120_24_4_VULTURE.11",-0.619810021634798,-1.55944955778074,0.319829514511142,"ssf","mf.is","exp","vonmises",5,"ssfOUT_120_24_4_VULTURE","VULTURE",4,0.0416666666666667,120,"no effect"
"ssfOUT_120_24_4_VULTURE.12",0.315152992158388,-0.378031377350273,1.00833736166705,"ssf","mf.is","exp","vonmises",15,"ssfOUT_120_24_4_VULTURE","VULTURE",4,0.0416666666666667,120,"no effect"
"ssfOUT_120_24_4_VULTURE.13",0.0944153146334692,-0.525174871352727,0.714005500619665,"ssf","mf.is","exp","vonmises",50,"ssfOUT_120_24_4_VULTURE","VULTURE",4,0.0416666666666667,120,"no effect"
"ssfOUT_120_24_4_VULTURE.14",0.339782958751332,-0.264669725522683,0.944235643025347,"ssf","mf.is","exp","vonmises",158,"ssfOUT_120_24_4_VULTURE","VULTURE",4,0.0416666666666667,120,"no effect"
"ssfOUT_120_24_4_VULTURE.15",0.298476557121388,-0.299348761222967,0.896301875465744,"ssf","mf.is","exp","vonmises",500,"ssfOUT_120_24_4_VULTURE","VULTURE",4,0.0416666666666667,120,"no effect"
"ssfOUT_120_24_4_VULTURE.16",0.425109026159618,-0.258782488834117,1.10900054115335,"ssf","mf.is","exp","unif",5,"ssfOUT_120_24_4_VULTURE","VULTURE",4,0.0416666666666667,120,"no effect"
"ssfOUT_120_24_4_VULTURE.17",0.37236572961017,-0.251050388216642,0.995781847436981,"ssf","mf.is","exp","unif",15,"ssfOUT_120_24_4_VULTURE","VULTURE",4,0.0416666666666667,120,"no effect"
"ssfOUT_120_24_4_VULTURE.18",0.219501231615769,-0.383547106124316,0.822549569355855,"ssf","mf.is","exp","unif",50,"ssfOUT_120_24_4_VULTURE","VULTURE",4,0.0416666666666667,120,"no effect"
"ssfOUT_120_24_4_VULTURE.19",0.468110895728659,-0.130166786155018,1.06638857761234,"ssf","mf.is","exp","unif",158,"ssfOUT_120_24_4_VULTURE","VULTURE",4,0.0416666666666667,120,"no effect"
"ssfOUT_120_24_4_VULTURE.20",0.388825691022012,-0.206983523595512,0.984634905639535,"ssf","mf.is","exp","unif",500,"ssfOUT_120_24_4_VULTURE","VULTURE",4,0.0416666666666667,120,"no effect"
"ssfOUT_120_24_4_VULTURE.21",0.193619425263807,-0.443301158470997,0.830540008998611,"ssf","mf.ss","gamma","vonmises",5,"ssfOUT_120_24_4_VULTURE","VULTURE",4,0.0416666666666667,120,"no effect"
"ssfOUT_120_24_4_VULTURE.22",0.287714672589116,-0.320250105845902,0.895679451024133,"ssf","mf.ss","gamma","vonmises",15,"ssfOUT_120_24_4_VULTURE","VULTURE",4,0.0416666666666667,120,"no effect"
"ssfOUT_120_24_4_VULTURE.23",0.199300629071376,-0.398607204762637,0.797208462905389,"ssf","mf.ss","gamma","vonmises",50,"ssfOUT_120_24_4_VULTURE","VULTURE",4,0.0416666666666667,120,"no effect"
"ssfOUT_120_24_4_VULTURE.24",0.219135507165974,-0.376915921440885,0.815186935772832,"ssf","mf.ss","gamma","vonmises",158,"ssfOUT_120_24_4_VULTURE","VULTURE",4,0.0416666666666667,120,"no effect"
"ssfOUT_120_24_4_VULTURE.25",0.257230752576395,-0.337767346353216,0.852228851506006,"ssf","mf.ss","gamma","vonmises",500,"ssfOUT_120_24_4_VULTURE","VULTURE",4,0.0416666666666667,120,"no effect"
"ssfOUT_120_24_4_VULTURE.26",0.558227035532729,-0.0657706062985373,1.182224677364,"ssf","mf.ss","gamma","unif",5,"ssfOUT_120_24_4_VULTURE","VULTURE",4,0.0416666666666667,120,"no effect"
"ssfOUT_120_24_4_VULTURE.27",-0.0655588326788199,-0.678502353341522,0.547384687983883,"ssf","mf.ss","gamma","unif",15,"ssfOUT_120_24_4_VULTURE","VULTURE",4,0.0416666666666667,120,"no effect"
"ssfOUT_120_24_4_VULTURE.28",0.290253584118706,-0.309470759795091,0.889977928032503,"ssf","mf.ss","gamma","unif",50,"ssfOUT_120_24_4_VULTURE","VULTURE",4,0.0416666666666667,120,"no effect"
"ssfOUT_120_24_4_VULTURE.29",0.245028756234426,-0.35102708831419,0.841084600783042,"ssf","mf.ss","gamma","unif",158,"ssfOUT_120_24_4_VULTURE","VULTURE",4,0.0416666666666667,120,"no effect"
"ssfOUT_120_24_4_VULTURE.30",0.235378226704737,-0.359645336333928,0.830401789743403,"ssf","mf.ss","gamma","unif",500,"ssfOUT_120_24_4_VULTURE","VULTURE",4,0.0416666666666667,120,"no effect"
"ssfOUT_120_24_4_VULTURE.31",0.0131160764544123,-0.638799333691274,0.665031486600099,"ssf","mf.ss","exp","vonmises",5,"ssfOUT_120_24_4_VULTURE","VULTURE",4,0.0416666666666667,120,"no effect"
"ssfOUT_120_24_4_VULTURE.32",0.224914157035044,-0.384574127149216,0.834402441219305,"ssf","mf.ss","exp","vonmises",15,"ssfOUT_120_24_4_VULTURE","VULTURE",4,0.0416666666666667,120,"no effect"
"ssfOUT_120_24_4_VULTURE.33",0.138271500904959,-0.462899828881274,0.739442830691191,"ssf","mf.ss","exp","vonmises",50,"ssfOUT_120_24_4_VULTURE","VULTURE",4,0.0416666666666667,120,"no effect"
"ssfOUT_120_24_4_VULTURE.34",0.25986108733906,-0.33724112437608,0.8569632990542,"ssf","mf.ss","exp","vonmises",158,"ssfOUT_120_24_4_VULTURE","VULTURE",4,0.0416666666666667,120,"no effect"
"ssfOUT_120_24_4_VULTURE.35",0.209178312494037,-0.387789187224129,0.806145812212202,"ssf","mf.ss","exp","vonmises",500,"ssfOUT_120_24_4_VULTURE","VULTURE",4,0.0416666666666667,120,"no effect"
"ssfOUT_120_24_4_VULTURE.36",0.567873963541717,-0.0668994781657424,1.20264740524918,"ssf","mf.ss","exp","unif",5,"ssfOUT_120_24_4_VULTURE","VULTURE",4,0.0416666666666667,120,"no effect"
"ssfOUT_120_24_4_VULTURE.37",0.215247124549857,-0.396808316641623,0.827302565741337,"ssf","mf.ss","exp","unif",15,"ssfOUT_120_24_4_VULTURE","VULTURE",4,0.0416666666666667,120,"no effect"
"ssfOUT_120_24_4_VULTURE.38",0.188174979457358,-0.412201055594495,0.78855101450921,"ssf","mf.ss","exp","unif",50,"ssfOUT_120_24_4_VULTURE","VULTURE",4,0.0416666666666667,120,"no effect"
"ssfOUT_120_24_4_VULTURE.39",0.326954352755753,-0.270311426431312,0.924220131942817,"ssf","mf.ss","exp","unif",158,"ssfOUT_120_24_4_VULTURE","VULTURE",4,0.0416666666666667,120,"no effect"
"ssfOUT_120_24_4_VULTURE.40",0.271472840727464,-0.324647717848432,0.86759339930336,"ssf","mf.ss","exp","unif",500,"ssfOUT_120_24_4_VULTURE","VULTURE",4,0.0416666666666667,120,"no effect"
"ssfOUT_120_24_4_KINGCOBRA.1",17.30972180858,-3677.80988256641,3712.42932618357,"ssf","mf.is","gamma","vonmises",5,"ssfOUT_120_24_4_KINGCOBRA","KINGCOBRA",4,0.0416666666666667,120,"no effect"
"ssfOUT_120_24_4_KINGCOBRA.2",17.2566068156645,-3198.54935847962,3233.06257211095,"ssf","mf.is","gamma","vonmises",15,"ssfOUT_120_24_4_KINGCOBRA","KINGCOBRA",4,0.0416666666666667,120,"no effect"
"ssfOUT_120_24_4_KINGCOBRA.3",16.1696504290642,-2066.80073297375,2099.14003383188,"ssf","mf.is","gamma","vonmises",50,"ssfOUT_120_24_4_KINGCOBRA","KINGCOBRA",4,0.0416666666666667,120,"no effect"
"ssfOUT_120_24_4_KINGCOBRA.4",16.26669395724,-2034.7259780182,2067.25936593268,"ssf","mf.is","gamma","vonmises",158,"ssfOUT_120_24_4_KINGCOBRA","KINGCOBRA",4,0.0416666666666667,120,"no effect"
"ssfOUT_120_24_4_KINGCOBRA.5",16.2129182519471,-1916.25820747477,1948.68404397867,"ssf","mf.is","gamma","vonmises",500,"ssfOUT_120_24_4_KINGCOBRA","KINGCOBRA",4,0.0416666666666667,120,"no effect"
"ssfOUT_120_24_4_KINGCOBRA.6",17.2887326569005,-3481.88270750591,3516.46017281971,"ssf","mf.is","gamma","unif",5,"ssfOUT_120_24_4_KINGCOBRA","KINGCOBRA",4,0.0416666666666667,120,"no effect"
"ssfOUT_120_24_4_KINGCOBRA.7",17.1960390196589,-2878.44853871838,2912.8406167577,"ssf","mf.is","gamma","unif",15,"ssfOUT_120_24_4_KINGCOBRA","KINGCOBRA",4,0.0416666666666667,120,"no effect"
"ssfOUT_120_24_4_KINGCOBRA.8",16.1436841308054,-1950.36163344026,1982.64900170187,"ssf","mf.is","gamma","unif",50,"ssfOUT_120_24_4_KINGCOBRA","KINGCOBRA",4,0.0416666666666667,120,"no effect"
"ssfOUT_120_24_4_KINGCOBRA.9",16.1684134249766,-1874.57763035147,1906.91445720142,"ssf","mf.is","gamma","unif",158,"ssfOUT_120_24_4_KINGCOBRA","KINGCOBRA",4,0.0416666666666667,120,"no effect"
"ssfOUT_120_24_4_KINGCOBRA.10",16.1635722149642,-1883.81114772773,1916.13829215766,"ssf","mf.is","gamma","unif",500,"ssfOUT_120_24_4_KINGCOBRA","KINGCOBRA",4,0.0416666666666667,120,"no effect"
"ssfOUT_120_24_4_KINGCOBRA.11",17.4625289322412,-5315.90439629898,5350.82945416347,"ssf","mf.is","exp","vonmises",5,"ssfOUT_120_24_4_KINGCOBRA","KINGCOBRA",4,0.0416666666666667,120,"no effect"
"ssfOUT_120_24_4_KINGCOBRA.12",17.5478699560103,-3128.28572022743,3163.38146013945,"ssf","mf.is","exp","vonmises",15,"ssfOUT_120_24_4_KINGCOBRA","KINGCOBRA",4,0.0416666666666667,120,"no effect"
"ssfOUT_120_24_4_KINGCOBRA.13",16.5111253886182,-2398.72295219933,2431.74520297657,"ssf","mf.is","exp","vonmises",50,"ssfOUT_120_24_4_KINGCOBRA","KINGCOBRA",4,0.0416666666666667,120,"no effect"
"ssfOUT_120_24_4_KINGCOBRA.14",16.1933580528075,-1926.01421197287,1958.40092807848,"ssf","mf.is","exp","vonmises",158,"ssfOUT_120_24_4_KINGCOBRA","KINGCOBRA",4,0.0416666666666667,120,"no effect"
"ssfOUT_120_24_4_KINGCOBRA.15",16.2018614610163,-1967.38232680896,1999.786049731,"ssf","mf.is","exp","vonmises",500,"ssfOUT_120_24_4_KINGCOBRA","KINGCOBRA",4,0.0416666666666667,120,"no effect"
"ssfOUT_120_24_4_KINGCOBRA.16",17.5651315505388,-3752.2233297165,3787.35359281758,"ssf","mf.is","exp","unif",5,"ssfOUT_120_24_4_KINGCOBRA","KINGCOBRA",4,0.0416666666666667,120,"no effect"
"ssfOUT_120_24_4_KINGCOBRA.17",17.391279596413,-3747.68020723334,3782.46276642617,"ssf","mf.is","exp","unif",15,"ssfOUT_120_24_4_KINGCOBRA","KINGCOBRA",4,0.0416666666666667,120,"no effect"
"ssfOUT_120_24_4_KINGCOBRA.18",17.2723203633427,-3229.10264056501,3263.6472812917,"ssf","mf.is","exp","unif",50,"ssfOUT_120_24_4_KINGCOBRA","KINGCOBRA",4,0.0416666666666667,120,"no effect"
"ssfOUT_120_24_4_KINGCOBRA.19",16.2383395977006,-1925.50126380742,1957.97794300282,"ssf","mf.is","exp","unif",158,"ssfOUT_120_24_4_KINGCOBRA","KINGCOBRA",4,0.0416666666666667,120,"no effect"
"ssfOUT_120_24_4_KINGCOBRA.20",16.1375274774321,-1870.79564292153,1903.07069787639,"ssf","mf.is","exp","unif",500,"ssfOUT_120_24_4_KINGCOBRA","KINGCOBRA",4,0.0416666666666667,120,"no effect"
"ssfOUT_120_24_4_KINGCOBRA.21",17.3378796185793,-3820.86210286698,3855.53786210414,"ssf","mf.ss","gamma","vonmises",5,"ssfOUT_120_24_4_KINGCOBRA","KINGCOBRA",4,0.0416666666666667,120,"no effect"
"ssfOUT_120_24_4_KINGCOBRA.22",17.1140050862055,-3080.45893885329,3114.6869490257,"ssf","mf.ss","gamma","vonmises",15,"ssfOUT_120_24_4_KINGCOBRA","KINGCOBRA",4,0.0416666666666667,120,"no effect"
"ssfOUT_120_24_4_KINGCOBRA.23",16.0340389713603,-2104.50420278268,2136.5722807254,"ssf","mf.ss","gamma","vonmises",50,"ssfOUT_120_24_4_KINGCOBRA","KINGCOBRA",4,0.0416666666666667,120,"no effect"
"ssfOUT_120_24_4_KINGCOBRA.24",16.041643368962,-2029.39608361549,2061.47937035341,"ssf","mf.ss","gamma","vonmises",158,"ssfOUT_120_24_4_KINGCOBRA","KINGCOBRA",4,0.0416666666666667,120,"no effect"
"ssfOUT_120_24_4_KINGCOBRA.25",16.0288869235606,-1955.03087778196,1987.08865162909,"ssf","mf.ss","gamma","vonmises",500,"ssfOUT_120_24_4_KINGCOBRA","KINGCOBRA",4,0.0416666666666667,120,"no effect"
"ssfOUT_120_24_4_KINGCOBRA.26",17.349946472225,-3545.0366158327,3579.73650877715,"ssf","mf.ss","gamma","unif",5,"ssfOUT_120_24_4_KINGCOBRA","KINGCOBRA",4,0.0416666666666667,120,"no effect"
"ssfOUT_120_24_4_KINGCOBRA.27",17.1426590102097,-2899.19635471941,2933.48167273983,"ssf","mf.ss","gamma","unif",15,"ssfOUT_120_24_4_KINGCOBRA","KINGCOBRA",4,0.0416666666666667,120,"no effect"
"ssfOUT_120_24_4_KINGCOBRA.28",16.0602460106146,-1944.72029733054,1976.84078935177,"ssf","mf.ss","gamma","unif",50,"ssfOUT_120_24_4_KINGCOBRA","KINGCOBRA",4,0.0416666666666667,120,"no effect"
"ssfOUT_120_24_4_KINGCOBRA.29",16.034045604095,-1856.21998331175,1888.28807451994,"ssf","mf.ss","gamma","unif",158,"ssfOUT_120_24_4_KINGCOBRA","KINGCOBRA",4,0.0416666666666667,120,"no effect"
"ssfOUT_120_24_4_KINGCOBRA.30",16.0424263179675,-1868.0011978114,1900.08605044734,"ssf","mf.ss","gamma","unif",500,"ssfOUT_120_24_4_KINGCOBRA","KINGCOBRA",4,0.0416666666666667,120,"no effect"
"ssfOUT_120_24_4_KINGCOBRA.31",16.417526424252,-3201.97239439223,3234.80744724074,"ssf","mf.ss","exp","vonmises",5,"ssfOUT_120_24_4_KINGCOBRA","KINGCOBRA",4,0.0416666666666667,120,"no effect"
"ssfOUT_120_24_4_KINGCOBRA.32",17.1576420864545,-2933.15626371146,2967.47154788437,"ssf","mf.ss","exp","vonmises",15,"ssfOUT_120_24_4_KINGCOBRA","KINGCOBRA",4,0.0416666666666667,120,"no effect"
"ssfOUT_120_24_4_KINGCOBRA.33",16.0497044643107,-2302.87648737118,2334.9758962998,"ssf","mf.ss","exp","vonmises",50,"ssfOUT_120_24_4_KINGCOBRA","KINGCOBRA",4,0.0416666666666667,120,"no effect"
"ssfOUT_120_24_4_KINGCOBRA.34",16.0509703362501,-1951.91697450552,1984.01891517802,"ssf","mf.ss","exp","vonmises",158,"ssfOUT_120_24_4_KINGCOBRA","KINGCOBRA",4,0.0416666666666667,120,"no effect"
"ssfOUT_120_24_4_KINGCOBRA.35",16.0321338166489,-1966.44358543755,1998.50785307085,"ssf","mf.ss","exp","vonmises",500,"ssfOUT_120_24_4_KINGCOBRA","KINGCOBRA",4,0.0416666666666667,120,"no effect"
"ssfOUT_120_24_4_KINGCOBRA.36",17.2872854592418,-3655.65755648818,3690.23212740666,"ssf","mf.ss","exp","unif",5,"ssfOUT_120_24_4_KINGCOBRA","KINGCOBRA",4,0.0416666666666667,120,"no effect"
"ssfOUT_120_24_4_KINGCOBRA.37",17.1519203772081,-3709.80664324192,3744.11048399634,"ssf","mf.ss","exp","unif",15,"ssfOUT_120_24_4_KINGCOBRA","KINGCOBRA",4,0.0416666666666667,120,"no effect"
"ssfOUT_120_24_4_KINGCOBRA.38",17.0722391316832,-3227.63394020516,3261.77841846852,"ssf","mf.ss","exp","unif",50,"ssfOUT_120_24_4_KINGCOBRA","KINGCOBRA",4,0.0416666666666667,120,"no effect"
"ssfOUT_120_24_4_KINGCOBRA.39",16.0563513230553,-1909.20301975727,1941.31572240338,"ssf","mf.ss","exp","unif",158,"ssfOUT_120_24_4_KINGCOBRA","KINGCOBRA",4,0.0416666666666667,120,"no effect"
"ssfOUT_120_24_4_KINGCOBRA.40",16.0406118356041,-1857.8607170205,1889.94194069171,"ssf","mf.ss","exp","unif",500,"ssfOUT_120_24_4_KINGCOBRA","KINGCOBRA",4,0.0416666666666667,120,"no effect"
"ssfOUT_120_48_1_BADGER.1",15.7260026536491,-5385.83168958155,5417.28369488885,"ssf","mf.is","gamma","vonmises",5,"ssfOUT_120_48_1_BADGER","BADGER",1,0.0208333333333333,120,"no effect"
"ssfOUT_120_48_1_BADGER.2",17.3554458470959,-5059.01320789977,5093.72409959396,"ssf","mf.is","gamma","vonmises",15,"ssfOUT_120_48_1_BADGER","BADGER",1,0.0208333333333333,120,"no effect"
"ssfOUT_120_48_1_BADGER.3",16.4325629459878,-3101.05182206343,3133.91694795541,"ssf","mf.is","gamma","vonmises",50,"ssfOUT_120_48_1_BADGER","BADGER",1,0.0208333333333333,120,"no effect"
"ssfOUT_120_48_1_BADGER.4",16.3455350214215,-2702.78143290208,2735.47250294493,"ssf","mf.is","gamma","vonmises",158,"ssfOUT_120_48_1_BADGER","BADGER",1,0.0208333333333333,120,"no effect"
"ssfOUT_120_48_1_BADGER.5",16.2465027138672,-2794.1157393117,2826.60874473943,"ssf","mf.is","gamma","vonmises",500,"ssfOUT_120_48_1_BADGER","BADGER",1,0.0208333333333333,120,"no effect"
"ssfOUT_120_48_1_BADGER.6",17.502347087472,-4584.05623222907,4619.06092640401,"ssf","mf.is","gamma","unif",5,"ssfOUT_120_48_1_BADGER","BADGER",1,0.0208333333333333,120,"no effect"
"ssfOUT_120_48_1_BADGER.7",17.1975087214263,-4064.64207210267,4099.03708954552,"ssf","mf.is","gamma","unif",15,"ssfOUT_120_48_1_BADGER","BADGER",1,0.0208333333333333,120,"no effect"
"ssfOUT_120_48_1_BADGER.8",16.2887766100582,-2896.58566256383,2929.16321578395,"ssf","mf.is","gamma","unif",50,"ssfOUT_120_48_1_BADGER","BADGER",1,0.0208333333333333,120,"no effect"
"ssfOUT_120_48_1_BADGER.9",16.1609924896135,-2752.19213071338,2784.5141156926,"ssf","mf.is","gamma","unif",158,"ssfOUT_120_48_1_BADGER","BADGER",1,0.0208333333333333,120,"no effect"
"ssfOUT_120_48_1_BADGER.10",16.1578626484834,-2629.14673171167,2661.46245700864,"ssf","mf.is","gamma","unif",500,"ssfOUT_120_48_1_BADGER","BADGER",1,0.0208333333333333,120,"no effect"
"ssfOUT_120_48_1_BADGER.11",16.8722038425791,-6414.71007276367,6448.45448044883,"ssf","mf.is","exp","vonmises",5,"ssfOUT_120_48_1_BADGER","BADGER",1,0.0208333333333333,120,"no effect"
"ssfOUT_120_48_1_BADGER.12",17.7228736419634,-5931.94751542874,5967.39326271267,"ssf","mf.is","exp","vonmises",15,"ssfOUT_120_48_1_BADGER","BADGER",1,0.0208333333333333,120,"no effect"
"ssfOUT_120_48_1_BADGER.13",16.7684225538249,-3062.87125589431,3096.40810100196,"ssf","mf.is","exp","vonmises",50,"ssfOUT_120_48_1_BADGER","BADGER",1,0.0208333333333333,120,"no effect"
"ssfOUT_120_48_1_BADGER.14",16.3107287583752,-2984.59358491522,3017.21504243197,"ssf","mf.is","exp","vonmises",158,"ssfOUT_120_48_1_BADGER","BADGER",1,0.0208333333333333,120,"no effect"
"ssfOUT_120_48_1_BADGER.15",16.4565947421261,-3003.13502803173,3036.04821751598,"ssf","mf.is","exp","vonmises",500,"ssfOUT_120_48_1_BADGER","BADGER",1,0.0208333333333333,120,"no effect"
"ssfOUT_120_48_1_BADGER.16",18.7222296458246,-6286.48911093984,6323.93357023149,"ssf","mf.is","exp","unif",5,"ssfOUT_120_48_1_BADGER","BADGER",1,0.0208333333333333,120,"no effect"
"ssfOUT_120_48_1_BADGER.17",17.6501121512907,-5411.8178830028,5447.11810730538,"ssf","mf.is","exp","unif",15,"ssfOUT_120_48_1_BADGER","BADGER",1,0.0208333333333333,120,"no effect"
"ssfOUT_120_48_1_BADGER.18",16.1197957424113,-3275.83415041159,3308.07374189642,"ssf","mf.is","exp","unif",50,"ssfOUT_120_48_1_BADGER","BADGER",1,0.0208333333333333,120,"no effect"
"ssfOUT_120_48_1_BADGER.19",16.3156385920445,-3183.52367357717,3216.15495076126,"ssf","mf.is","exp","unif",158,"ssfOUT_120_48_1_BADGER","BADGER",1,0.0208333333333333,120,"no effect"
"ssfOUT_120_48_1_BADGER.20",16.3208759111816,-2872.58122358795,2905.22297541031,"ssf","mf.is","exp","unif",500,"ssfOUT_120_48_1_BADGER","BADGER",1,0.0208333333333333,120,"no effect"
"ssfOUT_120_48_1_BADGER.21",17.296355778995,-6344.40938065354,6379.00209221153,"ssf","mf.ss","gamma","vonmises",5,"ssfOUT_120_48_1_BADGER","BADGER",1,0.0208333333333333,120,"no effect"
"ssfOUT_120_48_1_BADGER.22",17.2024358828715,-5177.07170241143,5211.47657417717,"ssf","mf.ss","gamma","vonmises",15,"ssfOUT_120_48_1_BADGER","BADGER",1,0.0208333333333333,120,"no effect"
"ssfOUT_120_48_1_BADGER.23",16.1478232431573,-3065.77766371415,3098.07331020046,"ssf","mf.ss","gamma","vonmises",50,"ssfOUT_120_48_1_BADGER","BADGER",1,0.0208333333333333,120,"no effect"
"ssfOUT_120_48_1_BADGER.24",16.1564143597648,-2691.26945327417,2723.5822819937,"ssf","mf.ss","gamma","vonmises",158,"ssfOUT_120_48_1_BADGER","BADGER",1,0.0208333333333333,120,"no effect"
"ssfOUT_120_48_1_BADGER.25",16.1562176993511,-2793.3402060612,2825.6526414599,"ssf","mf.ss","gamma","vonmises",500,"ssfOUT_120_48_1_BADGER","BADGER",1,0.0208333333333333,120,"no effect"
"ssfOUT_120_48_1_BADGER.26",17.4259723422285,-4806.09911641612,4840.95106110057,"ssf","mf.ss","gamma","unif",5,"ssfOUT_120_48_1_BADGER","BADGER",1,0.0208333333333333,120,"no effect"
"ssfOUT_120_48_1_BADGER.27",17.1860196096931,-4036.02104169245,4070.39308091183,"ssf","mf.ss","gamma","unif",15,"ssfOUT_120_48_1_BADGER","BADGER",1,0.0208333333333333,120,"no effect"
"ssfOUT_120_48_1_BADGER.28",16.1665778409247,-2905.40951054829,2937.74266623014,"ssf","mf.ss","gamma","unif",50,"ssfOUT_120_48_1_BADGER","BADGER",1,0.0208333333333333,120,"no effect"
"ssfOUT_120_48_1_BADGER.29",16.1296373291118,-2734.12355213237,2766.38282679059,"ssf","mf.ss","gamma","unif",158,"ssfOUT_120_48_1_BADGER","BADGER",1,0.0208333333333333,120,"no effect"
"ssfOUT_120_48_1_BADGER.30",16.1265518482591,-2623.48377264223,2655.73687633875,"ssf","mf.ss","gamma","unif",500,"ssfOUT_120_48_1_BADGER","BADGER",1,0.0208333333333333,120,"no effect"
"ssfOUT_120_48_1_BADGER.31",17.4337960377085,-6352.90990795539,6387.7775000308,"ssf","mf.ss","exp","vonmises",5,"ssfOUT_120_48_1_BADGER","BADGER",1,0.0208333333333333,120,"no effect"
"ssfOUT_120_48_1_BADGER.32",16.1733160228923,-3515.8051974624,3548.15182950818,"ssf","mf.ss","exp","vonmises",15,"ssfOUT_120_48_1_BADGER","BADGER",1,0.0208333333333333,120,"no effect"
"ssfOUT_120_48_1_BADGER.33",16.1944951724073,-2936.2566465012,2968.64563684601,"ssf","mf.ss","exp","vonmises",50,"ssfOUT_120_48_1_BADGER","BADGER",1,0.0208333333333333,120,"no effect"
"ssfOUT_120_48_1_BADGER.34",16.1622661279483,-2997.36867861747,3029.69321087337,"ssf","mf.ss","exp","vonmises",158,"ssfOUT_120_48_1_BADGER","BADGER",1,0.0208333333333333,120,"no effect"
"ssfOUT_120_48_1_BADGER.35",16.1536303380352,-2899.21108842273,2931.5183490988,"ssf","mf.ss","exp","vonmises",500,"ssfOUT_120_48_1_BADGER","BADGER",1,0.0208333333333333,120,"no effect"
"ssfOUT_120_48_1_BADGER.36",18.4476117315736,-6166.0072064642,6202.90242992735,"ssf","mf.ss","exp","unif",5,"ssfOUT_120_48_1_BADGER","BADGER",1,0.0208333333333333,120,"no effect"
"ssfOUT_120_48_1_BADGER.37",17.2375692166902,-5204.87356684472,5239.3487052781,"ssf","mf.ss","exp","unif",15,"ssfOUT_120_48_1_BADGER","BADGER",1,0.0208333333333333,120,"no effect"
"ssfOUT_120_48_1_BADGER.38",16.171265163111,-3352.10543439645,3384.44796472267,"ssf","mf.ss","exp","unif",50,"ssfOUT_120_48_1_BADGER","BADGER",1,0.0208333333333333,120,"no effect"
"ssfOUT_120_48_1_BADGER.39",16.1133961480622,-3116.20818227524,3148.43497457136,"ssf","mf.ss","exp","unif",158,"ssfOUT_120_48_1_BADGER","BADGER",1,0.0208333333333333,120,"no effect"
"ssfOUT_120_48_1_BADGER.40",16.1384687531673,-2800.52343056264,2832.80036806898,"ssf","mf.ss","exp","unif",500,"ssfOUT_120_48_1_BADGER","BADGER",1,0.0208333333333333,120,"no effect"
"ssfOUT_120_48_1_VULTURE.1",0.478008407636716,-0.729282894421629,1.68529970969506,"ssf","mf.is","gamma","vonmises",5,"ssfOUT_120_48_1_VULTURE","VULTURE",1,0.0208333333333333,120,"no effect"
"ssfOUT_120_48_1_VULTURE.2",1.5367530478646,0.422824720106962,2.65068137562224,"ssf","mf.is","gamma","vonmises",15,"ssfOUT_120_48_1_VULTURE","VULTURE",1,0.0208333333333333,120,"preference"
"ssfOUT_120_48_1_VULTURE.3",0.862341594830813,-0.182103320394978,1.9067865100566,"ssf","mf.is","gamma","vonmises",50,"ssfOUT_120_48_1_VULTURE","VULTURE",1,0.0208333333333333,120,"no effect"
"ssfOUT_120_48_1_VULTURE.4",0.887798433424376,-0.140585948692526,1.91618281554128,"ssf","mf.is","gamma","vonmises",158,"ssfOUT_120_48_1_VULTURE","VULTURE",1,0.0208333333333333,120,"no effect"
"ssfOUT_120_48_1_VULTURE.5",0.843143840665313,-0.178000359545183,1.86428804087581,"ssf","mf.is","gamma","vonmises",500,"ssfOUT_120_48_1_VULTURE","VULTURE",1,0.0208333333333333,120,"no effect"
"ssfOUT_120_48_1_VULTURE.6",-0.34336297302959,-1.56056537030963,0.873839424250449,"ssf","mf.is","gamma","unif",5,"ssfOUT_120_48_1_VULTURE","VULTURE",1,0.0208333333333333,120,"no effect"
"ssfOUT_120_48_1_VULTURE.7",1.0426199210785,0.00827965807791675,2.07696018407907,"ssf","mf.is","gamma","unif",15,"ssfOUT_120_48_1_VULTURE","VULTURE",1,0.0208333333333333,120,"preference"
"ssfOUT_120_48_1_VULTURE.8",0.793185088351236,-0.242045983177054,1.82841615987953,"ssf","mf.is","gamma","unif",50,"ssfOUT_120_48_1_VULTURE","VULTURE",1,0.0208333333333333,120,"no effect"
"ssfOUT_120_48_1_VULTURE.9",0.647778669393966,-0.374251481375202,1.66980882016313,"ssf","mf.is","gamma","unif",158,"ssfOUT_120_48_1_VULTURE","VULTURE",1,0.0208333333333333,120,"no effect"
"ssfOUT_120_48_1_VULTURE.10",0.74333672822356,-0.276958852965448,1.76363230941257,"ssf","mf.is","gamma","unif",500,"ssfOUT_120_48_1_VULTURE","VULTURE",1,0.0208333333333333,120,"no effect"
"ssfOUT_120_48_1_VULTURE.11",0.831873641860473,-0.536515884241165,2.20026316796211,"ssf","mf.is","exp","vonmises",5,"ssfOUT_120_48_1_VULTURE","VULTURE",1,0.0208333333333333,120,"no effect"
"ssfOUT_120_48_1_VULTURE.12",1.06139733412049,-0.0405379472403329,2.16333261548131,"ssf","mf.is","exp","vonmises",15,"ssfOUT_120_48_1_VULTURE","VULTURE",1,0.0208333333333333,120,"no effect"
"ssfOUT_120_48_1_VULTURE.13",0.895581950936463,-0.145417001737903,1.93658090361083,"ssf","mf.is","exp","vonmises",50,"ssfOUT_120_48_1_VULTURE","VULTURE",1,0.0208333333333333,120,"no effect"
"ssfOUT_120_48_1_VULTURE.14",0.890300947312457,-0.138753280285671,1.91935517491059,"ssf","mf.is","exp","vonmises",158,"ssfOUT_120_48_1_VULTURE","VULTURE",1,0.0208333333333333,120,"no effect"
"ssfOUT_120_48_1_VULTURE.15",0.605641264457712,-0.415316345013621,1.62659887392905,"ssf","mf.is","exp","vonmises",500,"ssfOUT_120_48_1_VULTURE","VULTURE",1,0.0208333333333333,120,"no effect"
"ssfOUT_120_48_1_VULTURE.16",1.15884268848076,-0.057513823706856,2.37519920066837,"ssf","mf.is","exp","unif",5,"ssfOUT_120_48_1_VULTURE","VULTURE",1,0.0208333333333333,120,"no effect"
"ssfOUT_120_48_1_VULTURE.17",0.925160021421612,-0.132121269995133,1.98244131283836,"ssf","mf.is","exp","unif",15,"ssfOUT_120_48_1_VULTURE","VULTURE",1,0.0208333333333333,120,"no effect"
"ssfOUT_120_48_1_VULTURE.18",0.572061854781367,-0.465470551414423,1.60959426097716,"ssf","mf.is","exp","unif",50,"ssfOUT_120_48_1_VULTURE","VULTURE",1,0.0208333333333333,120,"no effect"
"ssfOUT_120_48_1_VULTURE.19",0.672640627334767,-0.351417649726537,1.69669890439607,"ssf","mf.is","exp","unif",158,"ssfOUT_120_48_1_VULTURE","VULTURE",1,0.0208333333333333,120,"no effect"
"ssfOUT_120_48_1_VULTURE.20",0.828410716480878,-0.192449226810935,1.84927065977269,"ssf","mf.is","exp","unif",500,"ssfOUT_120_48_1_VULTURE","VULTURE",1,0.0208333333333333,120,"no effect"
"ssfOUT_120_48_1_VULTURE.21",0.589652250147178,-0.494491662458154,1.67379616275251,"ssf","mf.ss","gamma","vonmises",5,"ssfOUT_120_48_1_VULTURE","VULTURE",1,0.0208333333333333,120,"no effect"
"ssfOUT_120_48_1_VULTURE.22",0.659060948386814,-0.382262253462249,1.70038415023588,"ssf","mf.ss","gamma","vonmises",15,"ssfOUT_120_48_1_VULTURE","VULTURE",1,0.0208333333333333,120,"no effect"
"ssfOUT_120_48_1_VULTURE.23",0.501347909524012,-0.52731436028044,1.53001017932846,"ssf","mf.ss","gamma","vonmises",50,"ssfOUT_120_48_1_VULTURE","VULTURE",1,0.0208333333333333,120,"no effect"
"ssfOUT_120_48_1_VULTURE.24",0.515878584510138,-0.50399412350764,1.53575129252792,"ssf","mf.ss","gamma","vonmises",158,"ssfOUT_120_48_1_VULTURE","VULTURE",1,0.0208333333333333,120,"no effect"
"ssfOUT_120_48_1_VULTURE.25",0.552538752807862,-0.465208315902544,1.57028582151827,"ssf","mf.ss","gamma","vonmises",500,"ssfOUT_120_48_1_VULTURE","VULTURE",1,0.0208333333333333,120,"no effect"
"ssfOUT_120_48_1_VULTURE.26",-0.117296068872159,-1.25529232026389,1.02070018251958,"ssf","mf.ss","gamma","unif",5,"ssfOUT_120_48_1_VULTURE","VULTURE",1,0.0208333333333333,120,"no effect"
"ssfOUT_120_48_1_VULTURE.27",0.983570961479557,-0.0437977844015187,2.01093970736063,"ssf","mf.ss","gamma","unif",15,"ssfOUT_120_48_1_VULTURE","VULTURE",1,0.0208333333333333,120,"no effect"
"ssfOUT_120_48_1_VULTURE.28",0.521258893499406,-0.505400302302354,1.54791808930117,"ssf","mf.ss","gamma","unif",50,"ssfOUT_120_48_1_VULTURE","VULTURE",1,0.0208333333333333,120,"no effect"
"ssfOUT_120_48_1_VULTURE.29",0.498736054005481,-0.520545690527953,1.51801779853892,"ssf","mf.ss","gamma","unif",158,"ssfOUT_120_48_1_VULTURE","VULTURE",1,0.0208333333333333,120,"no effect"
"ssfOUT_120_48_1_VULTURE.30",0.602551040936865,-0.415406611186469,1.6205086930602,"ssf","mf.ss","gamma","unif",500,"ssfOUT_120_48_1_VULTURE","VULTURE",1,0.0208333333333333,120,"no effect"
"ssfOUT_120_48_1_VULTURE.31",0.858900817135965,-0.212336513852848,1.93013814812478,"ssf","mf.ss","exp","vonmises",5,"ssfOUT_120_48_1_VULTURE","VULTURE",1,0.0208333333333333,120,"no effect"
"ssfOUT_120_48_1_VULTURE.32",0.460121967698886,-0.590249835504443,1.51049377090221,"ssf","mf.ss","exp","vonmises",15,"ssfOUT_120_48_1_VULTURE","VULTURE",1,0.0208333333333333,120,"no effect"
"ssfOUT_120_48_1_VULTURE.33",0.669087570266195,-0.355418750245694,1.69359389077808,"ssf","mf.ss","exp","vonmises",50,"ssfOUT_120_48_1_VULTURE","VULTURE",1,0.0208333333333333,120,"no effect"
"ssfOUT_120_48_1_VULTURE.34",0.457523981641353,-0.564605027455553,1.47965299073826,"ssf","mf.ss","exp","vonmises",158,"ssfOUT_120_48_1_VULTURE","VULTURE",1,0.0208333333333333,120,"no effect"
"ssfOUT_120_48_1_VULTURE.35",0.495548946431081,-0.525499028304183,1.51659692116635,"ssf","mf.ss","exp","vonmises",500,"ssfOUT_120_48_1_VULTURE","VULTURE",1,0.0208333333333333,120,"no effect"
"ssfOUT_120_48_1_VULTURE.36",0.682707832204679,-0.392696603976703,1.75811226838606,"ssf","mf.ss","exp","unif",5,"ssfOUT_120_48_1_VULTURE","VULTURE",1,0.0208333333333333,120,"no effect"
"ssfOUT_120_48_1_VULTURE.37",0.711465391701578,-0.329006198827597,1.75193698223075,"ssf","mf.ss","exp","unif",15,"ssfOUT_120_48_1_VULTURE","VULTURE",1,0.0208333333333333,120,"no effect"
"ssfOUT_120_48_1_VULTURE.38",0.440324566265826,-0.588709936990929,1.46935906952258,"ssf","mf.ss","exp","unif",50,"ssfOUT_120_48_1_VULTURE","VULTURE",1,0.0208333333333333,120,"no effect"
"ssfOUT_120_48_1_VULTURE.39",0.550430173929725,-0.471048529551779,1.57190887741123,"ssf","mf.ss","exp","unif",158,"ssfOUT_120_48_1_VULTURE","VULTURE",1,0.0208333333333333,120,"no effect"
"ssfOUT_120_48_1_VULTURE.40",0.594254330110372,-0.425520023717128,1.61402868393787,"ssf","mf.ss","exp","unif",500,"ssfOUT_120_48_1_VULTURE","VULTURE",1,0.0208333333333333,120,"no effect"
"ssfOUT_120_48_1_KINGCOBRA.1",17.3514448192571,-6775.81177152381,6810.51466116232,"ssf","mf.is","gamma","vonmises",5,"ssfOUT_120_48_1_KINGCOBRA","KINGCOBRA",1,0.0208333333333333,120,"no effect"
"ssfOUT_120_48_1_KINGCOBRA.2",16.2311317902395,-4071.87767009262,4104.3399336731,"ssf","mf.is","gamma","vonmises",15,"ssfOUT_120_48_1_KINGCOBRA","KINGCOBRA",1,0.0208333333333333,120,"no effect"
"ssfOUT_120_48_1_KINGCOBRA.3",16.6306269267672,-3338.18189939645,3371.44315324998,"ssf","mf.is","gamma","vonmises",50,"ssfOUT_120_48_1_KINGCOBRA","KINGCOBRA",1,0.0208333333333333,120,"no effect"
"ssfOUT_120_48_1_KINGCOBRA.4",16.4854634078263,-3768.68199445576,3801.65292127141,"ssf","mf.is","gamma","vonmises",158,"ssfOUT_120_48_1_KINGCOBRA","KINGCOBRA",1,0.0208333333333333,120,"no effect"
"ssfOUT_120_48_1_KINGCOBRA.5",15.4716525080355,-2345.12485674382,2376.06816175989,"ssf","mf.is","gamma","vonmises",500,"ssfOUT_120_48_1_KINGCOBRA","KINGCOBRA",1,0.0208333333333333,120,"no effect"
"ssfOUT_120_48_1_KINGCOBRA.6",15.7794458786142,-5662.80482370123,5694.36371545846,"ssf","mf.is","gamma","unif",5,"ssfOUT_120_48_1_KINGCOBRA","KINGCOBRA",1,0.0208333333333333,120,"no effect"
"ssfOUT_120_48_1_KINGCOBRA.7",16.0390424318522,-3643.25589189194,3675.33397675565,"ssf","mf.is","gamma","unif",15,"ssfOUT_120_48_1_KINGCOBRA","KINGCOBRA",1,0.0208333333333333,120,"no effect"
"ssfOUT_120_48_1_KINGCOBRA.8",16.1920162079708,-3849.27487758194,3881.65890999788,"ssf","mf.is","gamma","unif",50,"ssfOUT_120_48_1_KINGCOBRA","KINGCOBRA",1,0.0208333333333333,120,"no effect"
"ssfOUT_120_48_1_KINGCOBRA.9",16.1749664593681,-3318.48052703279,3350.83045995152,"ssf","mf.is","gamma","unif",158,"ssfOUT_120_48_1_KINGCOBRA","KINGCOBRA",1,0.0208333333333333,120,"no effect"
"ssfOUT_120_48_1_KINGCOBRA.10",16.2233954873677,-3637.6877449056,3670.13453588033,"ssf","mf.is","gamma","unif",500,"ssfOUT_120_48_1_KINGCOBRA","KINGCOBRA",1,0.0208333333333333,120,"no effect"
"ssfOUT_120_48_1_KINGCOBRA.11",8.21179371153642,-5650.54855790222,5666.97214532529,"ssf","mf.is","exp","vonmises",5,"ssfOUT_120_48_1_KINGCOBRA","KINGCOBRA",1,0.0208333333333333,120,"no effect"
"ssfOUT_120_48_1_KINGCOBRA.12",16.6996192250559,-5541.52338244727,5574.92262089739,"ssf","mf.is","exp","vonmises",15,"ssfOUT_120_48_1_KINGCOBRA","KINGCOBRA",1,0.0208333333333333,120,"no effect"
"ssfOUT_120_48_1_KINGCOBRA.13",16.4094076541028,-4210.03354934631,4242.85236465452,"ssf","mf.is","exp","vonmises",50,"ssfOUT_120_48_1_KINGCOBRA","KINGCOBRA",1,0.0208333333333333,120,"no effect"
"ssfOUT_120_48_1_KINGCOBRA.14",16.2840455427331,-3581.23711671026,3613.80520779573,"ssf","mf.is","exp","vonmises",158,"ssfOUT_120_48_1_KINGCOBRA","KINGCOBRA",1,0.0208333333333333,120,"no effect"
"ssfOUT_120_48_1_KINGCOBRA.15",16.2589270313402,-3556.90713134211,3589.42498540479,"ssf","mf.is","exp","vonmises",500,"ssfOUT_120_48_1_KINGCOBRA","KINGCOBRA",1,0.0208333333333333,120,"no effect"
"ssfOUT_120_48_1_KINGCOBRA.16",17.6022636082215,-4875.96961929153,4911.17414650798,"ssf","mf.is","exp","unif",5,"ssfOUT_120_48_1_KINGCOBRA","KINGCOBRA",1,0.0208333333333333,120,"no effect"
"ssfOUT_120_48_1_KINGCOBRA.17",17.4717424536766,-5042.55847653431,5077.50196144166,"ssf","mf.is","exp","unif",15,"ssfOUT_120_48_1_KINGCOBRA","KINGCOBRA",1,0.0208333333333333,120,"no effect"
"ssfOUT_120_48_1_KINGCOBRA.18",16.046943486807,-3247.0888174363,3279.18270440991,"ssf","mf.is","exp","unif",50,"ssfOUT_120_48_1_KINGCOBRA","KINGCOBRA",1,0.0208333333333333,120,"no effect"
"ssfOUT_120_48_1_KINGCOBRA.19",16.2569904494546,-3389.68360231461,3422.19758321352,"ssf","mf.is","exp","unif",158,"ssfOUT_120_48_1_KINGCOBRA","KINGCOBRA",1,0.0208333333333333,120,"no effect"
"ssfOUT_120_48_1_KINGCOBRA.20",16.1987727340383,-3524.52001409199,3556.91755956007,"ssf","mf.is","exp","unif",500,"ssfOUT_120_48_1_KINGCOBRA","KINGCOBRA",1,0.0208333333333333,120,"no effect"
"ssfOUT_120_48_1_KINGCOBRA.21",17.2452280892886,-6348.39830664946,6382.88876282803,"ssf","mf.ss","gamma","vonmises",5,"ssfOUT_120_48_1_KINGCOBRA","KINGCOBRA",1,0.0208333333333333,120,"no effect"
"ssfOUT_120_48_1_KINGCOBRA.22",16.0918923558837,-4034.99428469112,4067.17806940289,"ssf","mf.ss","gamma","vonmises",15,"ssfOUT_120_48_1_KINGCOBRA","KINGCOBRA",1,0.0208333333333333,120,"no effect"
"ssfOUT_120_48_1_KINGCOBRA.23",16.0477075777149,-3433.78156137217,3465.8769765276,"ssf","mf.ss","gamma","vonmises",50,"ssfOUT_120_48_1_KINGCOBRA","KINGCOBRA",1,0.0208333333333333,120,"no effect"
"ssfOUT_120_48_1_KINGCOBRA.24",16.0344319827884,-3791.67670248666,3823.74556645223,"ssf","mf.ss","gamma","vonmises",158,"ssfOUT_120_48_1_KINGCOBRA","KINGCOBRA",1,0.0208333333333333,120,"no effect"
"ssfOUT_120_48_1_KINGCOBRA.25",15.024051761369,-2242.41651812275,2272.46462164549,"ssf","mf.ss","gamma","vonmises",500,"ssfOUT_120_48_1_KINGCOBRA","KINGCOBRA",1,0.0208333333333333,120,"no effect"
"ssfOUT_120_48_1_KINGCOBRA.26",16.3169810794039,-5443.34163100233,5475.97559316114,"ssf","mf.ss","gamma","unif",5,"ssfOUT_120_48_1_KINGCOBRA","KINGCOBRA",1,0.0208333333333333,120,"no effect"
"ssfOUT_120_48_1_KINGCOBRA.27",16.150758537825,-3662.60747604191,3694.90899311756,"ssf","mf.ss","gamma","unif",15,"ssfOUT_120_48_1_KINGCOBRA","KINGCOBRA",1,0.0208333333333333,120,"no effect"
"ssfOUT_120_48_1_KINGCOBRA.28",16.0359015531464,-3847.7279237768,3879.7997268831,"ssf","mf.ss","gamma","unif",50,"ssfOUT_120_48_1_KINGCOBRA","KINGCOBRA",1,0.0208333333333333,120,"no effect"
"ssfOUT_120_48_1_KINGCOBRA.29",16.0452058577891,-3259.65325608535,3291.74366780093,"ssf","mf.ss","gamma","unif",158,"ssfOUT_120_48_1_KINGCOBRA","KINGCOBRA",1,0.0208333333333333,120,"no effect"
"ssfOUT_120_48_1_KINGCOBRA.30",16.0359043304149,-3545.23639950528,3577.30820816611,"ssf","mf.ss","gamma","unif",500,"ssfOUT_120_48_1_KINGCOBRA","KINGCOBRA",1,0.0208333333333333,120,"no effect"
"ssfOUT_120_48_1_KINGCOBRA.31",15.4309337141588,-4695.33310727815,4726.19497470646,"ssf","mf.ss","exp","vonmises",5,"ssfOUT_120_48_1_KINGCOBRA","KINGCOBRA",1,0.0208333333333333,120,"no effect"
"ssfOUT_120_48_1_KINGCOBRA.32",16.0934121577124,-4945.47146995953,4977.65829427495,"ssf","mf.ss","exp","vonmises",15,"ssfOUT_120_48_1_KINGCOBRA","KINGCOBRA",1,0.0208333333333333,120,"no effect"
"ssfOUT_120_48_1_KINGCOBRA.33",16.0410846628176,-4289.07795843543,4321.16012776107,"ssf","mf.ss","exp","vonmises",50,"ssfOUT_120_48_1_KINGCOBRA","KINGCOBRA",1,0.0208333333333333,120,"no effect"
"ssfOUT_120_48_1_KINGCOBRA.34",16.0293245405143,-3666.51104043712,3698.56968951815,"ssf","mf.ss","exp","vonmises",158,"ssfOUT_120_48_1_KINGCOBRA","KINGCOBRA",1,0.0208333333333333,120,"no effect"
"ssfOUT_120_48_1_KINGCOBRA.35",16.0217057250178,-3532.3224050653,3564.36581651534,"ssf","mf.ss","exp","vonmises",500,"ssfOUT_120_48_1_KINGCOBRA","KINGCOBRA",1,0.0208333333333333,120,"no effect"
"ssfOUT_120_48_1_KINGCOBRA.36",17.338562628413,-4792.8318832798,4827.50900853662,"ssf","mf.ss","exp","unif",5,"ssfOUT_120_48_1_KINGCOBRA","KINGCOBRA",1,0.0208333333333333,120,"no effect"
"ssfOUT_120_48_1_KINGCOBRA.37",17.1813273131778,-5097.63469150449,5131.99734613085,"ssf","mf.ss","exp","unif",15,"ssfOUT_120_48_1_KINGCOBRA","KINGCOBRA",1,0.0208333333333333,120,"no effect"
"ssfOUT_120_48_1_KINGCOBRA.38",16.0879972352321,-3237.75989315224,3269.93588762271,"ssf","mf.ss","exp","unif",50,"ssfOUT_120_48_1_KINGCOBRA","KINGCOBRA",1,0.0208333333333333,120,"no effect"
"ssfOUT_120_48_1_KINGCOBRA.39",16.0247232904569,-3428.31551241741,3460.36495899833,"ssf","mf.ss","exp","unif",158,"ssfOUT_120_48_1_KINGCOBRA","KINGCOBRA",1,0.0208333333333333,120,"no effect"
"ssfOUT_120_48_1_KINGCOBRA.40",16.040987411481,-3459.12588192679,3491.20785674975,"ssf","mf.ss","exp","unif",500,"ssfOUT_120_48_1_KINGCOBRA","KINGCOBRA",1,0.0208333333333333,120,"no effect"
"ssfOUT_120_48_2_BADGER.1",-0.731181180015585,-1.6350429343335,0.172680574302325,"ssf","mf.is","gamma","vonmises",5,"ssfOUT_120_48_2_BADGER","BADGER",2,0.0208333333333333,120,"no effect"
"ssfOUT_120_48_2_BADGER.2",-0.382962619980165,-1.06421261728193,0.298287377321596,"ssf","mf.is","gamma","vonmises",15,"ssfOUT_120_48_2_BADGER","BADGER",2,0.0208333333333333,120,"no effect"
"ssfOUT_120_48_2_BADGER.3",-0.430128749721829,-1.08404712456357,0.223789625119912,"ssf","mf.is","gamma","vonmises",50,"ssfOUT_120_48_2_BADGER","BADGER",2,0.0208333333333333,120,"no effect"
"ssfOUT_120_48_2_BADGER.4",-0.207049048112001,-0.829061703280221,0.414963607056219,"ssf","mf.is","gamma","vonmises",158,"ssfOUT_120_48_2_BADGER","BADGER",2,0.0208333333333333,120,"no effect"
"ssfOUT_120_48_2_BADGER.5",-0.37049338655165,-0.987335476593197,0.246348703489897,"ssf","mf.is","gamma","vonmises",500,"ssfOUT_120_48_2_BADGER","BADGER",2,0.0208333333333333,120,"no effect"
"ssfOUT_120_48_2_BADGER.6",-0.21267523826174,-0.94498664037622,0.51963616385274,"ssf","mf.is","gamma","unif",5,"ssfOUT_120_48_2_BADGER","BADGER",2,0.0208333333333333,120,"no effect"
"ssfOUT_120_48_2_BADGER.7",-0.739088566146378,-1.43016360941479,-0.048013522877968,"ssf","mf.is","gamma","unif",15,"ssfOUT_120_48_2_BADGER","BADGER",2,0.0208333333333333,120,"avoidance"
"ssfOUT_120_48_2_BADGER.8",-0.300876519126971,-0.928101986394498,0.326348948140556,"ssf","mf.is","gamma","unif",50,"ssfOUT_120_48_2_BADGER","BADGER",2,0.0208333333333333,120,"no effect"
"ssfOUT_120_48_2_BADGER.9",-0.260429097897659,-0.875464534158023,0.354606338362705,"ssf","mf.is","gamma","unif",158,"ssfOUT_120_48_2_BADGER","BADGER",2,0.0208333333333333,120,"no effect"
"ssfOUT_120_48_2_BADGER.10",-0.298952976692151,-0.913608020241716,0.315702066857413,"ssf","mf.is","gamma","unif",500,"ssfOUT_120_48_2_BADGER","BADGER",2,0.0208333333333333,120,"no effect"
"ssfOUT_120_48_2_BADGER.11",-0.822811628153953,-1.72996451660596,0.0843412602980511,"ssf","mf.is","exp","vonmises",5,"ssfOUT_120_48_2_BADGER","BADGER",2,0.0208333333333333,120,"no effect"
"ssfOUT_120_48_2_BADGER.12",-0.463658931475465,-1.1531405207626,0.225822657811675,"ssf","mf.is","exp","vonmises",15,"ssfOUT_120_48_2_BADGER","BADGER",2,0.0208333333333333,120,"no effect"
"ssfOUT_120_48_2_BADGER.13",-0.517605210904264,-1.16089342237671,0.125683000568178,"ssf","mf.is","exp","vonmises",50,"ssfOUT_120_48_2_BADGER","BADGER",2,0.0208333333333333,120,"no effect"
"ssfOUT_120_48_2_BADGER.14",-0.24567495920722,-0.86392859214876,0.372578673734321,"ssf","mf.is","exp","vonmises",158,"ssfOUT_120_48_2_BADGER","BADGER",2,0.0208333333333333,120,"no effect"
"ssfOUT_120_48_2_BADGER.15",-0.375735331646948,-0.991325567721738,0.239854904427843,"ssf","mf.is","exp","vonmises",500,"ssfOUT_120_48_2_BADGER","BADGER",2,0.0208333333333333,120,"no effect"
"ssfOUT_120_48_2_BADGER.16",-0.419032726755135,-1.1442141956648,0.306148742154525,"ssf","mf.is","exp","unif",5,"ssfOUT_120_48_2_BADGER","BADGER",2,0.0208333333333333,120,"no effect"
"ssfOUT_120_48_2_BADGER.17",-0.11963838555482,-0.77441503623915,0.53513826512951,"ssf","mf.is","exp","unif",15,"ssfOUT_120_48_2_BADGER","BADGER",2,0.0208333333333333,120,"no effect"
"ssfOUT_120_48_2_BADGER.18",-0.104520236981845,-0.730973099480337,0.521932625516648,"ssf","mf.is","exp","unif",50,"ssfOUT_120_48_2_BADGER","BADGER",2,0.0208333333333333,120,"no effect"
"ssfOUT_120_48_2_BADGER.19",-0.264331357289183,-0.881611170245045,0.352948455666679,"ssf","mf.is","exp","unif",158,"ssfOUT_120_48_2_BADGER","BADGER",2,0.0208333333333333,120,"no effect"
"ssfOUT_120_48_2_BADGER.20",-0.313436741947411,-0.928069999611864,0.301196515717042,"ssf","mf.is","exp","unif",500,"ssfOUT_120_48_2_BADGER","BADGER",2,0.0208333333333333,120,"no effect"
"ssfOUT_120_48_2_BADGER.21",-0.112566685668845,-0.789563629433014,0.564430258095323,"ssf","mf.ss","gamma","vonmises",5,"ssfOUT_120_48_2_BADGER","BADGER",2,0.0208333333333333,120,"no effect"
"ssfOUT_120_48_2_BADGER.22",-0.387669822579426,-1.02783596522046,0.252496320061608,"ssf","mf.ss","gamma","vonmises",15,"ssfOUT_120_48_2_BADGER","BADGER",2,0.0208333333333333,120,"no effect"
"ssfOUT_120_48_2_BADGER.23",-0.50169577330062,-1.1223654724823,0.118973925881061,"ssf","mf.ss","gamma","vonmises",50,"ssfOUT_120_48_2_BADGER","BADGER",2,0.0208333333333333,120,"no effect"
"ssfOUT_120_48_2_BADGER.24",-0.367622264144504,-0.980291752197377,0.24504722390837,"ssf","mf.ss","gamma","vonmises",158,"ssfOUT_120_48_2_BADGER","BADGER",2,0.0208333333333333,120,"no effect"
"ssfOUT_120_48_2_BADGER.25",-0.421624488178988,-1.03337732967216,0.190128353314183,"ssf","mf.ss","gamma","vonmises",500,"ssfOUT_120_48_2_BADGER","BADGER",2,0.0208333333333333,120,"no effect"
"ssfOUT_120_48_2_BADGER.26",-0.212652139463825,-0.922460693984972,0.497156415057321,"ssf","mf.ss","gamma","unif",5,"ssfOUT_120_48_2_BADGER","BADGER",2,0.0208333333333333,120,"no effect"
"ssfOUT_120_48_2_BADGER.27",-0.485905292978134,-1.1406728077898,0.168862221833535,"ssf","mf.ss","gamma","unif",15,"ssfOUT_120_48_2_BADGER","BADGER",2,0.0208333333333333,120,"no effect"
"ssfOUT_120_48_2_BADGER.28",-0.320833025124322,-0.940678882388483,0.299012832139839,"ssf","mf.ss","gamma","unif",50,"ssfOUT_120_48_2_BADGER","BADGER",2,0.0208333333333333,120,"no effect"
"ssfOUT_120_48_2_BADGER.29",-0.304787803114819,-0.916521204468921,0.306945598239284,"ssf","mf.ss","gamma","unif",158,"ssfOUT_120_48_2_BADGER","BADGER",2,0.0208333333333333,120,"no effect"
"ssfOUT_120_48_2_BADGER.30",-0.314576956562636,-0.925577147679426,0.296423234554154,"ssf","mf.ss","gamma","unif",500,"ssfOUT_120_48_2_BADGER","BADGER",2,0.0208333333333333,120,"no effect"
"ssfOUT_120_48_2_BADGER.31",-0.606785592551688,-1.344357766089,0.130786580985628,"ssf","mf.ss","exp","vonmises",5,"ssfOUT_120_48_2_BADGER","BADGER",2,0.0208333333333333,120,"no effect"
"ssfOUT_120_48_2_BADGER.32",-0.178430051209632,-0.816085227465177,0.459225125045914,"ssf","mf.ss","exp","vonmises",15,"ssfOUT_120_48_2_BADGER","BADGER",2,0.0208333333333333,120,"no effect"
"ssfOUT_120_48_2_BADGER.33",-0.47195709621899,-1.1011316074076,0.157217414969618,"ssf","mf.ss","exp","vonmises",50,"ssfOUT_120_48_2_BADGER","BADGER",2,0.0208333333333333,120,"no effect"
"ssfOUT_120_48_2_BADGER.34",-0.277193388647399,-0.901277882257106,0.346891104962309,"ssf","mf.ss","exp","vonmises",158,"ssfOUT_120_48_2_BADGER","BADGER",2,0.0208333333333333,120,"no effect"
"ssfOUT_120_48_2_BADGER.35",-0.334588411203121,-0.955915671483681,0.286738849077438,"ssf","mf.ss","exp","vonmises",500,"ssfOUT_120_48_2_BADGER","BADGER",2,0.0208333333333333,120,"no effect"
"ssfOUT_120_48_2_BADGER.36",-0.119446572415159,-0.806687344757251,0.567794199926932,"ssf","mf.ss","exp","unif",5,"ssfOUT_120_48_2_BADGER","BADGER",2,0.0208333333333333,120,"no effect"
"ssfOUT_120_48_2_BADGER.37",-0.13348119266489,-0.762249610635881,0.4952872253061,"ssf","mf.ss","exp","unif",15,"ssfOUT_120_48_2_BADGER","BADGER",2,0.0208333333333333,120,"no effect"
"ssfOUT_120_48_2_BADGER.38",-0.120096039229048,-0.750076814983209,0.509884736525113,"ssf","mf.ss","exp","unif",50,"ssfOUT_120_48_2_BADGER","BADGER",2,0.0208333333333333,120,"no effect"
"ssfOUT_120_48_2_BADGER.39",-0.298906812476892,-0.918864203240294,0.321050578286509,"ssf","mf.ss","exp","unif",158,"ssfOUT_120_48_2_BADGER","BADGER",2,0.0208333333333333,120,"no effect"
"ssfOUT_120_48_2_BADGER.40",-0.327475922961509,-0.947966109070689,0.29301426314767,"ssf","mf.ss","exp","unif",500,"ssfOUT_120_48_2_BADGER","BADGER",2,0.0208333333333333,120,"no effect"
"ssfOUT_120_48_2_VULTURE.1",0.523835356016429,-0.737236192180459,1.78490690421332,"ssf","mf.is","gamma","vonmises",5,"ssfOUT_120_48_2_VULTURE","VULTURE",2,0.0208333333333333,120,"no effect"
"ssfOUT_120_48_2_VULTURE.2",0.023767673337201,-0.825944277894125,0.873479624568527,"ssf","mf.is","gamma","vonmises",15,"ssfOUT_120_48_2_VULTURE","VULTURE",2,0.0208333333333333,120,"no effect"
"ssfOUT_120_48_2_VULTURE.3",-0.128491038202422,-0.902578288730697,0.645596212325853,"ssf","mf.is","gamma","vonmises",50,"ssfOUT_120_48_2_VULTURE","VULTURE",2,0.0208333333333333,120,"no effect"
"ssfOUT_120_48_2_VULTURE.4",0.151544037935679,-0.60331032089517,0.906398396766528,"ssf","mf.is","gamma","vonmises",158,"ssfOUT_120_48_2_VULTURE","VULTURE",2,0.0208333333333333,120,"no effect"
"ssfOUT_120_48_2_VULTURE.5",0.238140713981443,-0.502954055341538,0.979235483304425,"ssf","mf.is","gamma","vonmises",500,"ssfOUT_120_48_2_VULTURE","VULTURE",2,0.0208333333333333,120,"no effect"
"ssfOUT_120_48_2_VULTURE.6",0.755817751150459,-0.0895803889523725,1.60121589125329,"ssf","mf.is","gamma","unif",5,"ssfOUT_120_48_2_VULTURE","VULTURE",2,0.0208333333333333,120,"no effect"
"ssfOUT_120_48_2_VULTURE.7",0.226437627751915,-0.541186708293039,0.994061963796868,"ssf","mf.is","gamma","unif",15,"ssfOUT_120_48_2_VULTURE","VULTURE",2,0.0208333333333333,120,"no effect"
"ssfOUT_120_48_2_VULTURE.8",0.270134736287515,-0.475257496392653,1.01552696896768,"ssf","mf.is","gamma","unif",50,"ssfOUT_120_48_2_VULTURE","VULTURE",2,0.0208333333333333,120,"no effect"
"ssfOUT_120_48_2_VULTURE.9",0.182225686064758,-0.558249075655189,0.922700447784705,"ssf","mf.is","gamma","unif",158,"ssfOUT_120_48_2_VULTURE","VULTURE",2,0.0208333333333333,120,"no effect"
"ssfOUT_120_48_2_VULTURE.10",0.200053939294587,-0.537421915356468,0.937529793945642,"ssf","mf.is","gamma","unif",500,"ssfOUT_120_48_2_VULTURE","VULTURE",2,0.0208333333333333,120,"no effect"
"ssfOUT_120_48_2_VULTURE.11",1.03126242727979,-0.119358900910409,2.18188375546999,"ssf","mf.is","exp","vonmises",5,"ssfOUT_120_48_2_VULTURE","VULTURE",2,0.0208333333333333,120,"no effect"
"ssfOUT_120_48_2_VULTURE.12",-0.186511449001413,-1.01397286620071,0.64094996819788,"ssf","mf.is","exp","vonmises",15,"ssfOUT_120_48_2_VULTURE","VULTURE",2,0.0208333333333333,120,"no effect"
"ssfOUT_120_48_2_VULTURE.13",0.486964953286757,-0.324607448963487,1.298537355537,"ssf","mf.is","exp","vonmises",50,"ssfOUT_120_48_2_VULTURE","VULTURE",2,0.0208333333333333,120,"no effect"
"ssfOUT_120_48_2_VULTURE.14",0.0838235690350914,-0.670744616978616,0.838391755048798,"ssf","mf.is","exp","vonmises",158,"ssfOUT_120_48_2_VULTURE","VULTURE",2,0.0208333333333333,120,"no effect"
"ssfOUT_120_48_2_VULTURE.15",0.119027022216193,-0.625215400258738,0.863269444691124,"ssf","mf.is","exp","vonmises",500,"ssfOUT_120_48_2_VULTURE","VULTURE",2,0.0208333333333333,120,"no effect"
"ssfOUT_120_48_2_VULTURE.16",0.569387191132743,-0.343728429958122,1.48250281222361,"ssf","mf.is","exp","unif",5,"ssfOUT_120_48_2_VULTURE","VULTURE",2,0.0208333333333333,120,"no effect"
"ssfOUT_120_48_2_VULTURE.17",-0.417457379062539,-1.22505532394361,0.390140565818537,"ssf","mf.is","exp","unif",15,"ssfOUT_120_48_2_VULTURE","VULTURE",2,0.0208333333333333,120,"no effect"
"ssfOUT_120_48_2_VULTURE.18",0.217315761620109,-0.535838155172715,0.970469678412933,"ssf","mf.is","exp","unif",50,"ssfOUT_120_48_2_VULTURE","VULTURE",2,0.0208333333333333,120,"no effect"
"ssfOUT_120_48_2_VULTURE.19",0.203129065765227,-0.53598796005531,0.942246091585764,"ssf","mf.is","exp","unif",158,"ssfOUT_120_48_2_VULTURE","VULTURE",2,0.0208333333333333,120,"no effect"
"ssfOUT_120_48_2_VULTURE.20",0.118687897696152,-0.619864775309688,0.857240570701993,"ssf","mf.is","exp","unif",500,"ssfOUT_120_48_2_VULTURE","VULTURE",2,0.0208333333333333,120,"no effect"
"ssfOUT_120_48_2_VULTURE.21",-0.00948033613193139,-0.864986826235978,0.846026153972115,"ssf","mf.ss","gamma","vonmises",5,"ssfOUT_120_48_2_VULTURE","VULTURE",2,0.0208333333333333,120,"no effect"
"ssfOUT_120_48_2_VULTURE.22",-0.142400141869216,-0.900091929997584,0.615291646259152,"ssf","mf.ss","gamma","vonmises",15,"ssfOUT_120_48_2_VULTURE","VULTURE",2,0.0208333333333333,120,"no effect"
"ssfOUT_120_48_2_VULTURE.23",-0.0720941826122213,-0.812495534633904,0.668307169409461,"ssf","mf.ss","gamma","vonmises",50,"ssfOUT_120_48_2_VULTURE","VULTURE",2,0.0208333333333333,120,"no effect"
"ssfOUT_120_48_2_VULTURE.24",-0.0611016940094576,-0.797202714550306,0.67499932653139,"ssf","mf.ss","gamma","vonmises",158,"ssfOUT_120_48_2_VULTURE","VULTURE",2,0.0208333333333333,120,"no effect"
"ssfOUT_120_48_2_VULTURE.25",-0.0649168471719623,-0.799413089511997,0.669579395168073,"ssf","mf.ss","gamma","vonmises",500,"ssfOUT_120_48_2_VULTURE","VULTURE",2,0.0208333333333333,120,"no effect"
"ssfOUT_120_48_2_VULTURE.26",0.374958964629465,-0.410206982037903,1.16012491129683,"ssf","mf.ss","gamma","unif",5,"ssfOUT_120_48_2_VULTURE","VULTURE",2,0.0208333333333333,120,"no effect"
"ssfOUT_120_48_2_VULTURE.27",0.339133442111386,-0.412336483576077,1.09060336779885,"ssf","mf.ss","gamma","unif",15,"ssfOUT_120_48_2_VULTURE","VULTURE",2,0.0208333333333333,120,"no effect"
"ssfOUT_120_48_2_VULTURE.28",0.157443059404282,-0.58191801902587,0.896804137834434,"ssf","mf.ss","gamma","unif",50,"ssfOUT_120_48_2_VULTURE","VULTURE",2,0.0208333333333333,120,"no effect"
"ssfOUT_120_48_2_VULTURE.29",-0.0249324995498498,-0.761060676750356,0.711195677650657,"ssf","mf.ss","gamma","unif",158,"ssfOUT_120_48_2_VULTURE","VULTURE",2,0.0208333333333333,120,"no effect"
"ssfOUT_120_48_2_VULTURE.30",0.0461893697517427,-0.687332338626194,0.77971107812968,"ssf","mf.ss","gamma","unif",500,"ssfOUT_120_48_2_VULTURE","VULTURE",2,0.0208333333333333,120,"no effect"
"ssfOUT_120_48_2_VULTURE.31",0.142361304030888,-0.689779815203221,0.974502423264996,"ssf","mf.ss","exp","vonmises",5,"ssfOUT_120_48_2_VULTURE","VULTURE",2,0.0208333333333333,120,"no effect"
"ssfOUT_120_48_2_VULTURE.32",0.05501851353017,-0.701435872330872,0.811472899391212,"ssf","mf.ss","exp","vonmises",15,"ssfOUT_120_48_2_VULTURE","VULTURE",2,0.0208333333333333,120,"no effect"
"ssfOUT_120_48_2_VULTURE.33",-0.0631725741121942,-0.805334962036846,0.678989813812458,"ssf","mf.ss","exp","vonmises",50,"ssfOUT_120_48_2_VULTURE","VULTURE",2,0.0208333333333333,120,"no effect"
"ssfOUT_120_48_2_VULTURE.34",-0.0448136949262643,-0.786239166148054,0.696611776295525,"ssf","mf.ss","exp","vonmises",158,"ssfOUT_120_48_2_VULTURE","VULTURE",2,0.0208333333333333,120,"no effect"
"ssfOUT_120_48_2_VULTURE.35",-0.144531369489379,-0.886535483005228,0.597472744026471,"ssf","mf.ss","exp","vonmises",500,"ssfOUT_120_48_2_VULTURE","VULTURE",2,0.0208333333333333,120,"no effect"
"ssfOUT_120_48_2_VULTURE.36",-0.138777177822415,-0.940699040282706,0.663144684637875,"ssf","mf.ss","exp","unif",5,"ssfOUT_120_48_2_VULTURE","VULTURE",2,0.0208333333333333,120,"no effect"
"ssfOUT_120_48_2_VULTURE.37",-0.436171541297525,-1.20801514271118,0.335672060116127,"ssf","mf.ss","exp","unif",15,"ssfOUT_120_48_2_VULTURE","VULTURE",2,0.0208333333333333,120,"no effect"
"ssfOUT_120_48_2_VULTURE.38",0.157135945503225,-0.588532532788885,0.902804423795334,"ssf","mf.ss","exp","unif",50,"ssfOUT_120_48_2_VULTURE","VULTURE",2,0.0208333333333333,120,"no effect"
"ssfOUT_120_48_2_VULTURE.39",0.146028312575622,-0.594657986714485,0.886714611865729,"ssf","mf.ss","exp","unif",158,"ssfOUT_120_48_2_VULTURE","VULTURE",2,0.0208333333333333,120,"no effect"
"ssfOUT_120_48_2_VULTURE.40",-0.050712369442048,-0.791014674324925,0.689589935440829,"ssf","mf.ss","exp","unif",500,"ssfOUT_120_48_2_VULTURE","VULTURE",2,0.0208333333333333,120,"no effect"
"ssfOUT_120_48_2_KINGCOBRA.1",16.8677210997742,-4746.02027622736,4779.75571842691,"ssf","mf.is","gamma","vonmises",5,"ssfOUT_120_48_2_KINGCOBRA","KINGCOBRA",2,0.0208333333333333,120,"no effect"
"ssfOUT_120_48_2_KINGCOBRA.2",18.0501903036452,-5719.78342109672,5755.88380170401,"ssf","mf.is","gamma","vonmises",15,"ssfOUT_120_48_2_KINGCOBRA","KINGCOBRA",2,0.0208333333333333,120,"no effect"
"ssfOUT_120_48_2_KINGCOBRA.3",16.951197504834,-4709.45045183357,4743.35284684324,"ssf","mf.is","gamma","vonmises",50,"ssfOUT_120_48_2_KINGCOBRA","KINGCOBRA",2,0.0208333333333333,120,"no effect"
"ssfOUT_120_48_2_KINGCOBRA.4",16.0917694453626,-2911.28085465868,2943.4643935494,"ssf","mf.is","gamma","vonmises",158,"ssfOUT_120_48_2_KINGCOBRA","KINGCOBRA",2,0.0208333333333333,120,"no effect"
"ssfOUT_120_48_2_KINGCOBRA.5",16.0209818718592,-2726.75009224263,2758.79205598635,"ssf","mf.is","gamma","vonmises",500,"ssfOUT_120_48_2_KINGCOBRA","KINGCOBRA",2,0.0208333333333333,120,"no effect"
"ssfOUT_120_48_2_KINGCOBRA.6",17.3174566119644,-4342.91680924785,4377.55172247178,"ssf","mf.is","gamma","unif",5,"ssfOUT_120_48_2_KINGCOBRA","KINGCOBRA",2,0.0208333333333333,120,"no effect"
"ssfOUT_120_48_2_KINGCOBRA.7",17.1631308783829,-5286.30403979807,5320.63030155483,"ssf","mf.is","gamma","unif",15,"ssfOUT_120_48_2_KINGCOBRA","KINGCOBRA",2,0.0208333333333333,120,"no effect"
"ssfOUT_120_48_2_KINGCOBRA.8",17.0149221997262,-4271.00250178289,4305.03234618234,"ssf","mf.is","gamma","unif",50,"ssfOUT_120_48_2_KINGCOBRA","KINGCOBRA",2,0.0208333333333333,120,"no effect"
"ssfOUT_120_48_2_KINGCOBRA.9",15.9693165990764,-2702.51100610576,2734.44963930391,"ssf","mf.is","gamma","unif",158,"ssfOUT_120_48_2_KINGCOBRA","KINGCOBRA",2,0.0208333333333333,120,"no effect"
"ssfOUT_120_48_2_KINGCOBRA.10",16.0010025078938,-2627.05385603787,2659.05586105366,"ssf","mf.is","gamma","unif",500,"ssfOUT_120_48_2_KINGCOBRA","KINGCOBRA",2,0.0208333333333333,120,"no effect"
"ssfOUT_120_48_2_KINGCOBRA.11",17.380533340161,-7215.83728608019,7250.59835276051,"ssf","mf.is","exp","vonmises",5,"ssfOUT_120_48_2_KINGCOBRA","KINGCOBRA",2,0.0208333333333333,120,"no effect"
"ssfOUT_120_48_2_KINGCOBRA.12",17.2346311287137,-5064.10321533983,5098.57247759725,"ssf","mf.is","exp","vonmises",15,"ssfOUT_120_48_2_KINGCOBRA","KINGCOBRA",2,0.0208333333333333,120,"no effect"
"ssfOUT_120_48_2_KINGCOBRA.13",17.171832201321,-4571.47128426529,4605.81494866793,"ssf","mf.is","exp","vonmises",50,"ssfOUT_120_48_2_KINGCOBRA","KINGCOBRA",2,0.0208333333333333,120,"no effect"
"ssfOUT_120_48_2_KINGCOBRA.14",17.0591120336078,-4187.65418929153,4221.77241335874,"ssf","mf.is","exp","vonmises",158,"ssfOUT_120_48_2_KINGCOBRA","KINGCOBRA",2,0.0208333333333333,120,"no effect"
"ssfOUT_120_48_2_KINGCOBRA.15",16.0908861653717,-2658.11152352739,2690.29329585813,"ssf","mf.is","exp","vonmises",500,"ssfOUT_120_48_2_KINGCOBRA","KINGCOBRA",2,0.0208333333333333,120,"no effect"
"ssfOUT_120_48_2_KINGCOBRA.16",15.2395832869539,-4706.78590913688,4737.26507571079,"ssf","mf.is","exp","unif",5,"ssfOUT_120_48_2_KINGCOBRA","KINGCOBRA",2,0.0208333333333333,120,"no effect"
"ssfOUT_120_48_2_KINGCOBRA.17",15.7562748654204,-3837.19457154931,3868.70712128015,"ssf","mf.is","exp","unif",15,"ssfOUT_120_48_2_KINGCOBRA","KINGCOBRA",2,0.0208333333333333,120,"no effect"
"ssfOUT_120_48_2_KINGCOBRA.18",16.8499390756128,-4740.93806018327,4774.6379383345,"ssf","mf.is","exp","unif",50,"ssfOUT_120_48_2_KINGCOBRA","KINGCOBRA",2,0.0208333333333333,120,"no effect"
"ssfOUT_120_48_2_KINGCOBRA.19",15.9508231929092,-2633.79572882019,2665.697375206,"ssf","mf.is","exp","unif",158,"ssfOUT_120_48_2_KINGCOBRA","KINGCOBRA",2,0.0208333333333333,120,"no effect"
"ssfOUT_120_48_2_KINGCOBRA.20",15.9990520073345,-2679.54887106279,2711.54697507746,"ssf","mf.is","exp","unif",500,"ssfOUT_120_48_2_KINGCOBRA","KINGCOBRA",2,0.0208333333333333,120,"no effect"
"ssfOUT_120_48_2_KINGCOBRA.21",17.1675027526243,-4802.99253508433,4837.32754058958,"ssf","mf.ss","gamma","vonmises",5,"ssfOUT_120_48_2_KINGCOBRA","KINGCOBRA",2,0.0208333333333333,120,"no effect"
"ssfOUT_120_48_2_KINGCOBRA.22",17.0208132796694,-3581.38358456138,3615.42521112072,"ssf","mf.ss","gamma","vonmises",15,"ssfOUT_120_48_2_KINGCOBRA","KINGCOBRA",2,0.0208333333333333,120,"no effect"
"ssfOUT_120_48_2_KINGCOBRA.23",15.9332384053846,-2764.53057388976,2796.39705070053,"ssf","mf.ss","gamma","vonmises",50,"ssfOUT_120_48_2_KINGCOBRA","KINGCOBRA",2,0.0208333333333333,120,"no effect"
"ssfOUT_120_48_2_KINGCOBRA.24",15.9084120369303,-2763.76902807084,2795.5858521447,"ssf","mf.ss","gamma","vonmises",158,"ssfOUT_120_48_2_KINGCOBRA","KINGCOBRA",2,0.0208333333333333,120,"no effect"
"ssfOUT_120_48_2_KINGCOBRA.25",15.9229744891824,-2625.97508363432,2657.82103261269,"ssf","mf.ss","gamma","vonmises",500,"ssfOUT_120_48_2_KINGCOBRA","KINGCOBRA",2,0.0208333333333333,120,"no effect"
"ssfOUT_120_48_2_KINGCOBRA.26",17.306291187209,-4363.74827515853,4398.36085753295,"ssf","mf.ss","gamma","unif",5,"ssfOUT_120_48_2_KINGCOBRA","KINGCOBRA",2,0.0208333333333333,120,"no effect"
"ssfOUT_120_48_2_KINGCOBRA.27",15.9747368607249,-3257.0022141006,3288.95168782205,"ssf","mf.ss","gamma","unif",15,"ssfOUT_120_48_2_KINGCOBRA","KINGCOBRA",2,0.0208333333333333,120,"no effect"
"ssfOUT_120_48_2_KINGCOBRA.28",16.9399646602332,-4221.63982523358,4255.51975455405,"ssf","mf.ss","gamma","unif",50,"ssfOUT_120_48_2_KINGCOBRA","KINGCOBRA",2,0.0208333333333333,120,"no effect"
"ssfOUT_120_48_2_KINGCOBRA.29",15.9278422332961,-2681.57877900847,2713.43446347507,"ssf","mf.ss","gamma","unif",158,"ssfOUT_120_48_2_KINGCOBRA","KINGCOBRA",2,0.0208333333333333,120,"no effect"
"ssfOUT_120_48_2_KINGCOBRA.30",15.9285887032899,-2608.71281829064,2640.56999569722,"ssf","mf.ss","gamma","unif",500,"ssfOUT_120_48_2_KINGCOBRA","KINGCOBRA",2,0.0208333333333333,120,"no effect"
"ssfOUT_120_48_2_KINGCOBRA.31",17.3385104135539,-4354.27259948784,4388.94962031495,"ssf","mf.ss","exp","vonmises",5,"ssfOUT_120_48_2_KINGCOBRA","KINGCOBRA",2,0.0208333333333333,120,"no effect"
"ssfOUT_120_48_2_KINGCOBRA.32",17.0435590136818,-4615.68344299039,4649.77056101775,"ssf","mf.ss","exp","vonmises",15,"ssfOUT_120_48_2_KINGCOBRA","KINGCOBRA",2,0.0208333333333333,120,"no effect"
"ssfOUT_120_48_2_KINGCOBRA.33",16.9860051678219,-4384.93073004041,4418.90274037605,"ssf","mf.ss","exp","vonmises",50,"ssfOUT_120_48_2_KINGCOBRA","KINGCOBRA",2,0.0208333333333333,120,"no effect"
"ssfOUT_120_48_2_KINGCOBRA.34",15.948420285648,-2582.37486376588,2614.27170433717,"ssf","mf.ss","exp","vonmises",158,"ssfOUT_120_48_2_KINGCOBRA","KINGCOBRA",2,0.0208333333333333,120,"no effect"
"ssfOUT_120_48_2_KINGCOBRA.35",15.9437663397217,-2657.41502763933,2689.30256031877,"ssf","mf.ss","exp","vonmises",500,"ssfOUT_120_48_2_KINGCOBRA","KINGCOBRA",2,0.0208333333333333,120,"no effect"
"ssfOUT_120_48_2_KINGCOBRA.36",16.231577087148,-4441.57482096936,4474.03797514365,"ssf","mf.ss","exp","unif",5,"ssfOUT_120_48_2_KINGCOBRA","KINGCOBRA",2,0.0208333333333333,120,"no effect"
"ssfOUT_120_48_2_KINGCOBRA.37",16.0291367634068,-3869.28367704828,3901.3419505751,"ssf","mf.ss","exp","unif",15,"ssfOUT_120_48_2_KINGCOBRA","KINGCOBRA",2,0.0208333333333333,120,"no effect"
"ssfOUT_120_48_2_KINGCOBRA.38",15.982980494388,-2842.09262108538,2874.05858207416,"ssf","mf.ss","exp","unif",50,"ssfOUT_120_48_2_KINGCOBRA","KINGCOBRA",2,0.0208333333333333,120,"no effect"
"ssfOUT_120_48_2_KINGCOBRA.39",15.9442853610596,-2579.46646923755,2611.35503995967,"ssf","mf.ss","exp","unif",158,"ssfOUT_120_48_2_KINGCOBRA","KINGCOBRA",2,0.0208333333333333,120,"no effect"
"ssfOUT_120_48_2_KINGCOBRA.40",15.9634554133582,-2642.41429479201,2674.34120561873,"ssf","mf.ss","exp","unif",500,"ssfOUT_120_48_2_KINGCOBRA","KINGCOBRA",2,0.0208333333333333,120,"no effect"
"ssfOUT_120_48_3_BADGER.1",-0.789409533828187,-1.67432337795472,0.0955043102983489,"ssf","mf.is","gamma","vonmises",5,"ssfOUT_120_48_3_BADGER","BADGER",3,0.0208333333333333,120,"no effect"
"ssfOUT_120_48_3_BADGER.2",-0.746527441808923,-1.5466959424122,0.0536410587943561,"ssf","mf.is","gamma","vonmises",15,"ssfOUT_120_48_3_BADGER","BADGER",3,0.0208333333333333,120,"no effect"
"ssfOUT_120_48_3_BADGER.3",-0.260921374197246,-0.934954941246556,0.413112192852064,"ssf","mf.is","gamma","vonmises",50,"ssfOUT_120_48_3_BADGER","BADGER",3,0.0208333333333333,120,"no effect"
"ssfOUT_120_48_3_BADGER.4",-0.314884175628643,-0.95070556436364,0.320937213106353,"ssf","mf.is","gamma","vonmises",158,"ssfOUT_120_48_3_BADGER","BADGER",3,0.0208333333333333,120,"no effect"
"ssfOUT_120_48_3_BADGER.5",-0.487192307472224,-1.11370026965844,0.13931565471399,"ssf","mf.is","gamma","vonmises",500,"ssfOUT_120_48_3_BADGER","BADGER",3,0.0208333333333333,120,"no effect"
"ssfOUT_120_48_3_BADGER.6",-0.498864890901281,-1.40889715956767,0.411167377765111,"ssf","mf.is","gamma","unif",5,"ssfOUT_120_48_3_BADGER","BADGER",3,0.0208333333333333,120,"no effect"
"ssfOUT_120_48_3_BADGER.7",-0.454979235723043,-1.12271790834567,0.212759436899584,"ssf","mf.is","gamma","unif",15,"ssfOUT_120_48_3_BADGER","BADGER",3,0.0208333333333333,120,"no effect"
"ssfOUT_120_48_3_BADGER.8",-0.317711416787872,-0.943888398464815,0.308465564889071,"ssf","mf.is","gamma","unif",50,"ssfOUT_120_48_3_BADGER","BADGER",3,0.0208333333333333,120,"no effect"
"ssfOUT_120_48_3_BADGER.9",-0.524487895274455,-1.14409337326428,0.09511758271537,"ssf","mf.is","gamma","unif",158,"ssfOUT_120_48_3_BADGER","BADGER",3,0.0208333333333333,120,"no effect"
"ssfOUT_120_48_3_BADGER.10",-0.410819357421389,-1.0278202195906,0.206181504747818,"ssf","mf.is","gamma","unif",500,"ssfOUT_120_48_3_BADGER","BADGER",3,0.0208333333333333,120,"no effect"
"ssfOUT_120_48_3_BADGER.11",-1.77077334966727,-2.8869590667971,-0.654587632537444,"ssf","mf.is","exp","vonmises",5,"ssfOUT_120_48_3_BADGER","BADGER",3,0.0208333333333333,120,"avoidance"
"ssfOUT_120_48_3_BADGER.12",0.600128490634742,-0.354371856165211,1.5546288374347,"ssf","mf.is","exp","vonmises",15,"ssfOUT_120_48_3_BADGER","BADGER",3,0.0208333333333333,120,"no effect"
"ssfOUT_120_48_3_BADGER.13",-0.369673331175251,-1.09819733292126,0.358850670570755,"ssf","mf.is","exp","vonmises",50,"ssfOUT_120_48_3_BADGER","BADGER",3,0.0208333333333333,120,"no effect"
"ssfOUT_120_48_3_BADGER.14",-0.208937446786854,-0.859994134077874,0.442119240504165,"ssf","mf.is","exp","vonmises",158,"ssfOUT_120_48_3_BADGER","BADGER",3,0.0208333333333333,120,"no effect"
"ssfOUT_120_48_3_BADGER.15",-0.497183822641968,-1.12356536007013,0.129197714786199,"ssf","mf.is","exp","vonmises",500,"ssfOUT_120_48_3_BADGER","BADGER",3,0.0208333333333333,120,"no effect"
"ssfOUT_120_48_3_BADGER.16",0.0450924467312768,-0.736644157963742,0.826829051426296,"ssf","mf.is","exp","unif",5,"ssfOUT_120_48_3_BADGER","BADGER",3,0.0208333333333333,120,"no effect"
"ssfOUT_120_48_3_BADGER.17",-0.215486003926398,-0.88738408572534,0.456412077872544,"ssf","mf.is","exp","unif",15,"ssfOUT_120_48_3_BADGER","BADGER",3,0.0208333333333333,120,"no effect"
"ssfOUT_120_48_3_BADGER.18",-0.911476555312754,-1.55405839040708,-0.268894720218431,"ssf","mf.is","exp","unif",50,"ssfOUT_120_48_3_BADGER","BADGER",3,0.0208333333333333,120,"avoidance"
"ssfOUT_120_48_3_BADGER.19",-0.626699653506095,-1.24992003946967,-0.00347926754252059,"ssf","mf.is","exp","unif",158,"ssfOUT_120_48_3_BADGER","BADGER",3,0.0208333333333333,120,"avoidance"
"ssfOUT_120_48_3_BADGER.20",-0.40867510117112,-1.02900581575755,0.211655613415315,"ssf","mf.is","exp","unif",500,"ssfOUT_120_48_3_BADGER","BADGER",3,0.0208333333333333,120,"no effect"
"ssfOUT_120_48_3_BADGER.21",-0.111765387021178,-0.788914510334183,0.565383736291826,"ssf","mf.ss","gamma","vonmises",5,"ssfOUT_120_48_3_BADGER","BADGER",3,0.0208333333333333,120,"no effect"
"ssfOUT_120_48_3_BADGER.22",-0.308961951581357,-0.942973784191591,0.325049881028878,"ssf","mf.ss","gamma","vonmises",15,"ssfOUT_120_48_3_BADGER","BADGER",3,0.0208333333333333,120,"no effect"
"ssfOUT_120_48_3_BADGER.23",-0.749915976393363,-1.37349041736172,-0.126341535425003,"ssf","mf.ss","gamma","vonmises",50,"ssfOUT_120_48_3_BADGER","BADGER",3,0.0208333333333333,120,"avoidance"
"ssfOUT_120_48_3_BADGER.24",-0.555632645104422,-1.17034640808507,0.059081117876231,"ssf","mf.ss","gamma","vonmises",158,"ssfOUT_120_48_3_BADGER","BADGER",3,0.0208333333333333,120,"no effect"
"ssfOUT_120_48_3_BADGER.25",-0.554319714209946,-1.16507244240481,0.0564330139849206,"ssf","mf.ss","gamma","vonmises",500,"ssfOUT_120_48_3_BADGER","BADGER",3,0.0208333333333333,120,"no effect"
"ssfOUT_120_48_3_BADGER.26",-1.06797813473048,-1.84534413951492,-0.290612129946047,"ssf","mf.ss","gamma","unif",5,"ssfOUT_120_48_3_BADGER","BADGER",3,0.0208333333333333,120,"avoidance"
"ssfOUT_120_48_3_BADGER.27",-0.60907082815108,-1.25498764400954,0.0368459877073845,"ssf","mf.ss","gamma","unif",15,"ssfOUT_120_48_3_BADGER","BADGER",3,0.0208333333333333,120,"no effect"
"ssfOUT_120_48_3_BADGER.28",-0.407412672722291,-1.02398807905288,0.209162733608302,"ssf","mf.ss","gamma","unif",50,"ssfOUT_120_48_3_BADGER","BADGER",3,0.0208333333333333,120,"no effect"
"ssfOUT_120_48_3_BADGER.29",-0.559750759586874,-1.17065336803721,0.0511518488634604,"ssf","mf.ss","gamma","unif",158,"ssfOUT_120_48_3_BADGER","BADGER",3,0.0208333333333333,120,"no effect"
"ssfOUT_120_48_3_BADGER.30",-0.50423450985605,-1.11354189779596,0.105072878083857,"ssf","mf.ss","gamma","unif",500,"ssfOUT_120_48_3_BADGER","BADGER",3,0.0208333333333333,120,"no effect"
"ssfOUT_120_48_3_BADGER.31",-1.06614107119909,-1.82042196594132,-0.311860176456866,"ssf","mf.ss","exp","vonmises",5,"ssfOUT_120_48_3_BADGER","BADGER",3,0.0208333333333333,120,"avoidance"
"ssfOUT_120_48_3_BADGER.32",-0.287741130869867,-0.932134752228505,0.356652490488771,"ssf","mf.ss","exp","vonmises",15,"ssfOUT_120_48_3_BADGER","BADGER",3,0.0208333333333333,120,"no effect"
"ssfOUT_120_48_3_BADGER.33",-0.492704928172328,-1.11851406934271,0.133104212998051,"ssf","mf.ss","exp","vonmises",50,"ssfOUT_120_48_3_BADGER","BADGER",3,0.0208333333333333,120,"no effect"
"ssfOUT_120_48_3_BADGER.34",-0.465224506800975,-1.08042195920695,0.149972945605001,"ssf","mf.ss","exp","vonmises",158,"ssfOUT_120_48_3_BADGER","BADGER",3,0.0208333333333333,120,"no effect"
"ssfOUT_120_48_3_BADGER.35",-0.532683020468548,-1.14977648787869,0.0844104469415891,"ssf","mf.ss","exp","vonmises",500,"ssfOUT_120_48_3_BADGER","BADGER",3,0.0208333333333333,120,"no effect"
"ssfOUT_120_48_3_BADGER.36",-0.536224386340073,-1.24488002066729,0.172431247987141,"ssf","mf.ss","exp","unif",5,"ssfOUT_120_48_3_BADGER","BADGER",3,0.0208333333333333,120,"no effect"
"ssfOUT_120_48_3_BADGER.37",-0.375578141081968,-1.01583016491631,0.264673882752373,"ssf","mf.ss","exp","unif",15,"ssfOUT_120_48_3_BADGER","BADGER",3,0.0208333333333333,120,"no effect"
"ssfOUT_120_48_3_BADGER.38",-0.84313070382587,-1.46601236450672,-0.220249043145024,"ssf","mf.ss","exp","unif",50,"ssfOUT_120_48_3_BADGER","BADGER",3,0.0208333333333333,120,"avoidance"
"ssfOUT_120_48_3_BADGER.39",-0.607666638094209,-1.22321342160113,0.00788014541271254,"ssf","mf.ss","exp","unif",158,"ssfOUT_120_48_3_BADGER","BADGER",3,0.0208333333333333,120,"no effect"
"ssfOUT_120_48_3_BADGER.40",-0.498928750517565,-1.11442295076576,0.116565449730626,"ssf","mf.ss","exp","unif",500,"ssfOUT_120_48_3_BADGER","BADGER",3,0.0208333333333333,120,"no effect"
"ssfOUT_120_48_3_VULTURE.1",-0.63760579585992,-1.45133031057808,0.17611871885824,"ssf","mf.is","gamma","vonmises",5,"ssfOUT_120_48_3_VULTURE","VULTURE",3,0.0208333333333333,120,"no effect"
"ssfOUT_120_48_3_VULTURE.2",0.0279724564802892,-0.6642291415743,0.720174054534879,"ssf","mf.is","gamma","vonmises",15,"ssfOUT_120_48_3_VULTURE","VULTURE",3,0.0208333333333333,120,"no effect"
"ssfOUT_120_48_3_VULTURE.3",-0.395337245554231,-1.0279563009577,0.237281809849238,"ssf","mf.is","gamma","vonmises",50,"ssfOUT_120_48_3_VULTURE","VULTURE",3,0.0208333333333333,120,"no effect"
"ssfOUT_120_48_3_VULTURE.4",-0.271174603176644,-0.889483779284477,0.347134572931189,"ssf","mf.is","gamma","vonmises",158,"ssfOUT_120_48_3_VULTURE","VULTURE",3,0.0208333333333333,120,"no effect"
"ssfOUT_120_48_3_VULTURE.5",-0.301815238768672,-0.915385291015615,0.31175481347827,"ssf","mf.is","gamma","vonmises",500,"ssfOUT_120_48_3_VULTURE","VULTURE",3,0.0208333333333333,120,"no effect"
"ssfOUT_120_48_3_VULTURE.6",-0.0445057656946709,-0.743989063407959,0.654977532018617,"ssf","mf.is","gamma","unif",5,"ssfOUT_120_48_3_VULTURE","VULTURE",3,0.0208333333333333,120,"no effect"
"ssfOUT_120_48_3_VULTURE.7",0.103009153696951,-0.531935265213553,0.737953572607455,"ssf","mf.is","gamma","unif",15,"ssfOUT_120_48_3_VULTURE","VULTURE",3,0.0208333333333333,120,"no effect"
"ssfOUT_120_48_3_VULTURE.8",-0.221076935034838,-0.845869278125263,0.403715408055586,"ssf","mf.is","gamma","unif",50,"ssfOUT_120_48_3_VULTURE","VULTURE",3,0.0208333333333333,120,"no effect"
"ssfOUT_120_48_3_VULTURE.9",-0.328401568527868,-0.945049600815606,0.288246463759871,"ssf","mf.is","gamma","unif",158,"ssfOUT_120_48_3_VULTURE","VULTURE",3,0.0208333333333333,120,"no effect"
"ssfOUT_120_48_3_VULTURE.10",-0.253018397801437,-0.864915912519119,0.358879116916244,"ssf","mf.is","gamma","unif",500,"ssfOUT_120_48_3_VULTURE","VULTURE",3,0.0208333333333333,120,"no effect"
"ssfOUT_120_48_3_VULTURE.11",-0.225475354133093,-1.11445591349815,0.663505205231967,"ssf","mf.is","exp","vonmises",5,"ssfOUT_120_48_3_VULTURE","VULTURE",3,0.0208333333333333,120,"no effect"
"ssfOUT_120_48_3_VULTURE.12",-0.494218333716447,-1.20876338581179,0.220326718378894,"ssf","mf.is","exp","vonmises",15,"ssfOUT_120_48_3_VULTURE","VULTURE",3,0.0208333333333333,120,"no effect"
"ssfOUT_120_48_3_VULTURE.13",-0.640107083479303,-1.28188939204743,0.00167522508882756,"ssf","mf.is","exp","vonmises",50,"ssfOUT_120_48_3_VULTURE","VULTURE",3,0.0208333333333333,120,"no effect"
"ssfOUT_120_48_3_VULTURE.14",-0.237790453996944,-0.85732688748397,0.381745979490082,"ssf","mf.is","exp","vonmises",158,"ssfOUT_120_48_3_VULTURE","VULTURE",3,0.0208333333333333,120,"no effect"
"ssfOUT_120_48_3_VULTURE.15",-0.204044649595986,-0.819109029116754,0.411019729924782,"ssf","mf.is","exp","vonmises",500,"ssfOUT_120_48_3_VULTURE","VULTURE",3,0.0208333333333333,120,"no effect"
"ssfOUT_120_48_3_VULTURE.16",-0.201133570664225,-0.899729020931019,0.497461879602569,"ssf","mf.is","exp","unif",5,"ssfOUT_120_48_3_VULTURE","VULTURE",3,0.0208333333333333,120,"no effect"
"ssfOUT_120_48_3_VULTURE.17",-0.354265154189308,-1.01038927218093,0.30185896380232,"ssf","mf.is","exp","unif",15,"ssfOUT_120_48_3_VULTURE","VULTURE",3,0.0208333333333333,120,"no effect"
"ssfOUT_120_48_3_VULTURE.18",-0.0924044056437988,-0.708660892076957,0.52385208078936,"ssf","mf.is","exp","unif",50,"ssfOUT_120_48_3_VULTURE","VULTURE",3,0.0208333333333333,120,"no effect"
"ssfOUT_120_48_3_VULTURE.19",-0.192507655713098,-0.8094058148263,0.424390503400103,"ssf","mf.is","exp","unif",158,"ssfOUT_120_48_3_VULTURE","VULTURE",3,0.0208333333333333,120,"no effect"
"ssfOUT_120_48_3_VULTURE.20",-0.277399506937821,-0.888925260156735,0.334126246281093,"ssf","mf.is","exp","unif",500,"ssfOUT_120_48_3_VULTURE","VULTURE",3,0.0208333333333333,120,"no effect"
"ssfOUT_120_48_3_VULTURE.21",-0.527284362461017,-1.22195671234021,0.167387987418181,"ssf","mf.ss","gamma","vonmises",5,"ssfOUT_120_48_3_VULTURE","VULTURE",3,0.0208333333333333,120,"no effect"
"ssfOUT_120_48_3_VULTURE.22",-0.426989990117548,-1.06719582575752,0.213215845522427,"ssf","mf.ss","gamma","vonmises",15,"ssfOUT_120_48_3_VULTURE","VULTURE",3,0.0208333333333333,120,"no effect"
"ssfOUT_120_48_3_VULTURE.23",-0.36393094376224,-0.98155376788671,0.253691880362229,"ssf","mf.ss","gamma","vonmises",50,"ssfOUT_120_48_3_VULTURE","VULTURE",3,0.0208333333333333,120,"no effect"
"ssfOUT_120_48_3_VULTURE.24",-0.385328014401036,-0.996318043451837,0.225662014649765,"ssf","mf.ss","gamma","vonmises",158,"ssfOUT_120_48_3_VULTURE","VULTURE",3,0.0208333333333333,120,"no effect"
"ssfOUT_120_48_3_VULTURE.25",-0.407181411170816,-1.01552716955049,0.201164347208855,"ssf","mf.ss","gamma","vonmises",500,"ssfOUT_120_48_3_VULTURE","VULTURE",3,0.0208333333333333,120,"no effect"
"ssfOUT_120_48_3_VULTURE.26",0.0187011688972003,-0.658302932552949,0.69570527034735,"ssf","mf.ss","gamma","unif",5,"ssfOUT_120_48_3_VULTURE","VULTURE",3,0.0208333333333333,120,"no effect"
"ssfOUT_120_48_3_VULTURE.27",0.0026015004084364,-0.627140693058382,0.632343693875255,"ssf","mf.ss","gamma","unif",15,"ssfOUT_120_48_3_VULTURE","VULTURE",3,0.0208333333333333,120,"no effect"
"ssfOUT_120_48_3_VULTURE.28",-0.250654012263967,-0.867764157514681,0.366456132986746,"ssf","mf.ss","gamma","unif",50,"ssfOUT_120_48_3_VULTURE","VULTURE",3,0.0208333333333333,120,"no effect"
"ssfOUT_120_48_3_VULTURE.29",-0.337751618677144,-0.949714313564006,0.274211076209718,"ssf","mf.ss","gamma","unif",158,"ssfOUT_120_48_3_VULTURE","VULTURE",3,0.0208333333333333,120,"no effect"
"ssfOUT_120_48_3_VULTURE.30",-0.283678206492504,-0.892034195659956,0.324677782674948,"ssf","mf.ss","gamma","unif",500,"ssfOUT_120_48_3_VULTURE","VULTURE",3,0.0208333333333333,120,"no effect"
"ssfOUT_120_48_3_VULTURE.31",-0.702959430679554,-1.47842473485261,0.0725058734935056,"ssf","mf.ss","exp","vonmises",5,"ssfOUT_120_48_3_VULTURE","VULTURE",3,0.0208333333333333,120,"no effect"
"ssfOUT_120_48_3_VULTURE.32",-0.242132945484072,-0.88279051859002,0.398524627621876,"ssf","mf.ss","exp","vonmises",15,"ssfOUT_120_48_3_VULTURE","VULTURE",3,0.0208333333333333,120,"no effect"
"ssfOUT_120_48_3_VULTURE.33",-0.358783592722938,-0.980035168324738,0.262467982878862,"ssf","mf.ss","exp","vonmises",50,"ssfOUT_120_48_3_VULTURE","VULTURE",3,0.0208333333333333,120,"no effect"
"ssfOUT_120_48_3_VULTURE.34",-0.401554063716671,-1.01609206344142,0.212983936008077,"ssf","mf.ss","exp","vonmises",158,"ssfOUT_120_48_3_VULTURE","VULTURE",3,0.0208333333333333,120,"no effect"
"ssfOUT_120_48_3_VULTURE.35",-0.349039375844261,-0.964181603204615,0.266102851516093,"ssf","mf.ss","exp","vonmises",500,"ssfOUT_120_48_3_VULTURE","VULTURE",3,0.0208333333333333,120,"no effect"
"ssfOUT_120_48_3_VULTURE.36",0.283829758679979,-0.381415796570844,0.949075313930801,"ssf","mf.ss","exp","unif",5,"ssfOUT_120_48_3_VULTURE","VULTURE",3,0.0208333333333333,120,"no effect"
"ssfOUT_120_48_3_VULTURE.37",-0.388101506861902,-1.0249184676241,0.248715453900297,"ssf","mf.ss","exp","unif",15,"ssfOUT_120_48_3_VULTURE","VULTURE",3,0.0208333333333333,120,"no effect"
"ssfOUT_120_48_3_VULTURE.38",-0.131329944380276,-0.74667568229714,0.484015793536588,"ssf","mf.ss","exp","unif",50,"ssfOUT_120_48_3_VULTURE","VULTURE",3,0.0208333333333333,120,"no effect"
"ssfOUT_120_48_3_VULTURE.39",-0.27174492139284,-0.888346045475239,0.344856202689558,"ssf","mf.ss","exp","unif",158,"ssfOUT_120_48_3_VULTURE","VULTURE",3,0.0208333333333333,120,"no effect"
"ssfOUT_120_48_3_VULTURE.40",-0.290676561150436,-0.905733528806298,0.324380406505425,"ssf","mf.ss","exp","unif",500,"ssfOUT_120_48_3_VULTURE","VULTURE",3,0.0208333333333333,120,"no effect"
"ssfOUT_120_48_3_KINGCOBRA.1",0.660304741005231,-0.55790955068704,1.8785190326975,"ssf","mf.is","gamma","vonmises",5,"ssfOUT_120_48_3_KINGCOBRA","KINGCOBRA",3,0.0208333333333333,120,"no effect"
"ssfOUT_120_48_3_KINGCOBRA.2",-0.420987679844306,-1.63259813408873,0.790622774400122,"ssf","mf.is","gamma","vonmises",15,"ssfOUT_120_48_3_KINGCOBRA","KINGCOBRA",3,0.0208333333333333,120,"no effect"
"ssfOUT_120_48_3_KINGCOBRA.3",-0.374869368867129,-1.48233953363289,0.732600795898627,"ssf","mf.is","gamma","vonmises",50,"ssfOUT_120_48_3_KINGCOBRA","KINGCOBRA",3,0.0208333333333333,120,"no effect"
"ssfOUT_120_48_3_KINGCOBRA.4",-0.460394441038093,-1.51253296529865,0.591744083222463,"ssf","mf.is","gamma","vonmises",158,"ssfOUT_120_48_3_KINGCOBRA","KINGCOBRA",3,0.0208333333333333,120,"no effect"
"ssfOUT_120_48_3_KINGCOBRA.5",-0.0846545837193152,-1.12133114280277,0.952021975364144,"ssf","mf.is","gamma","vonmises",500,"ssfOUT_120_48_3_KINGCOBRA","KINGCOBRA",3,0.0208333333333333,120,"no effect"
"ssfOUT_120_48_3_KINGCOBRA.6",-1.04663538111083,-2.37095057887539,0.277679816653722,"ssf","mf.is","gamma","unif",5,"ssfOUT_120_48_3_KINGCOBRA","KINGCOBRA",3,0.0208333333333333,120,"no effect"
"ssfOUT_120_48_3_KINGCOBRA.7",0.0642780846241325,-1.0229555665436,1.15151173579186,"ssf","mf.is","gamma","unif",15,"ssfOUT_120_48_3_KINGCOBRA","KINGCOBRA",3,0.0208333333333333,120,"no effect"
"ssfOUT_120_48_3_KINGCOBRA.8",-0.269680297529732,-1.35075141688552,0.811390821826056,"ssf","mf.is","gamma","unif",50,"ssfOUT_120_48_3_KINGCOBRA","KINGCOBRA",3,0.0208333333333333,120,"no effect"
"ssfOUT_120_48_3_KINGCOBRA.9",-0.0585674473616818,-1.08911930494708,0.971984410223721,"ssf","mf.is","gamma","unif",158,"ssfOUT_120_48_3_KINGCOBRA","KINGCOBRA",3,0.0208333333333333,120,"no effect"
"ssfOUT_120_48_3_KINGCOBRA.10",-0.0433152704432058,-1.078746318742,0.992115777855584,"ssf","mf.is","gamma","unif",500,"ssfOUT_120_48_3_KINGCOBRA","KINGCOBRA",3,0.0208333333333333,120,"no effect"
"ssfOUT_120_48_3_KINGCOBRA.11",0.35474365786376,-1.03019860995376,1.73968592568128,"ssf","mf.is","exp","vonmises",5,"ssfOUT_120_48_3_KINGCOBRA","KINGCOBRA",3,0.0208333333333333,120,"no effect"
"ssfOUT_120_48_3_KINGCOBRA.12",-0.512312213663888,-2.04545143789823,1.02082701057046,"ssf","mf.is","exp","vonmises",15,"ssfOUT_120_48_3_KINGCOBRA","KINGCOBRA",3,0.0208333333333333,120,"no effect"
"ssfOUT_120_48_3_KINGCOBRA.13",-0.297663889865823,-1.41245748381482,0.817129704083176,"ssf","mf.is","exp","vonmises",50,"ssfOUT_120_48_3_KINGCOBRA","KINGCOBRA",3,0.0208333333333333,120,"no effect"
"ssfOUT_120_48_3_KINGCOBRA.14",-0.0348982342476973,-1.08869811282682,1.01890164433143,"ssf","mf.is","exp","vonmises",158,"ssfOUT_120_48_3_KINGCOBRA","KINGCOBRA",3,0.0208333333333333,120,"no effect"
"ssfOUT_120_48_3_KINGCOBRA.15",-0.0400381208195343,-1.0710316935223,0.990955451883229,"ssf","mf.is","exp","vonmises",500,"ssfOUT_120_48_3_KINGCOBRA","KINGCOBRA",3,0.0208333333333333,120,"no effect"
"ssfOUT_120_48_3_KINGCOBRA.16",-2.64670027371589,-4.27319447809893,-1.02020606933284,"ssf","mf.is","exp","unif",5,"ssfOUT_120_48_3_KINGCOBRA","KINGCOBRA",3,0.0208333333333333,120,"avoidance"
"ssfOUT_120_48_3_KINGCOBRA.17",-0.027898551591056,-1.10175680207704,1.04595969889493,"ssf","mf.is","exp","unif",15,"ssfOUT_120_48_3_KINGCOBRA","KINGCOBRA",3,0.0208333333333333,120,"no effect"
"ssfOUT_120_48_3_KINGCOBRA.18",-0.183435344193383,-1.23383817470871,0.866967486321949,"ssf","mf.is","exp","unif",50,"ssfOUT_120_48_3_KINGCOBRA","KINGCOBRA",3,0.0208333333333333,120,"no effect"
"ssfOUT_120_48_3_KINGCOBRA.19",-0.125852370255124,-1.16110637398014,0.90940163346989,"ssf","mf.is","exp","unif",158,"ssfOUT_120_48_3_KINGCOBRA","KINGCOBRA",3,0.0208333333333333,120,"no effect"
"ssfOUT_120_48_3_KINGCOBRA.20",-0.0459397648987843,-1.08411085578204,0.992231325984467,"ssf","mf.is","exp","unif",500,"ssfOUT_120_48_3_KINGCOBRA","KINGCOBRA",3,0.0208333333333333,120,"no effect"
"ssfOUT_120_48_3_KINGCOBRA.21",0.0909900141870285,-1.04046972487801,1.22244975325207,"ssf","mf.ss","gamma","vonmises",5,"ssfOUT_120_48_3_KINGCOBRA","KINGCOBRA",3,0.0208333333333333,120,"no effect"
"ssfOUT_120_48_3_KINGCOBRA.22",-0.717199007821226,-1.82323779668869,0.388839781046241,"ssf","mf.ss","gamma","vonmises",15,"ssfOUT_120_48_3_KINGCOBRA","KINGCOBRA",3,0.0208333333333333,120,"no effect"
"ssfOUT_120_48_3_KINGCOBRA.23",-1.09609241212828,-2.1592887919601,-0.0328960322964598,"ssf","mf.ss","gamma","vonmises",50,"ssfOUT_120_48_3_KINGCOBRA","KINGCOBRA",3,0.0208333333333333,120,"avoidance"
"ssfOUT_120_48_3_KINGCOBRA.24",-0.846888206928586,-1.8745603584507,0.180783944593524,"ssf","mf.ss","gamma","vonmises",158,"ssfOUT_120_48_3_KINGCOBRA","KINGCOBRA",3,0.0208333333333333,120,"no effect"
"ssfOUT_120_48_3_KINGCOBRA.25",-0.836920393067016,-1.86160595242176,0.187765166287734,"ssf","mf.ss","gamma","vonmises",500,"ssfOUT_120_48_3_KINGCOBRA","KINGCOBRA",3,0.0208333333333333,120,"no effect"
"ssfOUT_120_48_3_KINGCOBRA.26",-0.741042155724928,-1.97089942656773,0.488815115117878,"ssf","mf.ss","gamma","unif",5,"ssfOUT_120_48_3_KINGCOBRA","KINGCOBRA",3,0.0208333333333333,120,"no effect"
"ssfOUT_120_48_3_KINGCOBRA.27",-0.304154544796717,-1.37657558142992,0.768266491836485,"ssf","mf.ss","gamma","unif",15,"ssfOUT_120_48_3_KINGCOBRA","KINGCOBRA",3,0.0208333333333333,120,"no effect"
"ssfOUT_120_48_3_KINGCOBRA.28",-0.651628580280945,-1.7095801473565,0.406322986794615,"ssf","mf.ss","gamma","unif",50,"ssfOUT_120_48_3_KINGCOBRA","KINGCOBRA",3,0.0208333333333333,120,"no effect"
"ssfOUT_120_48_3_KINGCOBRA.29",-0.344936936769239,-1.37205048243005,0.682176608891568,"ssf","mf.ss","gamma","unif",158,"ssfOUT_120_48_3_KINGCOBRA","KINGCOBRA",3,0.0208333333333333,120,"no effect"
"ssfOUT_120_48_3_KINGCOBRA.30",-0.361877262644952,-1.38898231630985,0.665227791019946,"ssf","mf.ss","gamma","unif",500,"ssfOUT_120_48_3_KINGCOBRA","KINGCOBRA",3,0.0208333333333333,120,"no effect"
"ssfOUT_120_48_3_KINGCOBRA.31",-0.418874088210519,-1.57490560721623,0.737157430795189,"ssf","mf.ss","exp","vonmises",5,"ssfOUT_120_48_3_KINGCOBRA","KINGCOBRA",3,0.0208333333333333,120,"no effect"
"ssfOUT_120_48_3_KINGCOBRA.32",-2.54373594963406,-3.9595589408088,-1.12791295845931,"ssf","mf.ss","exp","vonmises",15,"ssfOUT_120_48_3_KINGCOBRA","KINGCOBRA",3,0.0208333333333333,120,"avoidance"
"ssfOUT_120_48_3_KINGCOBRA.33",-0.885178304021092,-1.92721302250287,0.156856414460684,"ssf","mf.ss","exp","vonmises",50,"ssfOUT_120_48_3_KINGCOBRA","KINGCOBRA",3,0.0208333333333333,120,"no effect"
"ssfOUT_120_48_3_KINGCOBRA.34",-0.529341361708392,-1.55636749496782,0.497684771551041,"ssf","mf.ss","exp","vonmises",158,"ssfOUT_120_48_3_KINGCOBRA","KINGCOBRA",3,0.0208333333333333,120,"no effect"
"ssfOUT_120_48_3_KINGCOBRA.35",-0.493648757173239,-1.51398084695425,0.526683332607775,"ssf","mf.ss","exp","vonmises",500,"ssfOUT_120_48_3_KINGCOBRA","KINGCOBRA",3,0.0208333333333333,120,"no effect"
"ssfOUT_120_48_3_KINGCOBRA.36",-1.46818631590063,-2.88432780863957,-0.0520448231616923,"ssf","mf.ss","exp","unif",5,"ssfOUT_120_48_3_KINGCOBRA","KINGCOBRA",3,0.0208333333333333,120,"avoidance"
"ssfOUT_120_48_3_KINGCOBRA.37",-0.0120026092613069,-1.06995423314579,1.04594901462318,"ssf","mf.ss","exp","unif",15,"ssfOUT_120_48_3_KINGCOBRA","KINGCOBRA",3,0.0208333333333333,120,"no effect"
"ssfOUT_120_48_3_KINGCOBRA.38",-0.254940743154566,-1.28358544205714,0.773703955748004,"ssf","mf.ss","exp","unif",50,"ssfOUT_120_48_3_KINGCOBRA","KINGCOBRA",3,0.0208333333333333,120,"no effect"
"ssfOUT_120_48_3_KINGCOBRA.39",-0.296966732517598,-1.31948258977568,0.725549124740483,"ssf","mf.ss","exp","unif",158,"ssfOUT_120_48_3_KINGCOBRA","KINGCOBRA",3,0.0208333333333333,120,"no effect"
"ssfOUT_120_48_3_KINGCOBRA.40",-0.316399773063031,-1.34532473455136,0.712525188425299,"ssf","mf.ss","exp","unif",500,"ssfOUT_120_48_3_KINGCOBRA","KINGCOBRA",3,0.0208333333333333,120,"no effect"
"ssfOUT_120_48_4_BADGER.1",-0.906558151519664,-1.64810442413372,-0.165011878905604,"ssf","mf.is","gamma","vonmises",5,"ssfOUT_120_48_4_BADGER","BADGER",4,0.0208333333333333,120,"avoidance"
"ssfOUT_120_48_4_BADGER.2",-1.16293862912809,-1.73372644713961,-0.592150811116573,"ssf","mf.is","gamma","vonmises",15,"ssfOUT_120_48_4_BADGER","BADGER",4,0.0208333333333333,120,"avoidance"
"ssfOUT_120_48_4_BADGER.3",-1.26809606098216,-1.80744909865306,-0.728743023311262,"ssf","mf.is","gamma","vonmises",50,"ssfOUT_120_48_4_BADGER","BADGER",4,0.0208333333333333,120,"avoidance"
"ssfOUT_120_48_4_BADGER.4",-1.32376295797041,-1.83833011222863,-0.809195803712194,"ssf","mf.is","gamma","vonmises",158,"ssfOUT_120_48_4_BADGER","BADGER",4,0.0208333333333333,120,"avoidance"
"ssfOUT_120_48_4_BADGER.5",-1.24862898791989,-1.75249425098078,-0.744763724858999,"ssf","mf.is","gamma","vonmises",500,"ssfOUT_120_48_4_BADGER","BADGER",4,0.0208333333333333,120,"avoidance"
"ssfOUT_120_48_4_BADGER.6",-1.4562499516906,-2.09869207538503,-0.813807827996171,"ssf","mf.is","gamma","unif",5,"ssfOUT_120_48_4_BADGER","BADGER",4,0.0208333333333333,120,"avoidance"
"ssfOUT_120_48_4_BADGER.7",-1.72785641770494,-2.29677780733406,-1.15893502807581,"ssf","mf.is","gamma","unif",15,"ssfOUT_120_48_4_BADGER","BADGER",4,0.0208333333333333,120,"avoidance"
"ssfOUT_120_48_4_BADGER.8",-1.32704039660361,-1.8479558157468,-0.806124977460427,"ssf","mf.is","gamma","unif",50,"ssfOUT_120_48_4_BADGER","BADGER",4,0.0208333333333333,120,"avoidance"
"ssfOUT_120_48_4_BADGER.9",-1.21620202727983,-1.72058522840041,-0.711818826159248,"ssf","mf.is","gamma","unif",158,"ssfOUT_120_48_4_BADGER","BADGER",4,0.0208333333333333,120,"avoidance"
"ssfOUT_120_48_4_BADGER.10",-1.30943662315584,-1.81126835215221,-0.807604894159462,"ssf","mf.is","gamma","unif",500,"ssfOUT_120_48_4_BADGER","BADGER",4,0.0208333333333333,120,"avoidance"
"ssfOUT_120_48_4_BADGER.11",-2.79655272329591,-3.80321632565315,-1.78988912093867,"ssf","mf.is","exp","vonmises",5,"ssfOUT_120_48_4_BADGER","BADGER",4,0.0208333333333333,120,"avoidance"
"ssfOUT_120_48_4_BADGER.12",-1.41668783563557,-2.06123366899882,-0.772142002272319,"ssf","mf.is","exp","vonmises",15,"ssfOUT_120_48_4_BADGER","BADGER",4,0.0208333333333333,120,"avoidance"
"ssfOUT_120_48_4_BADGER.13",-1.10272536661136,-1.65170691383822,-0.553743819384513,"ssf","mf.is","exp","vonmises",50,"ssfOUT_120_48_4_BADGER","BADGER",4,0.0208333333333333,120,"avoidance"
"ssfOUT_120_48_4_BADGER.14",-1.07908180640639,-1.59068152819195,-0.567482084620828,"ssf","mf.is","exp","vonmises",158,"ssfOUT_120_48_4_BADGER","BADGER",4,0.0208333333333333,120,"avoidance"
"ssfOUT_120_48_4_BADGER.15",-1.25266993890754,-1.7568488687361,-0.748491009078975,"ssf","mf.is","exp","vonmises",500,"ssfOUT_120_48_4_BADGER","BADGER",4,0.0208333333333333,120,"avoidance"
"ssfOUT_120_48_4_BADGER.16",-1.0895912894044,-1.75903308116235,-0.420149497646442,"ssf","mf.is","exp","unif",5,"ssfOUT_120_48_4_BADGER","BADGER",4,0.0208333333333333,120,"avoidance"
"ssfOUT_120_48_4_BADGER.17",-1.2316275129318,-1.79202801420771,-0.67122701165589,"ssf","mf.is","exp","unif",15,"ssfOUT_120_48_4_BADGER","BADGER",4,0.0208333333333333,120,"avoidance"
"ssfOUT_120_48_4_BADGER.18",-1.37384927429646,-1.8924758558642,-0.855222692728731,"ssf","mf.is","exp","unif",50,"ssfOUT_120_48_4_BADGER","BADGER",4,0.0208333333333333,120,"avoidance"
"ssfOUT_120_48_4_BADGER.19",-1.15670399942136,-1.66283733104962,-0.650570667793098,"ssf","mf.is","exp","unif",158,"ssfOUT_120_48_4_BADGER","BADGER",4,0.0208333333333333,120,"avoidance"
"ssfOUT_120_48_4_BADGER.20",-1.23926751691692,-1.7407157275155,-0.737819306318345,"ssf","mf.is","exp","unif",500,"ssfOUT_120_48_4_BADGER","BADGER",4,0.0208333333333333,120,"avoidance"
"ssfOUT_120_48_4_BADGER.21",-1.632651437689,-2.22580470991588,-1.03949816546213,"ssf","mf.ss","gamma","vonmises",5,"ssfOUT_120_48_4_BADGER","BADGER",4,0.0208333333333333,120,"avoidance"
"ssfOUT_120_48_4_BADGER.22",-1.18265864125333,-1.68066990327934,-0.68464737922732,"ssf","mf.ss","gamma","vonmises",15,"ssfOUT_120_48_4_BADGER","BADGER",4,0.0208333333333333,120,"avoidance"
"ssfOUT_120_48_4_BADGER.23",-1.4683381274046,-1.95088946811444,-0.985786786694763,"ssf","mf.ss","gamma","vonmises",50,"ssfOUT_120_48_4_BADGER","BADGER",4,0.0208333333333333,120,"avoidance"
"ssfOUT_120_48_4_BADGER.24",-1.38943399100716,-1.85437149632184,-0.924496485692488,"ssf","mf.ss","gamma","vonmises",158,"ssfOUT_120_48_4_BADGER","BADGER",4,0.0208333333333333,120,"avoidance"
"ssfOUT_120_48_4_BADGER.25",-1.48758947052624,-1.95142411959409,-1.02375482145839,"ssf","mf.ss","gamma","vonmises",500,"ssfOUT_120_48_4_BADGER","BADGER",4,0.0208333333333333,120,"avoidance"
"ssfOUT_120_48_4_BADGER.26",-1.49731617612537,-2.07789217271226,-0.916740179538477,"ssf","mf.ss","gamma","unif",5,"ssfOUT_120_48_4_BADGER","BADGER",4,0.0208333333333333,120,"avoidance"
"ssfOUT_120_48_4_BADGER.27",-1.67335306866586,-2.17774547729661,-1.16896066003511,"ssf","mf.ss","gamma","unif",15,"ssfOUT_120_48_4_BADGER","BADGER",4,0.0208333333333333,120,"avoidance"
"ssfOUT_120_48_4_BADGER.28",-1.46990945506244,-1.94731222985896,-0.99250668026591,"ssf","mf.ss","gamma","unif",50,"ssfOUT_120_48_4_BADGER","BADGER",4,0.0208333333333333,120,"avoidance"
"ssfOUT_120_48_4_BADGER.29",-1.38119708668177,-1.84622612550984,-0.916168047853699,"ssf","mf.ss","gamma","unif",158,"ssfOUT_120_48_4_BADGER","BADGER",4,0.0208333333333333,120,"avoidance"
"ssfOUT_120_48_4_BADGER.30",-1.4846157783475,-1.9476301601821,-1.02160139651291,"ssf","mf.ss","gamma","unif",500,"ssfOUT_120_48_4_BADGER","BADGER",4,0.0208333333333333,120,"avoidance"
"ssfOUT_120_48_4_BADGER.31",-1.94291553838048,-2.61952448321244,-1.26630659354852,"ssf","mf.ss","exp","vonmises",5,"ssfOUT_120_48_4_BADGER","BADGER",4,0.0208333333333333,120,"avoidance"
"ssfOUT_120_48_4_BADGER.32",-1.20834155781323,-1.71804185120765,-0.698641264418823,"ssf","mf.ss","exp","vonmises",15,"ssfOUT_120_48_4_BADGER","BADGER",4,0.0208333333333333,120,"avoidance"
"ssfOUT_120_48_4_BADGER.33",-1.24798461228408,-1.74124876604618,-0.754720458521976,"ssf","mf.ss","exp","vonmises",50,"ssfOUT_120_48_4_BADGER","BADGER",4,0.0208333333333333,120,"avoidance"
"ssfOUT_120_48_4_BADGER.34",-1.12996279622679,-1.60342364734012,-0.656501945113472,"ssf","mf.ss","exp","vonmises",158,"ssfOUT_120_48_4_BADGER","BADGER",4,0.0208333333333333,120,"avoidance"
"ssfOUT_120_48_4_BADGER.35",-1.29460235720266,-1.76586077486837,-0.823343939536962,"ssf","mf.ss","exp","vonmises",500,"ssfOUT_120_48_4_BADGER","BADGER",4,0.0208333333333333,120,"avoidance"
"ssfOUT_120_48_4_BADGER.36",-1.12630175614217,-1.7110919641935,-0.541511548090846,"ssf","mf.ss","exp","unif",5,"ssfOUT_120_48_4_BADGER","BADGER",4,0.0208333333333333,120,"avoidance"
"ssfOUT_120_48_4_BADGER.37",-1.07002339063088,-1.57882779220591,-0.561218989055847,"ssf","mf.ss","exp","unif",15,"ssfOUT_120_48_4_BADGER","BADGER",4,0.0208333333333333,120,"avoidance"
"ssfOUT_120_48_4_BADGER.38",-1.38026463948389,-1.85885703582723,-0.901672243140556,"ssf","mf.ss","exp","unif",50,"ssfOUT_120_48_4_BADGER","BADGER",4,0.0208333333333333,120,"avoidance"
"ssfOUT_120_48_4_BADGER.39",-1.23557680764668,-1.70991832692838,-0.761235288364979,"ssf","mf.ss","exp","unif",158,"ssfOUT_120_48_4_BADGER","BADGER",4,0.0208333333333333,120,"avoidance"
"ssfOUT_120_48_4_BADGER.40",-1.20401577566849,-1.67544802362734,-0.732583527709638,"ssf","mf.ss","exp","unif",500,"ssfOUT_120_48_4_BADGER","BADGER",4,0.0208333333333333,120,"avoidance"
"ssfOUT_120_48_4_VULTURE.1",-0.542084765714106,-1.29811420395909,0.213944672530875,"ssf","mf.is","gamma","vonmises",5,"ssfOUT_120_48_4_VULTURE","VULTURE",4,0.0208333333333333,120,"no effect"
"ssfOUT_120_48_4_VULTURE.2",-0.287888158330556,-0.953000192667212,0.3772238760061,"ssf","mf.is","gamma","vonmises",15,"ssfOUT_120_48_4_VULTURE","VULTURE",4,0.0208333333333333,120,"no effect"
"ssfOUT_120_48_4_VULTURE.3",-0.725316985928348,-1.36445404644059,-0.0861799254161043,"ssf","mf.is","gamma","vonmises",50,"ssfOUT_120_48_4_VULTURE","VULTURE",4,0.0208333333333333,120,"avoidance"
"ssfOUT_120_48_4_VULTURE.4",-0.460768442970789,-1.08431558918697,0.162778703245388,"ssf","mf.is","gamma","vonmises",158,"ssfOUT_120_48_4_VULTURE","VULTURE",4,0.0208333333333333,120,"no effect"
"ssfOUT_120_48_4_VULTURE.5",-0.440933799194848,-1.06019471769461,0.17832711930491,"ssf","mf.is","gamma","vonmises",500,"ssfOUT_120_48_4_VULTURE","VULTURE",4,0.0208333333333333,120,"no effect"
"ssfOUT_120_48_4_VULTURE.6",-0.643817317311113,-1.39195607096071,0.104321436338489,"ssf","mf.is","gamma","unif",5,"ssfOUT_120_48_4_VULTURE","VULTURE",4,0.0208333333333333,120,"no effect"
"ssfOUT_120_48_4_VULTURE.7",-0.384127963402362,-1.02974527046436,0.261489343659639,"ssf","mf.is","gamma","unif",15,"ssfOUT_120_48_4_VULTURE","VULTURE",4,0.0208333333333333,120,"no effect"
"ssfOUT_120_48_4_VULTURE.8",-0.396405527216372,-1.02604914762818,0.23323809319544,"ssf","mf.is","gamma","unif",50,"ssfOUT_120_48_4_VULTURE","VULTURE",4,0.0208333333333333,120,"no effect"
"ssfOUT_120_48_4_VULTURE.9",-0.4529911316408,-1.07377730709125,0.167795043809651,"ssf","mf.is","gamma","unif",158,"ssfOUT_120_48_4_VULTURE","VULTURE",4,0.0208333333333333,120,"no effect"
"ssfOUT_120_48_4_VULTURE.10",-0.437291822490125,-1.05535198361422,0.180768338633974,"ssf","mf.is","gamma","unif",500,"ssfOUT_120_48_4_VULTURE","VULTURE",4,0.0208333333333333,120,"no effect"
"ssfOUT_120_48_4_VULTURE.11",-0.0822992092896433,-0.95331948265922,0.788721064079933,"ssf","mf.is","exp","vonmises",5,"ssfOUT_120_48_4_VULTURE","VULTURE",4,0.0208333333333333,120,"no effect"
"ssfOUT_120_48_4_VULTURE.12",-0.683066919954837,-1.40349411664613,0.037360276736451,"ssf","mf.is","exp","vonmises",15,"ssfOUT_120_48_4_VULTURE","VULTURE",4,0.0208333333333333,120,"no effect"
"ssfOUT_120_48_4_VULTURE.13",-0.19221504382391,-0.826025173320115,0.441595085672295,"ssf","mf.is","exp","vonmises",50,"ssfOUT_120_48_4_VULTURE","VULTURE",4,0.0208333333333333,120,"no effect"
"ssfOUT_120_48_4_VULTURE.14",-0.453542032697934,-1.07902683838702,0.171942772991151,"ssf","mf.is","exp","vonmises",158,"ssfOUT_120_48_4_VULTURE","VULTURE",4,0.0208333333333333,120,"no effect"
"ssfOUT_120_48_4_VULTURE.15",-0.471723591284218,-1.09182512750299,0.148377944934555,"ssf","mf.is","exp","vonmises",500,"ssfOUT_120_48_4_VULTURE","VULTURE",4,0.0208333333333333,120,"no effect"
"ssfOUT_120_48_4_VULTURE.16",0.117592288442929,-0.636654973268106,0.871839550153965,"ssf","mf.is","exp","unif",5,"ssfOUT_120_48_4_VULTURE","VULTURE",4,0.0208333333333333,120,"no effect"
"ssfOUT_120_48_4_VULTURE.17",-1.0981605878841,-1.79220605497476,-0.404115120793448,"ssf","mf.is","exp","unif",15,"ssfOUT_120_48_4_VULTURE","VULTURE",4,0.0208333333333333,120,"avoidance"
"ssfOUT_120_48_4_VULTURE.18",-0.452948056564752,-1.08464562606208,0.178749512932577,"ssf","mf.is","exp","unif",50,"ssfOUT_120_48_4_VULTURE","VULTURE",4,0.0208333333333333,120,"no effect"
"ssfOUT_120_48_4_VULTURE.19",-0.430396609646582,-1.05179388480401,0.19100066551085,"ssf","mf.is","exp","unif",158,"ssfOUT_120_48_4_VULTURE","VULTURE",4,0.0208333333333333,120,"no effect"
"ssfOUT_120_48_4_VULTURE.20",-0.540123943861161,-1.1583529006996,0.0781050129772821,"ssf","mf.is","exp","unif",500,"ssfOUT_120_48_4_VULTURE","VULTURE",4,0.0208333333333333,120,"no effect"
"ssfOUT_120_48_4_VULTURE.21",-0.409585136989045,-1.08099666712027,0.261826393142179,"ssf","mf.ss","gamma","vonmises",5,"ssfOUT_120_48_4_VULTURE","VULTURE",4,0.0208333333333333,120,"no effect"
"ssfOUT_120_48_4_VULTURE.22",-0.418071733564162,-1.05493811494122,0.218794647812896,"ssf","mf.ss","gamma","vonmises",15,"ssfOUT_120_48_4_VULTURE","VULTURE",4,0.0208333333333333,120,"no effect"
"ssfOUT_120_48_4_VULTURE.23",-0.770374309865039,-1.39233202269708,-0.148416597032994,"ssf","mf.ss","gamma","vonmises",50,"ssfOUT_120_48_4_VULTURE","VULTURE",4,0.0208333333333333,120,"avoidance"
"ssfOUT_120_48_4_VULTURE.24",-0.571909958014329,-1.18828592109104,0.0444660050623847,"ssf","mf.ss","gamma","vonmises",158,"ssfOUT_120_48_4_VULTURE","VULTURE",4,0.0208333333333333,120,"no effect"
"ssfOUT_120_48_4_VULTURE.25",-0.52306783567777,-1.13758108546112,0.0914454141055802,"ssf","mf.ss","gamma","vonmises",500,"ssfOUT_120_48_4_VULTURE","VULTURE",4,0.0208333333333333,120,"no effect"
"ssfOUT_120_48_4_VULTURE.26",-0.608883344608792,-1.31986146700478,0.102094777787197,"ssf","mf.ss","gamma","unif",5,"ssfOUT_120_48_4_VULTURE","VULTURE",4,0.0208333333333333,120,"no effect"
"ssfOUT_120_48_4_VULTURE.27",-0.328623819691425,-0.965438982291531,0.308191342908681,"ssf","mf.ss","gamma","unif",15,"ssfOUT_120_48_4_VULTURE","VULTURE",4,0.0208333333333333,120,"no effect"
"ssfOUT_120_48_4_VULTURE.28",-0.409350401507266,-1.03191222380371,0.213211420789182,"ssf","mf.ss","gamma","unif",50,"ssfOUT_120_48_4_VULTURE","VULTURE",4,0.0208333333333333,120,"no effect"
"ssfOUT_120_48_4_VULTURE.29",-0.480880558216418,-1.09783354568816,0.136072429255319,"ssf","mf.ss","gamma","unif",158,"ssfOUT_120_48_4_VULTURE","VULTURE",4,0.0208333333333333,120,"no effect"
"ssfOUT_120_48_4_VULTURE.30",-0.451988643744786,-1.06695576048602,0.162978472996448,"ssf","mf.ss","gamma","unif",500,"ssfOUT_120_48_4_VULTURE","VULTURE",4,0.0208333333333333,120,"no effect"
"ssfOUT_120_48_4_VULTURE.31",-0.831563702536586,-1.54331315871246,-0.119814246360707,"ssf","mf.ss","exp","vonmises",5,"ssfOUT_120_48_4_VULTURE","VULTURE",4,0.0208333333333333,120,"avoidance"
"ssfOUT_120_48_4_VULTURE.32",-0.447718722249707,-1.09294397108549,0.197506526586079,"ssf","mf.ss","exp","vonmises",15,"ssfOUT_120_48_4_VULTURE","VULTURE",4,0.0208333333333333,120,"no effect"
"ssfOUT_120_48_4_VULTURE.33",-0.496868095088443,-1.11569037186323,0.12195418168634,"ssf","mf.ss","exp","vonmises",50,"ssfOUT_120_48_4_VULTURE","VULTURE",4,0.0208333333333333,120,"no effect"
"ssfOUT_120_48_4_VULTURE.34",-0.679507743455177,-1.29864200634922,-0.0603734805611305,"ssf","mf.ss","exp","vonmises",158,"ssfOUT_120_48_4_VULTURE","VULTURE",4,0.0208333333333333,120,"avoidance"
"ssfOUT_120_48_4_VULTURE.35",-0.649626163048661,-1.26598661717688,-0.0332657089204446,"ssf","mf.ss","exp","vonmises",500,"ssfOUT_120_48_4_VULTURE","VULTURE",4,0.0208333333333333,120,"avoidance"
"ssfOUT_120_48_4_VULTURE.36",-0.0662869006238128,-0.741096615332956,0.60852281408533,"ssf","mf.ss","exp","unif",5,"ssfOUT_120_48_4_VULTURE","VULTURE",4,0.0208333333333333,120,"no effect"
"ssfOUT_120_48_4_VULTURE.37",-0.790064497335839,-1.44002139421579,-0.140107600455884,"ssf","mf.ss","exp","unif",15,"ssfOUT_120_48_4_VULTURE","VULTURE",4,0.0208333333333333,120,"avoidance"
"ssfOUT_120_48_4_VULTURE.38",-0.432623435849433,-1.05487820030895,0.189631328610082,"ssf","mf.ss","exp","unif",50,"ssfOUT_120_48_4_VULTURE","VULTURE",4,0.0208333333333333,120,"no effect"
"ssfOUT_120_48_4_VULTURE.39",-0.449766740549622,-1.0677583092152,0.168224828115952,"ssf","mf.ss","exp","unif",158,"ssfOUT_120_48_4_VULTURE","VULTURE",4,0.0208333333333333,120,"no effect"
"ssfOUT_120_48_4_VULTURE.40",-0.566321176685464,-1.18389873240027,0.0512563790293433,"ssf","mf.ss","exp","unif",500,"ssfOUT_120_48_4_VULTURE","VULTURE",4,0.0208333333333333,120,"no effect"
"ssfOUT_120_48_4_KINGCOBRA.1",16.7990357095834,-7300.97591712014,7334.57398853931,"ssf","mf.is","gamma","vonmises",5,"ssfOUT_120_48_4_KINGCOBRA","KINGCOBRA",4,0.0208333333333333,120,"no effect"
"ssfOUT_120_48_4_KINGCOBRA.2",16.5181360895262,-4281.69029005415,4314.7265622332,"ssf","mf.is","gamma","vonmises",15,"ssfOUT_120_48_4_KINGCOBRA","KINGCOBRA",4,0.0208333333333333,120,"no effect"
"ssfOUT_120_48_4_KINGCOBRA.3",16.855194705349,-4415.61766412908,4449.32805353978,"ssf","mf.is","gamma","vonmises",50,"ssfOUT_120_48_4_KINGCOBRA","KINGCOBRA",4,0.0208333333333333,120,"no effect"
"ssfOUT_120_48_4_KINGCOBRA.4",17.1449081143021,-4334.08777285167,4368.37758908027,"ssf","mf.is","gamma","vonmises",158,"ssfOUT_120_48_4_KINGCOBRA","KINGCOBRA",4,0.0208333333333333,120,"no effect"
"ssfOUT_120_48_4_KINGCOBRA.5",16.1453899893087,-2865.53744622624,2897.82822620485,"ssf","mf.is","gamma","vonmises",500,"ssfOUT_120_48_4_KINGCOBRA","KINGCOBRA",4,0.0208333333333333,120,"no effect"
"ssfOUT_120_48_4_KINGCOBRA.6",17.3347405794068,-4623.79197255172,4658.46145371054,"ssf","mf.is","gamma","unif",5,"ssfOUT_120_48_4_KINGCOBRA","KINGCOBRA",4,0.0208333333333333,120,"no effect"
"ssfOUT_120_48_4_KINGCOBRA.7",16.935404428462,-4435.63417521548,4469.5049840724,"ssf","mf.is","gamma","unif",15,"ssfOUT_120_48_4_KINGCOBRA","KINGCOBRA",4,0.0208333333333333,120,"no effect"
"ssfOUT_120_48_4_KINGCOBRA.8",17.0866200937721,-4605.15780634806,4639.3310465356,"ssf","mf.is","gamma","unif",50,"ssfOUT_120_48_4_KINGCOBRA","KINGCOBRA",4,0.0208333333333333,120,"no effect"
"ssfOUT_120_48_4_KINGCOBRA.9",16.0195748438337,-2786.58280431298,2818.62195400065,"ssf","mf.is","gamma","unif",158,"ssfOUT_120_48_4_KINGCOBRA","KINGCOBRA",4,0.0208333333333333,120,"no effect"
"ssfOUT_120_48_4_KINGCOBRA.10",16.0781552197911,-2823.6802110097,2855.83652144928,"ssf","mf.is","gamma","unif",500,"ssfOUT_120_48_4_KINGCOBRA","KINGCOBRA",4,0.0208333333333333,120,"no effect"
"ssfOUT_120_48_4_KINGCOBRA.11",17.3577052347439,-6919.82513808567,6954.54054855516,"ssf","mf.is","exp","vonmises",5,"ssfOUT_120_48_4_KINGCOBRA","KINGCOBRA",4,0.0208333333333333,120,"no effect"
"ssfOUT_120_48_4_KINGCOBRA.12",16.0003448934172,-4687.3888390451,4719.38952883193,"ssf","mf.is","exp","vonmises",15,"ssfOUT_120_48_4_KINGCOBRA","KINGCOBRA",4,0.0208333333333333,120,"no effect"
"ssfOUT_120_48_4_KINGCOBRA.13",16.2468286644857,-3303.97416950564,3336.46782683461,"ssf","mf.is","exp","vonmises",50,"ssfOUT_120_48_4_KINGCOBRA","KINGCOBRA",4,0.0208333333333333,120,"no effect"
"ssfOUT_120_48_4_KINGCOBRA.14",16.2224937369771,-2990.60616834076,3023.05115581471,"ssf","mf.is","exp","vonmises",158,"ssfOUT_120_48_4_KINGCOBRA","KINGCOBRA",4,0.0208333333333333,120,"no effect"
"ssfOUT_120_48_4_KINGCOBRA.15",16.1587435187994,-3217.36856050506,3249.68604754265,"ssf","mf.is","exp","vonmises",500,"ssfOUT_120_48_4_KINGCOBRA","KINGCOBRA",4,0.0208333333333333,120,"no effect"
"ssfOUT_120_48_4_KINGCOBRA.16",17.6272208601241,-5540.73823313361,5575.99267485386,"ssf","mf.is","exp","unif",5,"ssfOUT_120_48_4_KINGCOBRA","KINGCOBRA",4,0.0208333333333333,120,"no effect"
"ssfOUT_120_48_4_KINGCOBRA.17",17.0600592930901,-5111.74145264109,5145.86157122727,"ssf","mf.is","exp","unif",15,"ssfOUT_120_48_4_KINGCOBRA","KINGCOBRA",4,0.0208333333333333,120,"no effect"
"ssfOUT_120_48_4_KINGCOBRA.18",17.0279798348787,-4462.24693589692,4496.30289556668,"ssf","mf.is","exp","unif",50,"ssfOUT_120_48_4_KINGCOBRA","KINGCOBRA",4,0.0208333333333333,120,"no effect"
"ssfOUT_120_48_4_KINGCOBRA.19",16.2329010031613,-2972.69855187912,3005.16435388544,"ssf","mf.is","exp","unif",158,"ssfOUT_120_48_4_KINGCOBRA","KINGCOBRA",4,0.0208333333333333,120,"no effect"
"ssfOUT_120_48_4_KINGCOBRA.20",16.06665392796,-2842.15075628456,2874.28406414048,"ssf","mf.is","exp","unif",500,"ssfOUT_120_48_4_KINGCOBRA","KINGCOBRA",4,0.0208333333333333,120,"no effect"
"ssfOUT_120_48_4_KINGCOBRA.21",17.428518332808,-6359.94088548933,6394.79792215495,"ssf","mf.ss","gamma","vonmises",5,"ssfOUT_120_48_4_KINGCOBRA","KINGCOBRA",4,0.0208333333333333,120,"no effect"
"ssfOUT_120_48_4_KINGCOBRA.22",17.2131930324777,-5189.94185726881,5224.36824333376,"ssf","mf.ss","gamma","vonmises",15,"ssfOUT_120_48_4_KINGCOBRA","KINGCOBRA",4,0.0208333333333333,120,"no effect"
"ssfOUT_120_48_4_KINGCOBRA.23",16.1895709121454,-2854.67785759648,2887.05699942077,"ssf","mf.ss","gamma","vonmises",50,"ssfOUT_120_48_4_KINGCOBRA","KINGCOBRA",4,0.0208333333333333,120,"no effect"
"ssfOUT_120_48_4_KINGCOBRA.24",16.1388146062933,-2690.6335875057,2722.91121671829,"ssf","mf.ss","gamma","vonmises",158,"ssfOUT_120_48_4_KINGCOBRA","KINGCOBRA",4,0.0208333333333333,120,"no effect"
"ssfOUT_120_48_4_KINGCOBRA.25",16.1247998948466,-2784.89384579853,2817.14344558823,"ssf","mf.ss","gamma","vonmises",500,"ssfOUT_120_48_4_KINGCOBRA","KINGCOBRA",4,0.0208333333333333,120,"no effect"
"ssfOUT_120_48_4_KINGCOBRA.26",17.3570749038035,-4794.5431108954,4829.25726070301,"ssf","mf.ss","gamma","unif",5,"ssfOUT_120_48_4_KINGCOBRA","KINGCOBRA",4,0.0208333333333333,120,"no effect"
"ssfOUT_120_48_4_KINGCOBRA.27",17.1867217316004,-4501.34063065536,4535.71407411856,"ssf","mf.ss","gamma","unif",15,"ssfOUT_120_48_4_KINGCOBRA","KINGCOBRA",4,0.0208333333333333,120,"no effect"
"ssfOUT_120_48_4_KINGCOBRA.28",16.1276897633242,-2820.83860010824,2853.09397963489,"ssf","mf.ss","gamma","unif",50,"ssfOUT_120_48_4_KINGCOBRA","KINGCOBRA",4,0.0208333333333333,120,"no effect"
"ssfOUT_120_48_4_KINGCOBRA.29",16.1124676012219,-2736.20373639826,2768.42867160071,"ssf","mf.ss","gamma","unif",158,"ssfOUT_120_48_4_KINGCOBRA","KINGCOBRA",4,0.0208333333333333,120,"no effect"
"ssfOUT_120_48_4_KINGCOBRA.30",16.0920282387609,-2793.42682992874,2825.61088640626,"ssf","mf.ss","gamma","unif",500,"ssfOUT_120_48_4_KINGCOBRA","KINGCOBRA",4,0.0208333333333333,120,"no effect"
"ssfOUT_120_48_4_KINGCOBRA.31",17.35749581526,-6346.30409495983,6381.01908659035,"ssf","mf.ss","exp","vonmises",5,"ssfOUT_120_48_4_KINGCOBRA","KINGCOBRA",4,0.0208333333333333,120,"no effect"
"ssfOUT_120_48_4_KINGCOBRA.32",16.2125625214409,-3378.96720937026,3411.39233441314,"ssf","mf.ss","exp","vonmises",15,"ssfOUT_120_48_4_KINGCOBRA","KINGCOBRA",4,0.0208333333333333,120,"no effect"
"ssfOUT_120_48_4_KINGCOBRA.33",16.1359324107575,-2889.01651161227,2921.28837643378,"ssf","mf.ss","exp","vonmises",50,"ssfOUT_120_48_4_KINGCOBRA","KINGCOBRA",4,0.0208333333333333,120,"no effect"
"ssfOUT_120_48_4_KINGCOBRA.34",16.1208737416906,-2789.99330504507,2822.23505252845,"ssf","mf.ss","exp","vonmises",158,"ssfOUT_120_48_4_KINGCOBRA","KINGCOBRA",4,0.0208333333333333,120,"no effect"
"ssfOUT_120_48_4_KINGCOBRA.35",16.15415185083,-2890.33511840341,2922.64342210507,"ssf","mf.ss","exp","vonmises",500,"ssfOUT_120_48_4_KINGCOBRA","KINGCOBRA",4,0.0208333333333333,120,"no effect"
"ssfOUT_120_48_4_KINGCOBRA.36",17.4287244570973,-5690.99496306092,5725.85241197512,"ssf","mf.ss","exp","unif",5,"ssfOUT_120_48_4_KINGCOBRA","KINGCOBRA",4,0.0208333333333333,120,"no effect"
"ssfOUT_120_48_4_KINGCOBRA.37",17.1555637578517,-4994.81006374537,5029.12119126107,"ssf","mf.ss","exp","unif",15,"ssfOUT_120_48_4_KINGCOBRA","KINGCOBRA",4,0.0208333333333333,120,"no effect"
"ssfOUT_120_48_4_KINGCOBRA.38",17.1345873543524,-4428.84643391775,4463.11560862645,"ssf","mf.ss","exp","unif",50,"ssfOUT_120_48_4_KINGCOBRA","KINGCOBRA",4,0.0208333333333333,120,"no effect"
"ssfOUT_120_48_4_KINGCOBRA.39",16.0876355774871,-2903.25880456754,2935.43407572252,"ssf","mf.ss","exp","unif",158,"ssfOUT_120_48_4_KINGCOBRA","KINGCOBRA",4,0.0208333333333333,120,"no effect"
"ssfOUT_120_48_4_KINGCOBRA.40",16.0992828855583,-2826.8380102935,2859.03657606462,"ssf","mf.ss","exp","unif",500,"ssfOUT_120_48_4_KINGCOBRA","KINGCOBRA",4,0.0208333333333333,120,"no effect"
"ssfOUT_240_0.5_1_BADGER.1",0.333845059848129,0.221040347245594,0.446649772450665,"ssf","mf.is","gamma","vonmises",5,"ssfOUT_240_0.5_1_BADGER","BADGER",1,2,240,"preference"
"ssfOUT_240_0.5_1_BADGER.2",0.306921992794948,0.199984021750328,0.413859963839569,"ssf","mf.is","gamma","vonmises",15,"ssfOUT_240_0.5_1_BADGER","BADGER",1,2,240,"preference"
"ssfOUT_240_0.5_1_BADGER.3",0.3102339937576,0.204944358350133,0.415523629165066,"ssf","mf.is","gamma","vonmises",50,"ssfOUT_240_0.5_1_BADGER","BADGER",1,2,240,"preference"
"ssfOUT_240_0.5_1_BADGER.4",0.294156269744312,0.189473315310871,0.398839224177754,"ssf","mf.is","gamma","vonmises",158,"ssfOUT_240_0.5_1_BADGER","BADGER",1,2,240,"preference"
"ssfOUT_240_0.5_1_BADGER.5",0.301317560393298,0.196693728143674,0.405941392642923,"ssf","mf.is","gamma","vonmises",500,"ssfOUT_240_0.5_1_BADGER","BADGER",1,2,240,"preference"
"ssfOUT_240_0.5_1_BADGER.6",0.204244389415376,0.0912271869268638,0.317261591903888,"ssf","mf.is","gamma","unif",5,"ssfOUT_240_0.5_1_BADGER","BADGER",1,2,240,"preference"
"ssfOUT_240_0.5_1_BADGER.7",0.304487696484348,0.19756887302427,0.411406519944426,"ssf","mf.is","gamma","unif",15,"ssfOUT_240_0.5_1_BADGER","BADGER",1,2,240,"preference"
"ssfOUT_240_0.5_1_BADGER.8",0.299819930740663,0.194612512493843,0.405027348987483,"ssf","mf.is","gamma","unif",50,"ssfOUT_240_0.5_1_BADGER","BADGER",1,2,240,"preference"
"ssfOUT_240_0.5_1_BADGER.9",0.299942413429358,0.195062301216444,0.404822525642271,"ssf","mf.is","gamma","unif",158,"ssfOUT_240_0.5_1_BADGER","BADGER",1,2,240,"preference"
"ssfOUT_240_0.5_1_BADGER.10",0.304367304691519,0.199825361677105,0.408909247705933,"ssf","mf.is","gamma","unif",500,"ssfOUT_240_0.5_1_BADGER","BADGER",1,2,240,"preference"
"ssfOUT_240_0.5_1_BADGER.11",0.304307941928752,0.192639502928009,0.415976380929494,"ssf","mf.is","exp","vonmises",5,"ssfOUT_240_0.5_1_BADGER","BADGER",1,2,240,"preference"
"ssfOUT_240_0.5_1_BADGER.12",0.329560009003146,0.221707249394606,0.437412768611685,"ssf","mf.is","exp","vonmises",15,"ssfOUT_240_0.5_1_BADGER","BADGER",1,2,240,"preference"
"ssfOUT_240_0.5_1_BADGER.13",0.322126031716331,0.21704323280104,0.427208830631622,"ssf","mf.is","exp","vonmises",50,"ssfOUT_240_0.5_1_BADGER","BADGER",1,2,240,"preference"
"ssfOUT_240_0.5_1_BADGER.14",0.297986798648871,0.193320760535987,0.402652836761756,"ssf","mf.is","exp","vonmises",158,"ssfOUT_240_0.5_1_BADGER","BADGER",1,2,240,"preference"
"ssfOUT_240_0.5_1_BADGER.15",0.302806249836363,0.198312590978119,0.407299908694607,"ssf","mf.is","exp","vonmises",500,"ssfOUT_240_0.5_1_BADGER","BADGER",1,2,240,"preference"
"ssfOUT_240_0.5_1_BADGER.16",0.257681132499153,0.145111023941858,0.370251241056448,"ssf","mf.is","exp","unif",5,"ssfOUT_240_0.5_1_BADGER","BADGER",1,2,240,"preference"
"ssfOUT_240_0.5_1_BADGER.17",0.29881094563443,0.19146660240044,0.406155288868421,"ssf","mf.is","exp","unif",15,"ssfOUT_240_0.5_1_BADGER","BADGER",1,2,240,"preference"
"ssfOUT_240_0.5_1_BADGER.18",0.322841238745213,0.217130432135249,0.428552045355176,"ssf","mf.is","exp","unif",50,"ssfOUT_240_0.5_1_BADGER","BADGER",1,2,240,"preference"
"ssfOUT_240_0.5_1_BADGER.19",0.296471062240778,0.191727936301836,0.401214188179719,"ssf","mf.is","exp","unif",158,"ssfOUT_240_0.5_1_BADGER","BADGER",1,2,240,"preference"
"ssfOUT_240_0.5_1_BADGER.20",0.299571348762378,0.195026537828605,0.404116159696151,"ssf","mf.is","exp","unif",500,"ssfOUT_240_0.5_1_BADGER","BADGER",1,2,240,"preference"
"ssfOUT_240_0.5_1_BADGER.21",0.334290301477884,0.22153104810281,0.447049554852958,"ssf","mf.ss","gamma","vonmises",5,"ssfOUT_240_0.5_1_BADGER","BADGER",1,2,240,"preference"
"ssfOUT_240_0.5_1_BADGER.22",0.307160973720937,0.200266106321639,0.414055841120235,"ssf","mf.ss","gamma","vonmises",15,"ssfOUT_240_0.5_1_BADGER","BADGER",1,2,240,"preference"
"ssfOUT_240_0.5_1_BADGER.23",0.31015167757352,0.204878829634109,0.415424525512931,"ssf","mf.ss","gamma","vonmises",50,"ssfOUT_240_0.5_1_BADGER","BADGER",1,2,240,"preference"
"ssfOUT_240_0.5_1_BADGER.24",0.294031605351789,0.189366532151852,0.398696678551726,"ssf","mf.ss","gamma","vonmises",158,"ssfOUT_240_0.5_1_BADGER","BADGER",1,2,240,"preference"
"ssfOUT_240_0.5_1_BADGER.25",0.301216976254596,0.19659820591206,0.405835746597133,"ssf","mf.ss","gamma","vonmises",500,"ssfOUT_240_0.5_1_BADGER","BADGER",1,2,240,"preference"
"ssfOUT_240_0.5_1_BADGER.26",0.209555198847772,0.0966555930817804,0.322454804613764,"ssf","mf.ss","gamma","unif",5,"ssfOUT_240_0.5_1_BADGER","BADGER",1,2,240,"preference"
"ssfOUT_240_0.5_1_BADGER.27",0.301553264074118,0.194728828908797,0.408377699239439,"ssf","mf.ss","gamma","unif",15,"ssfOUT_240_0.5_1_BADGER","BADGER",1,2,240,"preference"
"ssfOUT_240_0.5_1_BADGER.28",0.301876315907819,0.196699569815844,0.407053061999794,"ssf","mf.ss","gamma","unif",50,"ssfOUT_240_0.5_1_BADGER","BADGER",1,2,240,"preference"
"ssfOUT_240_0.5_1_BADGER.29",0.304006706265566,0.199105615761351,0.408907796769781,"ssf","mf.ss","gamma","unif",158,"ssfOUT_240_0.5_1_BADGER","BADGER",1,2,240,"preference"
"ssfOUT_240_0.5_1_BADGER.30",0.307254558286828,0.202702132959991,0.411806983613666,"ssf","mf.ss","gamma","unif",500,"ssfOUT_240_0.5_1_BADGER","BADGER",1,2,240,"preference"
"ssfOUT_240_0.5_1_BADGER.31",0.310651547007884,0.19914261010254,0.422160483913227,"ssf","mf.ss","exp","vonmises",5,"ssfOUT_240_0.5_1_BADGER","BADGER",1,2,240,"preference"
"ssfOUT_240_0.5_1_BADGER.32",0.327765617889385,0.220218689915865,0.435312545862905,"ssf","mf.ss","exp","vonmises",15,"ssfOUT_240_0.5_1_BADGER","BADGER",1,2,240,"preference"
"ssfOUT_240_0.5_1_BADGER.33",0.31967600378021,0.214841460526612,0.424510547033808,"ssf","mf.ss","exp","vonmises",50,"ssfOUT_240_0.5_1_BADGER","BADGER",1,2,240,"preference"
"ssfOUT_240_0.5_1_BADGER.34",0.289942704645802,0.185703879365054,0.394181529926549,"ssf","mf.ss","exp","vonmises",158,"ssfOUT_240_0.5_1_BADGER","BADGER",1,2,240,"preference"
"ssfOUT_240_0.5_1_BADGER.35",0.295637057790376,0.1915338054706,0.399740310110152,"ssf","mf.ss","exp","vonmises",500,"ssfOUT_240_0.5_1_BADGER","BADGER",1,2,240,"preference"
"ssfOUT_240_0.5_1_BADGER.36",0.261501500855787,0.149388890594849,0.373614111116726,"ssf","mf.ss","exp","unif",5,"ssfOUT_240_0.5_1_BADGER","BADGER",1,2,240,"preference"
"ssfOUT_240_0.5_1_BADGER.37",0.294088257456147,0.187230356635683,0.40094615827661,"ssf","mf.ss","exp","unif",15,"ssfOUT_240_0.5_1_BADGER","BADGER",1,2,240,"preference"
"ssfOUT_240_0.5_1_BADGER.38",0.323608354843612,0.218261109264157,0.428955600423068,"ssf","mf.ss","exp","unif",50,"ssfOUT_240_0.5_1_BADGER","BADGER",1,2,240,"preference"
"ssfOUT_240_0.5_1_BADGER.39",0.292846797460283,0.188445325770679,0.397248269149887,"ssf","mf.ss","exp","unif",158,"ssfOUT_240_0.5_1_BADGER","BADGER",1,2,240,"preference"
"ssfOUT_240_0.5_1_BADGER.40",0.295214755153819,0.1910453577806,0.399384152527037,"ssf","mf.ss","exp","unif",500,"ssfOUT_240_0.5_1_BADGER","BADGER",1,2,240,"preference"
"ssfOUT_240_0.5_1_VULTURE.1",0.0183163074255431,-0.0894054914861344,0.126038106337221,"ssf","mf.is","gamma","vonmises",5,"ssfOUT_240_0.5_1_VULTURE","VULTURE",1,2,240,"no effect"
"ssfOUT_240_0.5_1_VULTURE.2",0.131992696532183,0.0308312126380794,0.233154180426288,"ssf","mf.is","gamma","vonmises",15,"ssfOUT_240_0.5_1_VULTURE","VULTURE",1,2,240,"preference"
"ssfOUT_240_0.5_1_VULTURE.3",0.135694488650928,0.0369601262451918,0.234428851056664,"ssf","mf.is","gamma","vonmises",50,"ssfOUT_240_0.5_1_VULTURE","VULTURE",1,2,240,"preference"
"ssfOUT_240_0.5_1_VULTURE.4",0.145475279437964,0.0473619886506783,0.243588570225249,"ssf","mf.is","gamma","vonmises",158,"ssfOUT_240_0.5_1_VULTURE","VULTURE",1,2,240,"preference"
"ssfOUT_240_0.5_1_VULTURE.5",0.149706891428031,0.0517566885649413,0.247657094291121,"ssf","mf.is","gamma","vonmises",500,"ssfOUT_240_0.5_1_VULTURE","VULTURE",1,2,240,"preference"
"ssfOUT_240_0.5_1_VULTURE.6",0.119035702541275,0.0124954993491498,0.2255759057334,"ssf","mf.is","gamma","unif",5,"ssfOUT_240_0.5_1_VULTURE","VULTURE",1,2,240,"preference"
"ssfOUT_240_0.5_1_VULTURE.7",0.154101355358635,0.0530667943632577,0.255135916354013,"ssf","mf.is","gamma","unif",15,"ssfOUT_240_0.5_1_VULTURE","VULTURE",1,2,240,"preference"
"ssfOUT_240_0.5_1_VULTURE.8",0.16109915997262,0.0622163738925022,0.259981946052738,"ssf","mf.is","gamma","unif",50,"ssfOUT_240_0.5_1_VULTURE","VULTURE",1,2,240,"preference"
"ssfOUT_240_0.5_1_VULTURE.9",0.156115506416888,0.0581057182937698,0.254125294540006,"ssf","mf.is","gamma","unif",158,"ssfOUT_240_0.5_1_VULTURE","VULTURE",1,2,240,"preference"
"ssfOUT_240_0.5_1_VULTURE.10",0.149716110587747,0.0518842142985406,0.247548006876953,"ssf","mf.is","gamma","unif",500,"ssfOUT_240_0.5_1_VULTURE","VULTURE",1,2,240,"preference"
"ssfOUT_240_0.5_1_VULTURE.11",0.130440061616189,0.020095864482957,0.240784258749421,"ssf","mf.is","exp","vonmises",5,"ssfOUT_240_0.5_1_VULTURE","VULTURE",1,2,240,"preference"
"ssfOUT_240_0.5_1_VULTURE.12",0.129885311314554,0.0285190547658087,0.2312515678633,"ssf","mf.is","exp","vonmises",15,"ssfOUT_240_0.5_1_VULTURE","VULTURE",1,2,240,"preference"
"ssfOUT_240_0.5_1_VULTURE.13",0.140846388074811,0.0418183915054422,0.239874384644181,"ssf","mf.is","exp","vonmises",50,"ssfOUT_240_0.5_1_VULTURE","VULTURE",1,2,240,"preference"
"ssfOUT_240_0.5_1_VULTURE.14",0.148732069592006,0.0504470693107119,0.2470170698733,"ssf","mf.is","exp","vonmises",158,"ssfOUT_240_0.5_1_VULTURE","VULTURE",1,2,240,"preference"
"ssfOUT_240_0.5_1_VULTURE.15",0.150094155849138,0.052161986166758,0.248026325531517,"ssf","mf.is","exp","vonmises",500,"ssfOUT_240_0.5_1_VULTURE","VULTURE",1,2,240,"preference"
"ssfOUT_240_0.5_1_VULTURE.16",0.119147222948802,0.00871529837706178,0.229579147520541,"ssf","mf.is","exp","unif",5,"ssfOUT_240_0.5_1_VULTURE","VULTURE",1,2,240,"preference"
"ssfOUT_240_0.5_1_VULTURE.17",0.150238429167899,0.0483729411454099,0.252103917190388,"ssf","mf.is","exp","unif",15,"ssfOUT_240_0.5_1_VULTURE","VULTURE",1,2,240,"preference"
"ssfOUT_240_0.5_1_VULTURE.18",0.153450899109893,0.0545226974190388,0.252379100800747,"ssf","mf.is","exp","unif",50,"ssfOUT_240_0.5_1_VULTURE","VULTURE",1,2,240,"preference"
"ssfOUT_240_0.5_1_VULTURE.19",0.147269700559489,0.0491234015434742,0.245415999575505,"ssf","mf.is","exp","unif",158,"ssfOUT_240_0.5_1_VULTURE","VULTURE",1,2,240,"preference"
"ssfOUT_240_0.5_1_VULTURE.20",0.153257160638767,0.0552931713559759,0.251221149921558,"ssf","mf.is","exp","unif",500,"ssfOUT_240_0.5_1_VULTURE","VULTURE",1,2,240,"preference"
"ssfOUT_240_0.5_1_VULTURE.21",0.0173113853436656,-0.0904681775609399,0.125090948248271,"ssf","mf.ss","gamma","vonmises",5,"ssfOUT_240_0.5_1_VULTURE","VULTURE",1,2,240,"no effect"
"ssfOUT_240_0.5_1_VULTURE.22",0.130983811578019,0.0297767173456667,0.23219090581037,"ssf","mf.ss","gamma","vonmises",15,"ssfOUT_240_0.5_1_VULTURE","VULTURE",1,2,240,"preference"
"ssfOUT_240_0.5_1_VULTURE.23",0.13514537345143,0.0363689529433137,0.233921793959546,"ssf","mf.ss","gamma","vonmises",50,"ssfOUT_240_0.5_1_VULTURE","VULTURE",1,2,240,"preference"
"ssfOUT_240_0.5_1_VULTURE.24",0.144986568478334,0.0468324564875096,0.243140680469158,"ssf","mf.ss","gamma","vonmises",158,"ssfOUT_240_0.5_1_VULTURE","VULTURE",1,2,240,"preference"
"ssfOUT_240_0.5_1_VULTURE.25",0.149204395289586,0.0512087360508182,0.247200054528353,"ssf","mf.ss","gamma","vonmises",500,"ssfOUT_240_0.5_1_VULTURE","VULTURE",1,2,240,"preference"
"ssfOUT_240_0.5_1_VULTURE.26",0.118347855751532,0.0118268429143596,0.224868868588705,"ssf","mf.ss","gamma","unif",5,"ssfOUT_240_0.5_1_VULTURE","VULTURE",1,2,240,"preference"
"ssfOUT_240_0.5_1_VULTURE.27",0.155466287680042,0.0544084549129352,0.256524120447149,"ssf","mf.ss","gamma","unif",15,"ssfOUT_240_0.5_1_VULTURE","VULTURE",1,2,240,"preference"
"ssfOUT_240_0.5_1_VULTURE.28",0.162946031919492,0.0640414804087245,0.261850583430259,"ssf","mf.ss","gamma","unif",50,"ssfOUT_240_0.5_1_VULTURE","VULTURE",1,2,240,"preference"
"ssfOUT_240_0.5_1_VULTURE.29",0.15761638221193,0.0595954918495598,0.255637272574299,"ssf","mf.ss","gamma","unif",158,"ssfOUT_240_0.5_1_VULTURE","VULTURE",1,2,240,"preference"
"ssfOUT_240_0.5_1_VULTURE.30",0.151489421834117,0.0536377495984547,0.249341094069779,"ssf","mf.ss","gamma","unif",500,"ssfOUT_240_0.5_1_VULTURE","VULTURE",1,2,240,"preference"
"ssfOUT_240_0.5_1_VULTURE.31",0.166590016950937,0.0583716970866251,0.274808336815249,"ssf","mf.ss","exp","vonmises",5,"ssfOUT_240_0.5_1_VULTURE","VULTURE",1,2,240,"preference"
"ssfOUT_240_0.5_1_VULTURE.32",0.166901361383802,0.0653755064062552,0.268427216361348,"ssf","mf.ss","exp","vonmises",15,"ssfOUT_240_0.5_1_VULTURE","VULTURE",1,2,240,"preference"
"ssfOUT_240_0.5_1_VULTURE.33",0.169958907947429,0.0701687523121999,0.269749063582657,"ssf","mf.ss","exp","vonmises",50,"ssfOUT_240_0.5_1_VULTURE","VULTURE",1,2,240,"preference"
"ssfOUT_240_0.5_1_VULTURE.34",0.162735459086961,0.0635485570675432,0.261922361106379,"ssf","mf.ss","exp","vonmises",158,"ssfOUT_240_0.5_1_VULTURE","VULTURE",1,2,240,"preference"
"ssfOUT_240_0.5_1_VULTURE.35",0.167239735598281,0.0683055917762169,0.266173879420346,"ssf","mf.ss","exp","vonmises",500,"ssfOUT_240_0.5_1_VULTURE","VULTURE",1,2,240,"preference"
"ssfOUT_240_0.5_1_VULTURE.36",0.128639214218415,0.0206746166712732,0.236603811765557,"ssf","mf.ss","exp","unif",5,"ssfOUT_240_0.5_1_VULTURE","VULTURE",1,2,240,"preference"
"ssfOUT_240_0.5_1_VULTURE.37",0.178954052541481,0.0772453728782111,0.280662732204751,"ssf","mf.ss","exp","unif",15,"ssfOUT_240_0.5_1_VULTURE","VULTURE",1,2,240,"preference"
"ssfOUT_240_0.5_1_VULTURE.38",0.170693038995986,0.0710029612368788,0.270383116755093,"ssf","mf.ss","exp","unif",50,"ssfOUT_240_0.5_1_VULTURE","VULTURE",1,2,240,"preference"
"ssfOUT_240_0.5_1_VULTURE.39",0.173457534058179,0.0743954196857514,0.272519648430606,"ssf","mf.ss","exp","unif",158,"ssfOUT_240_0.5_1_VULTURE","VULTURE",1,2,240,"preference"
"ssfOUT_240_0.5_1_VULTURE.40",0.17368879528359,0.0747337214775837,0.272643869089595,"ssf","mf.ss","exp","unif",500,"ssfOUT_240_0.5_1_VULTURE","VULTURE",1,2,240,"preference"
"ssfOUT_240_0.5_1_KINGCOBRA.1",0.591678131546375,0.450759468614562,0.732596794478188,"ssf","mf.is","gamma","vonmises",5,"ssfOUT_240_0.5_1_KINGCOBRA","KINGCOBRA",1,2,240,"preference"
"ssfOUT_240_0.5_1_KINGCOBRA.2",0.602633604336489,0.465667069698325,0.739600138974653,"ssf","mf.is","gamma","vonmises",15,"ssfOUT_240_0.5_1_KINGCOBRA","KINGCOBRA",1,2,240,"preference"
"ssfOUT_240_0.5_1_KINGCOBRA.3",0.603189134474026,0.468424581732717,0.737953687215334,"ssf","mf.is","gamma","vonmises",50,"ssfOUT_240_0.5_1_KINGCOBRA","KINGCOBRA",1,2,240,"preference"
"ssfOUT_240_0.5_1_KINGCOBRA.4",0.596067473965285,0.461436955315361,0.730697992615209,"ssf","mf.is","gamma","vonmises",158,"ssfOUT_240_0.5_1_KINGCOBRA","KINGCOBRA",1,2,240,"preference"
"ssfOUT_240_0.5_1_KINGCOBRA.5",0.59563366819871,0.461467632145116,0.729799704252304,"ssf","mf.is","gamma","vonmises",500,"ssfOUT_240_0.5_1_KINGCOBRA","KINGCOBRA",1,2,240,"preference"
"ssfOUT_240_0.5_1_KINGCOBRA.6",0.538821844775652,0.400020637026059,0.677623052525245,"ssf","mf.is","gamma","unif",5,"ssfOUT_240_0.5_1_KINGCOBRA","KINGCOBRA",1,2,240,"preference"
"ssfOUT_240_0.5_1_KINGCOBRA.7",0.573168136990701,0.435867918043008,0.710468355938394,"ssf","mf.is","gamma","unif",15,"ssfOUT_240_0.5_1_KINGCOBRA","KINGCOBRA",1,2,240,"preference"
"ssfOUT_240_0.5_1_KINGCOBRA.8",0.597129423557868,0.463211713888153,0.731047133227583,"ssf","mf.is","gamma","unif",50,"ssfOUT_240_0.5_1_KINGCOBRA","KINGCOBRA",1,2,240,"preference"
"ssfOUT_240_0.5_1_KINGCOBRA.9",0.593191490245594,0.458599244205751,0.727783736285437,"ssf","mf.is","gamma","unif",158,"ssfOUT_240_0.5_1_KINGCOBRA","KINGCOBRA",1,2,240,"preference"
"ssfOUT_240_0.5_1_KINGCOBRA.10",0.593357397557211,0.459421390469142,0.727293404645279,"ssf","mf.is","gamma","unif",500,"ssfOUT_240_0.5_1_KINGCOBRA","KINGCOBRA",1,2,240,"preference"
"ssfOUT_240_0.5_1_KINGCOBRA.11",0.46464455711042,0.322363579737282,0.606925534483557,"ssf","mf.is","exp","vonmises",5,"ssfOUT_240_0.5_1_KINGCOBRA","KINGCOBRA",1,2,240,"preference"
"ssfOUT_240_0.5_1_KINGCOBRA.12",0.431650813083409,0.295009369313501,0.568292256853317,"ssf","mf.is","exp","vonmises",15,"ssfOUT_240_0.5_1_KINGCOBRA","KINGCOBRA",1,2,240,"preference"
"ssfOUT_240_0.5_1_KINGCOBRA.13",0.525557505419858,0.388818623093185,0.66229638774653,"ssf","mf.is","exp","vonmises",50,"ssfOUT_240_0.5_1_KINGCOBRA","KINGCOBRA",1,2,240,"preference"
"ssfOUT_240_0.5_1_KINGCOBRA.14",0.559135848067528,0.42316015493006,0.695111541204996,"ssf","mf.is","exp","vonmises",158,"ssfOUT_240_0.5_1_KINGCOBRA","KINGCOBRA",1,2,240,"preference"
"ssfOUT_240_0.5_1_KINGCOBRA.15",0.607122011008413,0.471287434884681,0.742956587132145,"ssf","mf.is","exp","vonmises",500,"ssfOUT_240_0.5_1_KINGCOBRA","KINGCOBRA",1,2,240,"preference"
"ssfOUT_240_0.5_1_KINGCOBRA.16",0.452803959916864,0.310785925597316,0.594821994236412,"ssf","mf.is","exp","unif",5,"ssfOUT_240_0.5_1_KINGCOBRA","KINGCOBRA",1,2,240,"preference"
"ssfOUT_240_0.5_1_KINGCOBRA.17",0.506031639373469,0.36694817913534,0.645115099611597,"ssf","mf.is","exp","unif",15,"ssfOUT_240_0.5_1_KINGCOBRA","KINGCOBRA",1,2,240,"preference"
"ssfOUT_240_0.5_1_KINGCOBRA.18",0.534713488806926,0.399434554267795,0.669992423346057,"ssf","mf.is","exp","unif",50,"ssfOUT_240_0.5_1_KINGCOBRA","KINGCOBRA",1,2,240,"preference"
"ssfOUT_240_0.5_1_KINGCOBRA.19",0.543856596283505,0.408362304564472,0.679350888002539,"ssf","mf.is","exp","unif",158,"ssfOUT_240_0.5_1_KINGCOBRA","KINGCOBRA",1,2,240,"preference"
"ssfOUT_240_0.5_1_KINGCOBRA.20",0.572217206171645,0.436446211599503,0.707988200743786,"ssf","mf.is","exp","unif",500,"ssfOUT_240_0.5_1_KINGCOBRA","KINGCOBRA",1,2,240,"preference"
"ssfOUT_240_0.5_1_KINGCOBRA.21",0.597996765635925,0.456964411854911,0.739029119416939,"ssf","mf.ss","gamma","vonmises",5,"ssfOUT_240_0.5_1_KINGCOBRA","KINGCOBRA",1,2,240,"preference"
"ssfOUT_240_0.5_1_KINGCOBRA.22",0.612301637383034,0.475111735311915,0.749491539454154,"ssf","mf.ss","gamma","vonmises",15,"ssfOUT_240_0.5_1_KINGCOBRA","KINGCOBRA",1,2,240,"preference"
"ssfOUT_240_0.5_1_KINGCOBRA.23",0.608902184128034,0.474128055175847,0.74367631308022,"ssf","mf.ss","gamma","vonmises",50,"ssfOUT_240_0.5_1_KINGCOBRA","KINGCOBRA",1,2,240,"preference"
"ssfOUT_240_0.5_1_KINGCOBRA.24",0.601803477231613,0.4671383471062,0.736468607357026,"ssf","mf.ss","gamma","vonmises",158,"ssfOUT_240_0.5_1_KINGCOBRA","KINGCOBRA",1,2,240,"preference"
"ssfOUT_240_0.5_1_KINGCOBRA.25",0.601945555979009,0.467767763600656,0.736123348357363,"ssf","mf.ss","gamma","vonmises",500,"ssfOUT_240_0.5_1_KINGCOBRA","KINGCOBRA",1,2,240,"preference"
"ssfOUT_240_0.5_1_KINGCOBRA.26",0.541460239903534,0.402556551881257,0.680363927925811,"ssf","mf.ss","gamma","unif",5,"ssfOUT_240_0.5_1_KINGCOBRA","KINGCOBRA",1,2,240,"preference"
"ssfOUT_240_0.5_1_KINGCOBRA.27",0.580559126031811,0.443088160658749,0.718030091404874,"ssf","mf.ss","gamma","unif",15,"ssfOUT_240_0.5_1_KINGCOBRA","KINGCOBRA",1,2,240,"preference"
"ssfOUT_240_0.5_1_KINGCOBRA.28",0.601954685846649,0.468050136854448,0.735859234838849,"ssf","mf.ss","gamma","unif",50,"ssfOUT_240_0.5_1_KINGCOBRA","KINGCOBRA",1,2,240,"preference"
"ssfOUT_240_0.5_1_KINGCOBRA.29",0.600145775302142,0.465475486669838,0.734816063934446,"ssf","mf.ss","gamma","unif",158,"ssfOUT_240_0.5_1_KINGCOBRA","KINGCOBRA",1,2,240,"preference"
"ssfOUT_240_0.5_1_KINGCOBRA.30",0.598934179362513,0.465002723375229,0.732865635349797,"ssf","mf.ss","gamma","unif",500,"ssfOUT_240_0.5_1_KINGCOBRA","KINGCOBRA",1,2,240,"preference"
"ssfOUT_240_0.5_1_KINGCOBRA.31",0.793323120376314,0.654197873240923,0.932448367511705,"ssf","mf.ss","exp","vonmises",5,"ssfOUT_240_0.5_1_KINGCOBRA","KINGCOBRA",1,2,240,"preference"
"ssfOUT_240_0.5_1_KINGCOBRA.32",0.705415061348857,0.57342449382763,0.837405628870085,"ssf","mf.ss","exp","vonmises",15,"ssfOUT_240_0.5_1_KINGCOBRA","KINGCOBRA",1,2,240,"preference"
"ssfOUT_240_0.5_1_KINGCOBRA.33",0.766572415851246,0.636534814172455,0.896610017530037,"ssf","mf.ss","exp","vonmises",50,"ssfOUT_240_0.5_1_KINGCOBRA","KINGCOBRA",1,2,240,"preference"
"ssfOUT_240_0.5_1_KINGCOBRA.34",0.752308491280695,0.622794502538719,0.88182248002267,"ssf","mf.ss","exp","vonmises",158,"ssfOUT_240_0.5_1_KINGCOBRA","KINGCOBRA",1,2,240,"preference"
"ssfOUT_240_0.5_1_KINGCOBRA.35",0.750582564319636,0.621370470634868,0.879794658004403,"ssf","mf.ss","exp","vonmises",500,"ssfOUT_240_0.5_1_KINGCOBRA","KINGCOBRA",1,2,240,"preference"
"ssfOUT_240_0.5_1_KINGCOBRA.36",0.843986313809405,0.706503301088471,0.98146932653034,"ssf","mf.ss","exp","unif",5,"ssfOUT_240_0.5_1_KINGCOBRA","KINGCOBRA",1,2,240,"preference"
"ssfOUT_240_0.5_1_KINGCOBRA.37",0.781362291122203,0.648721040955401,0.914003541289005,"ssf","mf.ss","exp","unif",15,"ssfOUT_240_0.5_1_KINGCOBRA","KINGCOBRA",1,2,240,"preference"
"ssfOUT_240_0.5_1_KINGCOBRA.38",0.774138183008951,0.644932922247729,0.903343443770173,"ssf","mf.ss","exp","unif",50,"ssfOUT_240_0.5_1_KINGCOBRA","KINGCOBRA",1,2,240,"preference"
"ssfOUT_240_0.5_1_KINGCOBRA.39",0.738843147382006,0.60893999464906,0.868746300114952,"ssf","mf.ss","exp","unif",158,"ssfOUT_240_0.5_1_KINGCOBRA","KINGCOBRA",1,2,240,"preference"
"ssfOUT_240_0.5_1_KINGCOBRA.40",0.761630553597554,0.63235261948265,0.890908487712458,"ssf","mf.ss","exp","unif",500,"ssfOUT_240_0.5_1_KINGCOBRA","KINGCOBRA",1,2,240,"preference"
"ssfOUT_240_0.5_2_BADGER.1",0.264737130615989,0.179987912936262,0.349486348295716,"ssf","mf.is","gamma","vonmises",5,"ssfOUT_240_0.5_2_BADGER","BADGER",2,2,240,"preference"
"ssfOUT_240_0.5_2_BADGER.2",0.253672985277931,0.174290954777045,0.333055015778818,"ssf","mf.is","gamma","vonmises",15,"ssfOUT_240_0.5_2_BADGER","BADGER",2,2,240,"preference"
"ssfOUT_240_0.5_2_BADGER.3",0.26298013129221,0.185024081154539,0.340936181429881,"ssf","mf.is","gamma","vonmises",50,"ssfOUT_240_0.5_2_BADGER","BADGER",2,2,240,"preference"
"ssfOUT_240_0.5_2_BADGER.4",0.27031151151528,0.192770530178456,0.347852492852103,"ssf","mf.is","gamma","vonmises",158,"ssfOUT_240_0.5_2_BADGER","BADGER",2,2,240,"preference"
"ssfOUT_240_0.5_2_BADGER.5",0.269507205355099,0.1921310656969,0.346883345013299,"ssf","mf.is","gamma","vonmises",500,"ssfOUT_240_0.5_2_BADGER","BADGER",2,2,240,"preference"
"ssfOUT_240_0.5_2_BADGER.6",0.234380765638512,0.149931857227777,0.318829674049247,"ssf","mf.is","gamma","unif",5,"ssfOUT_240_0.5_2_BADGER","BADGER",2,2,240,"preference"
"ssfOUT_240_0.5_2_BADGER.7",0.279799393876079,0.199976973301579,0.35962181445058,"ssf","mf.is","gamma","unif",15,"ssfOUT_240_0.5_2_BADGER","BADGER",2,2,240,"preference"
"ssfOUT_240_0.5_2_BADGER.8",0.263846510381473,0.185752569061818,0.341940451701128,"ssf","mf.is","gamma","unif",50,"ssfOUT_240_0.5_2_BADGER","BADGER",2,2,240,"preference"
"ssfOUT_240_0.5_2_BADGER.9",0.262333184015923,0.184773432714503,0.339892935317344,"ssf","mf.is","gamma","unif",158,"ssfOUT_240_0.5_2_BADGER","BADGER",2,2,240,"preference"
"ssfOUT_240_0.5_2_BADGER.10",0.264713966668816,0.187390180498973,0.342037752838659,"ssf","mf.is","gamma","unif",500,"ssfOUT_240_0.5_2_BADGER","BADGER",2,2,240,"preference"
"ssfOUT_240_0.5_2_BADGER.11",0.238680555343825,0.154903938692285,0.322457171995365,"ssf","mf.is","exp","vonmises",5,"ssfOUT_240_0.5_2_BADGER","BADGER",2,2,240,"preference"
"ssfOUT_240_0.5_2_BADGER.12",0.254489002100156,0.174682217401564,0.334295786798749,"ssf","mf.is","exp","vonmises",15,"ssfOUT_240_0.5_2_BADGER","BADGER",2,2,240,"preference"
"ssfOUT_240_0.5_2_BADGER.13",0.264621209079093,0.186635396588772,0.342607021569413,"ssf","mf.is","exp","vonmises",50,"ssfOUT_240_0.5_2_BADGER","BADGER",2,2,240,"preference"
"ssfOUT_240_0.5_2_BADGER.14",0.259248590554102,0.181652478577231,0.336844702530972,"ssf","mf.is","exp","vonmises",158,"ssfOUT_240_0.5_2_BADGER","BADGER",2,2,240,"preference"
"ssfOUT_240_0.5_2_BADGER.15",0.263987876423456,0.186556655839604,0.341419097007309,"ssf","mf.is","exp","vonmises",500,"ssfOUT_240_0.5_2_BADGER","BADGER",2,2,240,"preference"
"ssfOUT_240_0.5_2_BADGER.16",0.232539628377851,0.147829289804113,0.317249966951589,"ssf","mf.is","exp","unif",5,"ssfOUT_240_0.5_2_BADGER","BADGER",2,2,240,"preference"
"ssfOUT_240_0.5_2_BADGER.17",0.256658303762835,0.177405899975239,0.335910707550432,"ssf","mf.is","exp","unif",15,"ssfOUT_240_0.5_2_BADGER","BADGER",2,2,240,"preference"
"ssfOUT_240_0.5_2_BADGER.18",0.260712660557276,0.182776798129197,0.338648522985355,"ssf","mf.is","exp","unif",50,"ssfOUT_240_0.5_2_BADGER","BADGER",2,2,240,"preference"
"ssfOUT_240_0.5_2_BADGER.19",0.268085673393448,0.190473275651558,0.345698071135337,"ssf","mf.is","exp","unif",158,"ssfOUT_240_0.5_2_BADGER","BADGER",2,2,240,"preference"
"ssfOUT_240_0.5_2_BADGER.20",0.264858965408459,0.18757366619507,0.342144264621848,"ssf","mf.is","exp","unif",500,"ssfOUT_240_0.5_2_BADGER","BADGER",2,2,240,"preference"
"ssfOUT_240_0.5_2_BADGER.21",0.258849853814202,0.173967920011781,0.343731787616624,"ssf","mf.ss","gamma","vonmises",5,"ssfOUT_240_0.5_2_BADGER","BADGER",2,2,240,"preference"
"ssfOUT_240_0.5_2_BADGER.22",0.250113074997245,0.170570527172719,0.329655622821771,"ssf","mf.ss","gamma","vonmises",15,"ssfOUT_240_0.5_2_BADGER","BADGER",2,2,240,"preference"
"ssfOUT_240_0.5_2_BADGER.23",0.260330735928476,0.182211541917828,0.338449929939124,"ssf","mf.ss","gamma","vonmises",50,"ssfOUT_240_0.5_2_BADGER","BADGER",2,2,240,"preference"
"ssfOUT_240_0.5_2_BADGER.24",0.26739880310477,0.189663237569606,0.345134368639934,"ssf","mf.ss","gamma","vonmises",158,"ssfOUT_240_0.5_2_BADGER","BADGER",2,2,240,"preference"
"ssfOUT_240_0.5_2_BADGER.25",0.26677058255854,0.189209964443417,0.344331200673664,"ssf","mf.ss","gamma","vonmises",500,"ssfOUT_240_0.5_2_BADGER","BADGER",2,2,240,"preference"
"ssfOUT_240_0.5_2_BADGER.26",0.229806434456209,0.1453409283872,0.314271940525218,"ssf","mf.ss","gamma","unif",5,"ssfOUT_240_0.5_2_BADGER","BADGER",2,2,240,"preference"
"ssfOUT_240_0.5_2_BADGER.27",0.278220208489284,0.198284728012228,0.358155688966341,"ssf","mf.ss","gamma","unif",15,"ssfOUT_240_0.5_2_BADGER","BADGER",2,2,240,"preference"
"ssfOUT_240_0.5_2_BADGER.28",0.263748459280106,0.185481049941872,0.342015868618339,"ssf","mf.ss","gamma","unif",50,"ssfOUT_240_0.5_2_BADGER","BADGER",2,2,240,"preference"
"ssfOUT_240_0.5_2_BADGER.29",0.26188582178536,0.184151547257739,0.339620096312981,"ssf","mf.ss","gamma","unif",158,"ssfOUT_240_0.5_2_BADGER","BADGER",2,2,240,"preference"
"ssfOUT_240_0.5_2_BADGER.30",0.264593383723657,0.187098338232411,0.342088429214903,"ssf","mf.ss","gamma","unif",500,"ssfOUT_240_0.5_2_BADGER","BADGER",2,2,240,"preference"
"ssfOUT_240_0.5_2_BADGER.31",0.243266187789923,0.1594727382664,0.327059637313446,"ssf","mf.ss","exp","vonmises",5,"ssfOUT_240_0.5_2_BADGER","BADGER",2,2,240,"preference"
"ssfOUT_240_0.5_2_BADGER.32",0.249316966998494,0.169468548209637,0.329165385787351,"ssf","mf.ss","exp","vonmises",15,"ssfOUT_240_0.5_2_BADGER","BADGER",2,2,240,"preference"
"ssfOUT_240_0.5_2_BADGER.33",0.258479404613944,0.180540596906528,0.336418212321361,"ssf","mf.ss","exp","vonmises",50,"ssfOUT_240_0.5_2_BADGER","BADGER",2,2,240,"preference"
"ssfOUT_240_0.5_2_BADGER.34",0.254720678265376,0.177227992683152,0.3322133638476,"ssf","mf.ss","exp","vonmises",158,"ssfOUT_240_0.5_2_BADGER","BADGER",2,2,240,"preference"
"ssfOUT_240_0.5_2_BADGER.35",0.259008971492813,0.181685014285995,0.336332928699632,"ssf","mf.ss","exp","vonmises",500,"ssfOUT_240_0.5_2_BADGER","BADGER",2,2,240,"preference"
"ssfOUT_240_0.5_2_BADGER.36",0.241399393931375,0.156643689303087,0.326155098559663,"ssf","mf.ss","exp","unif",5,"ssfOUT_240_0.5_2_BADGER","BADGER",2,2,240,"preference"
"ssfOUT_240_0.5_2_BADGER.37",0.258395545939127,0.179225585438601,0.337565506439653,"ssf","mf.ss","exp","unif",15,"ssfOUT_240_0.5_2_BADGER","BADGER",2,2,240,"preference"
"ssfOUT_240_0.5_2_BADGER.38",0.261768432196938,0.183859294663333,0.339677569730543,"ssf","mf.ss","exp","unif",50,"ssfOUT_240_0.5_2_BADGER","BADGER",2,2,240,"preference"
"ssfOUT_240_0.5_2_BADGER.39",0.265231324826683,0.187704017241387,0.342758632411979,"ssf","mf.ss","exp","unif",158,"ssfOUT_240_0.5_2_BADGER","BADGER",2,2,240,"preference"
"ssfOUT_240_0.5_2_BADGER.40",0.261263896617806,0.184085515393941,0.338442277841671,"ssf","mf.ss","exp","unif",500,"ssfOUT_240_0.5_2_BADGER","BADGER",2,2,240,"preference"
"ssfOUT_240_0.5_2_VULTURE.1",0.339014418943785,0.246841976402238,0.431186861485331,"ssf","mf.is","gamma","vonmises",5,"ssfOUT_240_0.5_2_VULTURE","VULTURE",2,2,240,"preference"
"ssfOUT_240_0.5_2_VULTURE.2",0.332214058781828,0.24376203712786,0.420666080435796,"ssf","mf.is","gamma","vonmises",15,"ssfOUT_240_0.5_2_VULTURE","VULTURE",2,2,240,"preference"
"ssfOUT_240_0.5_2_VULTURE.3",0.319892822808757,0.233057622955784,0.406728022661731,"ssf","mf.is","gamma","vonmises",50,"ssfOUT_240_0.5_2_VULTURE","VULTURE",2,2,240,"preference"
"ssfOUT_240_0.5_2_VULTURE.4",0.321366691405387,0.235002367833152,0.407731014977623,"ssf","mf.is","gamma","vonmises",158,"ssfOUT_240_0.5_2_VULTURE","VULTURE",2,2,240,"preference"
"ssfOUT_240_0.5_2_VULTURE.5",0.32122116428684,0.235050366434898,0.407391962138782,"ssf","mf.is","gamma","vonmises",500,"ssfOUT_240_0.5_2_VULTURE","VULTURE",2,2,240,"preference"
"ssfOUT_240_0.5_2_VULTURE.6",0.301192759857934,0.207435691803737,0.394949827912132,"ssf","mf.is","gamma","unif",5,"ssfOUT_240_0.5_2_VULTURE","VULTURE",2,2,240,"preference"
"ssfOUT_240_0.5_2_VULTURE.7",0.284288498049566,0.19573981576431,0.372837180334822,"ssf","mf.is","gamma","unif",15,"ssfOUT_240_0.5_2_VULTURE","VULTURE",2,2,240,"preference"
"ssfOUT_240_0.5_2_VULTURE.8",0.326664314931283,0.239685123777719,0.413643506084847,"ssf","mf.is","gamma","unif",50,"ssfOUT_240_0.5_2_VULTURE","VULTURE",2,2,240,"preference"
"ssfOUT_240_0.5_2_VULTURE.9",0.322445223580686,0.236034133748858,0.408856313412513,"ssf","mf.is","gamma","unif",158,"ssfOUT_240_0.5_2_VULTURE","VULTURE",2,2,240,"preference"
"ssfOUT_240_0.5_2_VULTURE.10",0.333513844536686,0.247280974324144,0.419746714749229,"ssf","mf.is","gamma","unif",500,"ssfOUT_240_0.5_2_VULTURE","VULTURE",2,2,240,"preference"
"ssfOUT_240_0.5_2_VULTURE.11",0.322596836579038,0.227139018359636,0.41805465479844,"ssf","mf.is","exp","vonmises",5,"ssfOUT_240_0.5_2_VULTURE","VULTURE",2,2,240,"preference"
"ssfOUT_240_0.5_2_VULTURE.12",0.335391394106607,0.246170688765405,0.424612099447809,"ssf","mf.is","exp","vonmises",15,"ssfOUT_240_0.5_2_VULTURE","VULTURE",2,2,240,"preference"
"ssfOUT_240_0.5_2_VULTURE.13",0.324619476939637,0.23730354812479,0.411935405754485,"ssf","mf.is","exp","vonmises",50,"ssfOUT_240_0.5_2_VULTURE","VULTURE",2,2,240,"preference"
"ssfOUT_240_0.5_2_VULTURE.14",0.334734745035905,0.248230802379658,0.421238687692152,"ssf","mf.is","exp","vonmises",158,"ssfOUT_240_0.5_2_VULTURE","VULTURE",2,2,240,"preference"
"ssfOUT_240_0.5_2_VULTURE.15",0.311575168967042,0.225371857942431,0.397778479991654,"ssf","mf.is","exp","vonmises",500,"ssfOUT_240_0.5_2_VULTURE","VULTURE",2,2,240,"preference"
"ssfOUT_240_0.5_2_VULTURE.16",0.318277371772786,0.222350372879632,0.414204370665939,"ssf","mf.is","exp","unif",5,"ssfOUT_240_0.5_2_VULTURE","VULTURE",2,2,240,"preference"
"ssfOUT_240_0.5_2_VULTURE.17",0.315070547901485,0.225629346441622,0.404511749361349,"ssf","mf.is","exp","unif",15,"ssfOUT_240_0.5_2_VULTURE","VULTURE",2,2,240,"preference"
"ssfOUT_240_0.5_2_VULTURE.18",0.29478289181118,0.207674605587216,0.381891178035145,"ssf","mf.is","exp","unif",50,"ssfOUT_240_0.5_2_VULTURE","VULTURE",2,2,240,"preference"
"ssfOUT_240_0.5_2_VULTURE.19",0.324083094671335,0.237700562671932,0.410465626670738,"ssf","mf.is","exp","unif",158,"ssfOUT_240_0.5_2_VULTURE","VULTURE",2,2,240,"preference"
"ssfOUT_240_0.5_2_VULTURE.20",0.324567421190104,0.238326951099725,0.410807891280483,"ssf","mf.is","exp","unif",500,"ssfOUT_240_0.5_2_VULTURE","VULTURE",2,2,240,"preference"
"ssfOUT_240_0.5_2_VULTURE.21",0.337470935109442,0.245300486587621,0.429641383631263,"ssf","mf.ss","gamma","vonmises",5,"ssfOUT_240_0.5_2_VULTURE","VULTURE",2,2,240,"preference"
"ssfOUT_240_0.5_2_VULTURE.22",0.331568552266817,0.243101126822173,0.42003597771146,"ssf","mf.ss","gamma","vonmises",15,"ssfOUT_240_0.5_2_VULTURE","VULTURE",2,2,240,"preference"
"ssfOUT_240_0.5_2_VULTURE.23",0.318762515418928,0.231909189819068,0.405615841018787,"ssf","mf.ss","gamma","vonmises",50,"ssfOUT_240_0.5_2_VULTURE","VULTURE",2,2,240,"preference"
"ssfOUT_240_0.5_2_VULTURE.24",0.320344339391572,0.233963754683546,0.406724924099599,"ssf","mf.ss","gamma","vonmises",158,"ssfOUT_240_0.5_2_VULTURE","VULTURE",2,2,240,"preference"
"ssfOUT_240_0.5_2_VULTURE.25",0.320397952973381,0.234213912563956,0.406581993382806,"ssf","mf.ss","gamma","vonmises",500,"ssfOUT_240_0.5_2_VULTURE","VULTURE",2,2,240,"preference"
"ssfOUT_240_0.5_2_VULTURE.26",0.302325598687205,0.208705778186999,0.395945419187411,"ssf","mf.ss","gamma","unif",5,"ssfOUT_240_0.5_2_VULTURE","VULTURE",2,2,240,"preference"
"ssfOUT_240_0.5_2_VULTURE.27",0.285384256617724,0.19685839571117,0.373910117524278,"ssf","mf.ss","gamma","unif",15,"ssfOUT_240_0.5_2_VULTURE","VULTURE",2,2,240,"preference"
"ssfOUT_240_0.5_2_VULTURE.28",0.333997624925645,0.247035829156166,0.420959420695125,"ssf","mf.ss","gamma","unif",50,"ssfOUT_240_0.5_2_VULTURE","VULTURE",2,2,240,"preference"
"ssfOUT_240_0.5_2_VULTURE.29",0.32909757665861,0.242684701671038,0.415510451646183,"ssf","mf.ss","gamma","unif",158,"ssfOUT_240_0.5_2_VULTURE","VULTURE",2,2,240,"preference"
"ssfOUT_240_0.5_2_VULTURE.30",0.340079617162275,0.253833129374468,0.426326104950082,"ssf","mf.ss","gamma","unif",500,"ssfOUT_240_0.5_2_VULTURE","VULTURE",2,2,240,"preference"
"ssfOUT_240_0.5_2_VULTURE.31",0.264599188945411,0.171215487606709,0.357982890284113,"ssf","mf.ss","exp","vonmises",5,"ssfOUT_240_0.5_2_VULTURE","VULTURE",2,2,240,"preference"
"ssfOUT_240_0.5_2_VULTURE.32",0.298007811723063,0.208772095074128,0.387243528371999,"ssf","mf.ss","exp","vonmises",15,"ssfOUT_240_0.5_2_VULTURE","VULTURE",2,2,240,"preference"
"ssfOUT_240_0.5_2_VULTURE.33",0.281332324361259,0.193630290349843,0.369034358372675,"ssf","mf.ss","exp","vonmises",50,"ssfOUT_240_0.5_2_VULTURE","VULTURE",2,2,240,"preference"
"ssfOUT_240_0.5_2_VULTURE.34",0.29324692266699,0.20617369169283,0.380320153641149,"ssf","mf.ss","exp","vonmises",158,"ssfOUT_240_0.5_2_VULTURE","VULTURE",2,2,240,"preference"
"ssfOUT_240_0.5_2_VULTURE.35",0.275402577512572,0.188527733774004,0.36227742125114,"ssf","mf.ss","exp","vonmises",500,"ssfOUT_240_0.5_2_VULTURE","VULTURE",2,2,240,"preference"
"ssfOUT_240_0.5_2_VULTURE.36",0.28637084591882,0.192582087559148,0.380159604278491,"ssf","mf.ss","exp","unif",5,"ssfOUT_240_0.5_2_VULTURE","VULTURE",2,2,240,"preference"
"ssfOUT_240_0.5_2_VULTURE.37",0.297339332238617,0.208021252378253,0.386657412098982,"ssf","mf.ss","exp","unif",15,"ssfOUT_240_0.5_2_VULTURE","VULTURE",2,2,240,"preference"
"ssfOUT_240_0.5_2_VULTURE.38",0.262399389496644,0.174926436494497,0.34987234249879,"ssf","mf.ss","exp","unif",50,"ssfOUT_240_0.5_2_VULTURE","VULTURE",2,2,240,"preference"
"ssfOUT_240_0.5_2_VULTURE.39",0.288714872437387,0.201673124197517,0.375756620677258,"ssf","mf.ss","exp","unif",158,"ssfOUT_240_0.5_2_VULTURE","VULTURE",2,2,240,"preference"
"ssfOUT_240_0.5_2_VULTURE.40",0.297134511069337,0.210170142687241,0.384098879451433,"ssf","mf.ss","exp","unif",500,"ssfOUT_240_0.5_2_VULTURE","VULTURE",2,2,240,"preference"
"ssfOUT_240_0.5_2_KINGCOBRA.1",0.430323500253194,0.322880937902132,0.537766062604255,"ssf","mf.is","gamma","vonmises",5,"ssfOUT_240_0.5_2_KINGCOBRA","KINGCOBRA",2,2,240,"preference"
"ssfOUT_240_0.5_2_KINGCOBRA.2",0.513456991733021,0.410966115483696,0.615947867982347,"ssf","mf.is","gamma","vonmises",15,"ssfOUT_240_0.5_2_KINGCOBRA","KINGCOBRA",2,2,240,"preference"
"ssfOUT_240_0.5_2_KINGCOBRA.3",0.500036981037398,0.398363764308778,0.601710197766018,"ssf","mf.is","gamma","vonmises",50,"ssfOUT_240_0.5_2_KINGCOBRA","KINGCOBRA",2,2,240,"preference"
"ssfOUT_240_0.5_2_KINGCOBRA.4",0.507681473462213,0.406328461317261,0.609034485607165,"ssf","mf.is","gamma","vonmises",158,"ssfOUT_240_0.5_2_KINGCOBRA","KINGCOBRA",2,2,240,"preference"
"ssfOUT_240_0.5_2_KINGCOBRA.5",0.503083441805101,0.402108473012331,0.60405841059787,"ssf","mf.is","gamma","vonmises",500,"ssfOUT_240_0.5_2_KINGCOBRA","KINGCOBRA",2,2,240,"preference"
"ssfOUT_240_0.5_2_KINGCOBRA.6",0.445803553420371,0.33783627113677,0.553770835703972,"ssf","mf.is","gamma","unif",5,"ssfOUT_240_0.5_2_KINGCOBRA","KINGCOBRA",2,2,240,"preference"
"ssfOUT_240_0.5_2_KINGCOBRA.7",0.514073316402235,0.410311527769817,0.617835105034653,"ssf","mf.is","gamma","unif",15,"ssfOUT_240_0.5_2_KINGCOBRA","KINGCOBRA",2,2,240,"preference"
"ssfOUT_240_0.5_2_KINGCOBRA.8",0.503569533657313,0.401856765901209,0.605282301413417,"ssf","mf.is","gamma","unif",50,"ssfOUT_240_0.5_2_KINGCOBRA","KINGCOBRA",2,2,240,"preference"
"ssfOUT_240_0.5_2_KINGCOBRA.9",0.503444418593409,0.402153086832215,0.604735750354602,"ssf","mf.is","gamma","unif",158,"ssfOUT_240_0.5_2_KINGCOBRA","KINGCOBRA",2,2,240,"preference"
"ssfOUT_240_0.5_2_KINGCOBRA.10",0.49750169401211,0.396632361696789,0.59837102632743,"ssf","mf.is","gamma","unif",500,"ssfOUT_240_0.5_2_KINGCOBRA","KINGCOBRA",2,2,240,"preference"
"ssfOUT_240_0.5_2_KINGCOBRA.11",0.37288065485997,0.264970819643594,0.480790490076346,"ssf","mf.is","exp","vonmises",5,"ssfOUT_240_0.5_2_KINGCOBRA","KINGCOBRA",2,2,240,"preference"
"ssfOUT_240_0.5_2_KINGCOBRA.12",0.380752115841924,0.277147171034989,0.484357060648858,"ssf","mf.is","exp","vonmises",15,"ssfOUT_240_0.5_2_KINGCOBRA","KINGCOBRA",2,2,240,"preference"
"ssfOUT_240_0.5_2_KINGCOBRA.13",0.465715627820537,0.363442560191816,0.567988695449258,"ssf","mf.is","exp","vonmises",50,"ssfOUT_240_0.5_2_KINGCOBRA","KINGCOBRA",2,2,240,"preference"
"ssfOUT_240_0.5_2_KINGCOBRA.14",0.49219779419831,0.389925319423219,0.594470268973402,"ssf","mf.is","exp","vonmises",158,"ssfOUT_240_0.5_2_KINGCOBRA","KINGCOBRA",2,2,240,"preference"
"ssfOUT_240_0.5_2_KINGCOBRA.15",0.495885687899399,0.393519882789273,0.598251493009525,"ssf","mf.is","exp","vonmises",500,"ssfOUT_240_0.5_2_KINGCOBRA","KINGCOBRA",2,2,240,"preference"
"ssfOUT_240_0.5_2_KINGCOBRA.16",0.320464457317078,0.21254841088253,0.428380503751626,"ssf","mf.is","exp","unif",5,"ssfOUT_240_0.5_2_KINGCOBRA","KINGCOBRA",2,2,240,"preference"
"ssfOUT_240_0.5_2_KINGCOBRA.17",0.349624776203881,0.247043130035188,0.452206422372575,"ssf","mf.is","exp","unif",15,"ssfOUT_240_0.5_2_KINGCOBRA","KINGCOBRA",2,2,240,"preference"
"ssfOUT_240_0.5_2_KINGCOBRA.18",0.49117997104455,0.3887122800716,0.593647662017499,"ssf","mf.is","exp","unif",50,"ssfOUT_240_0.5_2_KINGCOBRA","KINGCOBRA",2,2,240,"preference"
"ssfOUT_240_0.5_2_KINGCOBRA.19",0.47100590201282,0.369498158795976,0.572513645229664,"ssf","mf.is","exp","unif",158,"ssfOUT_240_0.5_2_KINGCOBRA","KINGCOBRA",2,2,240,"preference"
"ssfOUT_240_0.5_2_KINGCOBRA.20",0.494047800762689,0.391901022643334,0.596194578882044,"ssf","mf.is","exp","unif",500,"ssfOUT_240_0.5_2_KINGCOBRA","KINGCOBRA",2,2,240,"preference"
"ssfOUT_240_0.5_2_KINGCOBRA.21",0.427124960033764,0.319516913037562,0.534733007029966,"ssf","mf.ss","gamma","vonmises",5,"ssfOUT_240_0.5_2_KINGCOBRA","KINGCOBRA",2,2,240,"preference"
"ssfOUT_240_0.5_2_KINGCOBRA.22",0.511317020336643,0.408648865407101,0.613985175266185,"ssf","mf.ss","gamma","vonmises",15,"ssfOUT_240_0.5_2_KINGCOBRA","KINGCOBRA",2,2,240,"preference"
"ssfOUT_240_0.5_2_KINGCOBRA.23",0.498828330315266,0.396984166637661,0.600672493992871,"ssf","mf.ss","gamma","vonmises",50,"ssfOUT_240_0.5_2_KINGCOBRA","KINGCOBRA",2,2,240,"preference"
"ssfOUT_240_0.5_2_KINGCOBRA.24",0.506494894066018,0.404995539750103,0.607994248381933,"ssf","mf.ss","gamma","vonmises",158,"ssfOUT_240_0.5_2_KINGCOBRA","KINGCOBRA",2,2,240,"preference"
"ssfOUT_240_0.5_2_KINGCOBRA.25",0.502027744970648,0.40090776840796,0.603147721533335,"ssf","mf.ss","gamma","vonmises",500,"ssfOUT_240_0.5_2_KINGCOBRA","KINGCOBRA",2,2,240,"preference"
"ssfOUT_240_0.5_2_KINGCOBRA.26",0.445108790914981,0.336995053283091,0.55322252854687,"ssf","mf.ss","gamma","unif",5,"ssfOUT_240_0.5_2_KINGCOBRA","KINGCOBRA",2,2,240,"preference"
"ssfOUT_240_0.5_2_KINGCOBRA.27",0.51221248903166,0.408253929626474,0.616171048436845,"ssf","mf.ss","gamma","unif",15,"ssfOUT_240_0.5_2_KINGCOBRA","KINGCOBRA",2,2,240,"preference"
"ssfOUT_240_0.5_2_KINGCOBRA.28",0.501990492893204,0.400099362929922,0.603881622856486,"ssf","mf.ss","gamma","unif",50,"ssfOUT_240_0.5_2_KINGCOBRA","KINGCOBRA",2,2,240,"preference"
"ssfOUT_240_0.5_2_KINGCOBRA.29",0.502405172432438,0.400970275921562,0.603840068943315,"ssf","mf.ss","gamma","unif",158,"ssfOUT_240_0.5_2_KINGCOBRA","KINGCOBRA",2,2,240,"preference"
"ssfOUT_240_0.5_2_KINGCOBRA.30",0.496523617754011,0.39550780542546,0.597539430082561,"ssf","mf.ss","gamma","unif",500,"ssfOUT_240_0.5_2_KINGCOBRA","KINGCOBRA",2,2,240,"preference"
"ssfOUT_240_0.5_2_KINGCOBRA.31",0.542360470307145,0.438141510117812,0.646579430496478,"ssf","mf.ss","exp","vonmises",5,"ssfOUT_240_0.5_2_KINGCOBRA","KINGCOBRA",2,2,240,"preference"
"ssfOUT_240_0.5_2_KINGCOBRA.32",0.546602230449032,0.446945011492646,0.646259449405417,"ssf","mf.ss","exp","vonmises",15,"ssfOUT_240_0.5_2_KINGCOBRA","KINGCOBRA",2,2,240,"preference"
"ssfOUT_240_0.5_2_KINGCOBRA.33",0.556485449892948,0.458530896324752,0.654440003461145,"ssf","mf.ss","exp","vonmises",50,"ssfOUT_240_0.5_2_KINGCOBRA","KINGCOBRA",2,2,240,"preference"
"ssfOUT_240_0.5_2_KINGCOBRA.34",0.538750619182991,0.441213438272796,0.636287800093185,"ssf","mf.ss","exp","vonmises",158,"ssfOUT_240_0.5_2_KINGCOBRA","KINGCOBRA",2,2,240,"preference"
"ssfOUT_240_0.5_2_KINGCOBRA.35",0.553318182010846,0.455919100814716,0.650717263206976,"ssf","mf.ss","exp","vonmises",500,"ssfOUT_240_0.5_2_KINGCOBRA","KINGCOBRA",2,2,240,"preference"
"ssfOUT_240_0.5_2_KINGCOBRA.36",0.508262867446553,0.403492488441414,0.613033246451693,"ssf","mf.ss","exp","unif",5,"ssfOUT_240_0.5_2_KINGCOBRA","KINGCOBRA",2,2,240,"preference"
"ssfOUT_240_0.5_2_KINGCOBRA.37",0.519153951386272,0.41952222531214,0.618785677460405,"ssf","mf.ss","exp","unif",15,"ssfOUT_240_0.5_2_KINGCOBRA","KINGCOBRA",2,2,240,"preference"
"ssfOUT_240_0.5_2_KINGCOBRA.38",0.574608101270499,0.476660828282344,0.672555374258655,"ssf","mf.ss","exp","unif",50,"ssfOUT_240_0.5_2_KINGCOBRA","KINGCOBRA",2,2,240,"preference"
"ssfOUT_240_0.5_2_KINGCOBRA.39",0.541863157524449,0.444471290787856,0.639255024261041,"ssf","mf.ss","exp","unif",158,"ssfOUT_240_0.5_2_KINGCOBRA","KINGCOBRA",2,2,240,"preference"
"ssfOUT_240_0.5_2_KINGCOBRA.40",0.548901083563964,0.451591430088747,0.646210737039182,"ssf","mf.ss","exp","unif",500,"ssfOUT_240_0.5_2_KINGCOBRA","KINGCOBRA",2,2,240,"preference"
"ssfOUT_240_0.5_3_BADGER.1",0.057178781653453,-0.0251053691915144,0.13946293249842,"ssf","mf.is","gamma","vonmises",5,"ssfOUT_240_0.5_3_BADGER","BADGER",3,2,240,"no effect"
"ssfOUT_240_0.5_3_BADGER.2",-0.00611014068314378,-0.0832724887705708,0.0710522074042833,"ssf","mf.is","gamma","vonmises",15,"ssfOUT_240_0.5_3_BADGER","BADGER",3,2,240,"no effect"
"ssfOUT_240_0.5_3_BADGER.3",0.0448194594371161,-0.0306037876657222,0.120242706539954,"ssf","mf.is","gamma","vonmises",50,"ssfOUT_240_0.5_3_BADGER","BADGER",3,2,240,"no effect"
"ssfOUT_240_0.5_3_BADGER.4",0.0181562656218465,-0.0570299550687653,0.0933424863124584,"ssf","mf.is","gamma","vonmises",158,"ssfOUT_240_0.5_3_BADGER","BADGER",3,2,240,"no effect"
"ssfOUT_240_0.5_3_BADGER.5",0.0198994940274658,-0.0551711563538407,0.0949701444087723,"ssf","mf.is","gamma","vonmises",500,"ssfOUT_240_0.5_3_BADGER","BADGER",3,2,240,"no effect"
"ssfOUT_240_0.5_3_BADGER.6",0.0532038908311652,-0.0289795910268687,0.135387372689199,"ssf","mf.is","gamma","unif",5,"ssfOUT_240_0.5_3_BADGER","BADGER",3,2,240,"no effect"
"ssfOUT_240_0.5_3_BADGER.7",0.00279424668866257,-0.0750272643481356,0.0806157577254607,"ssf","mf.is","gamma","unif",15,"ssfOUT_240_0.5_3_BADGER","BADGER",3,2,240,"no effect"
"ssfOUT_240_0.5_3_BADGER.8",0.0160110371827122,-0.0597188871479187,0.091740961513343,"ssf","mf.is","gamma","unif",50,"ssfOUT_240_0.5_3_BADGER","BADGER",3,2,240,"no effect"
"ssfOUT_240_0.5_3_BADGER.9",0.0132772179791517,-0.0618646230983552,0.0884190590566586,"ssf","mf.is","gamma","unif",158,"ssfOUT_240_0.5_3_BADGER","BADGER",3,2,240,"no effect"
"ssfOUT_240_0.5_3_BADGER.10",0.0228264727310597,-0.0521652094229921,0.0978181548851116,"ssf","mf.is","gamma","unif",500,"ssfOUT_240_0.5_3_BADGER","BADGER",3,2,240,"no effect"
"ssfOUT_240_0.5_3_BADGER.11",0.0429809798788906,-0.0387910893318214,0.124753049089603,"ssf","mf.is","exp","vonmises",5,"ssfOUT_240_0.5_3_BADGER","BADGER",3,2,240,"no effect"
"ssfOUT_240_0.5_3_BADGER.12",0.0420660470751642,-0.0354863225287167,0.119618416679045,"ssf","mf.is","exp","vonmises",15,"ssfOUT_240_0.5_3_BADGER","BADGER",3,2,240,"no effect"
"ssfOUT_240_0.5_3_BADGER.13",0.0307666770136891,-0.0449755579313516,0.10650891195873,"ssf","mf.is","exp","vonmises",50,"ssfOUT_240_0.5_3_BADGER","BADGER",3,2,240,"no effect"
"ssfOUT_240_0.5_3_BADGER.14",0.0193941741973771,-0.0557565025699111,0.0945448509646653,"ssf","mf.is","exp","vonmises",158,"ssfOUT_240_0.5_3_BADGER","BADGER",3,2,240,"no effect"
"ssfOUT_240_0.5_3_BADGER.15",0.0155732883563371,-0.0594384111373551,0.0905849878500293,"ssf","mf.is","exp","vonmises",500,"ssfOUT_240_0.5_3_BADGER","BADGER",3,2,240,"no effect"
"ssfOUT_240_0.5_3_BADGER.16",0.055365037230171,-0.0262586988954119,0.136988773355754,"ssf","mf.is","exp","unif",5,"ssfOUT_240_0.5_3_BADGER","BADGER",3,2,240,"no effect"
"ssfOUT_240_0.5_3_BADGER.17",0.0412550588254685,-0.0363804574036946,0.118890575054632,"ssf","mf.is","exp","unif",15,"ssfOUT_240_0.5_3_BADGER","BADGER",3,2,240,"no effect"
"ssfOUT_240_0.5_3_BADGER.18",0.0274255750320683,-0.0483748157966816,0.103225965860818,"ssf","mf.is","exp","unif",50,"ssfOUT_240_0.5_3_BADGER","BADGER",3,2,240,"no effect"
"ssfOUT_240_0.5_3_BADGER.19",0.0128441309213937,-0.0623052379639103,0.0879934998066978,"ssf","mf.is","exp","unif",158,"ssfOUT_240_0.5_3_BADGER","BADGER",3,2,240,"no effect"
"ssfOUT_240_0.5_3_BADGER.20",0.0118989825289025,-0.0631323747433302,0.0869303398011351,"ssf","mf.is","exp","unif",500,"ssfOUT_240_0.5_3_BADGER","BADGER",3,2,240,"no effect"
"ssfOUT_240_0.5_3_BADGER.21",0.0574129429956963,-0.0248810766286843,0.139706962620077,"ssf","mf.ss","gamma","vonmises",5,"ssfOUT_240_0.5_3_BADGER","BADGER",3,2,240,"no effect"
"ssfOUT_240_0.5_3_BADGER.22",-0.00594774366009583,-0.0831359592223039,0.0712404719021122,"ssf","mf.ss","gamma","vonmises",15,"ssfOUT_240_0.5_3_BADGER","BADGER",3,2,240,"no effect"
"ssfOUT_240_0.5_3_BADGER.23",0.0450528682926313,-0.0303983376159109,0.120504074201173,"ssf","mf.ss","gamma","vonmises",50,"ssfOUT_240_0.5_3_BADGER","BADGER",3,2,240,"no effect"
"ssfOUT_240_0.5_3_BADGER.24",0.0182887410993359,-0.0569357939788405,0.0935132761775124,"ssf","mf.ss","gamma","vonmises",158,"ssfOUT_240_0.5_3_BADGER","BADGER",3,2,240,"no effect"
"ssfOUT_240_0.5_3_BADGER.25",0.0200004088384351,-0.0551169962199167,0.0951178138967868,"ssf","mf.ss","gamma","vonmises",500,"ssfOUT_240_0.5_3_BADGER","BADGER",3,2,240,"no effect"
"ssfOUT_240_0.5_3_BADGER.26",0.0627101781668667,-0.0190918372406694,0.144512193574403,"ssf","mf.ss","gamma","unif",5,"ssfOUT_240_0.5_3_BADGER","BADGER",3,2,240,"no effect"
"ssfOUT_240_0.5_3_BADGER.27",-0.00164719300972093,-0.0792706151105103,0.0759762290910684,"ssf","mf.ss","gamma","unif",15,"ssfOUT_240_0.5_3_BADGER","BADGER",3,2,240,"no effect"
"ssfOUT_240_0.5_3_BADGER.28",0.016831021107381,-0.0588251927348978,0.0924872349496599,"ssf","mf.ss","gamma","unif",50,"ssfOUT_240_0.5_3_BADGER","BADGER",3,2,240,"no effect"
"ssfOUT_240_0.5_3_BADGER.29",0.0135902607370201,-0.0615086652263407,0.0886891867003809,"ssf","mf.ss","gamma","unif",158,"ssfOUT_240_0.5_3_BADGER","BADGER",3,2,240,"no effect"
"ssfOUT_240_0.5_3_BADGER.30",0.0232372981965694,-0.0517443519969956,0.0982189483901344,"ssf","mf.ss","gamma","unif",500,"ssfOUT_240_0.5_3_BADGER","BADGER",3,2,240,"no effect"
"ssfOUT_240_0.5_3_BADGER.31",0.0389793894574074,-0.0427405277864553,0.12069930670127,"ssf","mf.ss","exp","vonmises",5,"ssfOUT_240_0.5_3_BADGER","BADGER",3,2,240,"no effect"
"ssfOUT_240_0.5_3_BADGER.32",0.0422106123921914,-0.0355214607379852,0.119942685522368,"ssf","mf.ss","exp","vonmises",15,"ssfOUT_240_0.5_3_BADGER","BADGER",3,2,240,"no effect"
"ssfOUT_240_0.5_3_BADGER.33",0.0303587922413434,-0.0455820359386433,0.10629962042133,"ssf","mf.ss","exp","vonmises",50,"ssfOUT_240_0.5_3_BADGER","BADGER",3,2,240,"no effect"
"ssfOUT_240_0.5_3_BADGER.34",0.0226507586125443,-0.0527430553464883,0.0980445725715769,"ssf","mf.ss","exp","vonmises",158,"ssfOUT_240_0.5_3_BADGER","BADGER",3,2,240,"no effect"
"ssfOUT_240_0.5_3_BADGER.35",0.0185299245355063,-0.0567424884146586,0.0938023374856712,"ssf","mf.ss","exp","vonmises",500,"ssfOUT_240_0.5_3_BADGER","BADGER",3,2,240,"no effect"
"ssfOUT_240_0.5_3_BADGER.36",0.044815506555508,-0.0364061377128631,0.126037150823879,"ssf","mf.ss","exp","unif",5,"ssfOUT_240_0.5_3_BADGER","BADGER",3,2,240,"no effect"
"ssfOUT_240_0.5_3_BADGER.37",0.0486576689206164,-0.0290824848931907,0.126397822734424,"ssf","mf.ss","exp","unif",15,"ssfOUT_240_0.5_3_BADGER","BADGER",3,2,240,"no effect"
"ssfOUT_240_0.5_3_BADGER.38",0.0342732256968551,-0.0416978822653253,0.110244333659036,"ssf","mf.ss","exp","unif",50,"ssfOUT_240_0.5_3_BADGER","BADGER",3,2,240,"no effect"
"ssfOUT_240_0.5_3_BADGER.39",0.0162172286093582,-0.059153807013437,0.0915882642321534,"ssf","mf.ss","exp","unif",158,"ssfOUT_240_0.5_3_BADGER","BADGER",3,2,240,"no effect"
"ssfOUT_240_0.5_3_BADGER.40",0.01705126813256,-0.0581845883741264,0.0922871246392463,"ssf","mf.ss","exp","unif",500,"ssfOUT_240_0.5_3_BADGER","BADGER",3,2,240,"no effect"
"ssfOUT_240_0.5_3_VULTURE.1",0.234940151432102,0.139298383650404,0.330581919213799,"ssf","mf.is","gamma","vonmises",5,"ssfOUT_240_0.5_3_VULTURE","VULTURE",3,2,240,"preference"
"ssfOUT_240_0.5_3_VULTURE.2",0.117743399941214,0.0275161051876443,0.207970694694783,"ssf","mf.is","gamma","vonmises",15,"ssfOUT_240_0.5_3_VULTURE","VULTURE",3,2,240,"preference"
"ssfOUT_240_0.5_3_VULTURE.3",0.167955594047512,0.0796452563228068,0.256265931772218,"ssf","mf.is","gamma","vonmises",50,"ssfOUT_240_0.5_3_VULTURE","VULTURE",3,2,240,"preference"
"ssfOUT_240_0.5_3_VULTURE.4",0.157200539735494,0.0694899275743253,0.244911151896663,"ssf","mf.is","gamma","vonmises",158,"ssfOUT_240_0.5_3_VULTURE","VULTURE",3,2,240,"preference"
"ssfOUT_240_0.5_3_VULTURE.5",0.154341337197846,0.0669306670467747,0.241752007348916,"ssf","mf.is","gamma","vonmises",500,"ssfOUT_240_0.5_3_VULTURE","VULTURE",3,2,240,"preference"
"ssfOUT_240_0.5_3_VULTURE.6",0.0753072098560955,-0.0214698777998581,0.172084297512049,"ssf","mf.is","gamma","unif",5,"ssfOUT_240_0.5_3_VULTURE","VULTURE",3,2,240,"no effect"
"ssfOUT_240_0.5_3_VULTURE.7",0.127426436185202,0.0370960548409472,0.217756817529456,"ssf","mf.is","gamma","unif",15,"ssfOUT_240_0.5_3_VULTURE","VULTURE",3,2,240,"preference"
"ssfOUT_240_0.5_3_VULTURE.8",0.140894808679815,0.0527806055138762,0.229009011845755,"ssf","mf.is","gamma","unif",50,"ssfOUT_240_0.5_3_VULTURE","VULTURE",3,2,240,"preference"
"ssfOUT_240_0.5_3_VULTURE.9",0.147695021982566,0.0600969729710665,0.235293070994065,"ssf","mf.is","gamma","unif",158,"ssfOUT_240_0.5_3_VULTURE","VULTURE",3,2,240,"preference"
"ssfOUT_240_0.5_3_VULTURE.10",0.152349231386186,0.0649735041440126,0.239724958628359,"ssf","mf.is","gamma","unif",500,"ssfOUT_240_0.5_3_VULTURE","VULTURE",3,2,240,"preference"
"ssfOUT_240_0.5_3_VULTURE.11",0.108743682638228,0.0105911393478665,0.20689622592859,"ssf","mf.is","exp","vonmises",5,"ssfOUT_240_0.5_3_VULTURE","VULTURE",3,2,240,"preference"
"ssfOUT_240_0.5_3_VULTURE.12",0.157959533812388,0.0670824974773194,0.248836570147456,"ssf","mf.is","exp","vonmises",15,"ssfOUT_240_0.5_3_VULTURE","VULTURE",3,2,240,"preference"
"ssfOUT_240_0.5_3_VULTURE.13",0.150126090971791,0.0618869681646577,0.238365213778925,"ssf","mf.is","exp","vonmises",50,"ssfOUT_240_0.5_3_VULTURE","VULTURE",3,2,240,"preference"
"ssfOUT_240_0.5_3_VULTURE.14",0.157635937219651,0.0699258047566009,0.245346069682701,"ssf","mf.is","exp","vonmises",158,"ssfOUT_240_0.5_3_VULTURE","VULTURE",3,2,240,"preference"
"ssfOUT_240_0.5_3_VULTURE.15",0.157598507086692,0.0701906316838506,0.245006382489533,"ssf","mf.is","exp","vonmises",500,"ssfOUT_240_0.5_3_VULTURE","VULTURE",3,2,240,"preference"
"ssfOUT_240_0.5_3_VULTURE.16",0.219522822364381,0.122202196005348,0.316843448723413,"ssf","mf.is","exp","unif",5,"ssfOUT_240_0.5_3_VULTURE","VULTURE",3,2,240,"preference"
"ssfOUT_240_0.5_3_VULTURE.17",0.137208784938683,0.0463632930393383,0.228054276838028,"ssf","mf.is","exp","unif",15,"ssfOUT_240_0.5_3_VULTURE","VULTURE",3,2,240,"preference"
"ssfOUT_240_0.5_3_VULTURE.18",0.135328226060619,0.0469947652108446,0.223661686910393,"ssf","mf.is","exp","unif",50,"ssfOUT_240_0.5_3_VULTURE","VULTURE",3,2,240,"preference"
"ssfOUT_240_0.5_3_VULTURE.19",0.171090812114024,0.0834406254597138,0.258740998768334,"ssf","mf.is","exp","unif",158,"ssfOUT_240_0.5_3_VULTURE","VULTURE",3,2,240,"preference"
"ssfOUT_240_0.5_3_VULTURE.20",0.160289272234414,0.0728624484759526,0.247716095992876,"ssf","mf.is","exp","unif",500,"ssfOUT_240_0.5_3_VULTURE","VULTURE",3,2,240,"preference"
"ssfOUT_240_0.5_3_VULTURE.21",0.233758025386858,0.138068359747759,0.329447691025957,"ssf","mf.ss","gamma","vonmises",5,"ssfOUT_240_0.5_3_VULTURE","VULTURE",3,2,240,"preference"
"ssfOUT_240_0.5_3_VULTURE.22",0.115610874613202,0.0253275221700879,0.205894227056315,"ssf","mf.ss","gamma","vonmises",15,"ssfOUT_240_0.5_3_VULTURE","VULTURE",3,2,240,"preference"
"ssfOUT_240_0.5_3_VULTURE.23",0.166596732224224,0.0782219497442975,0.25497151470415,"ssf","mf.ss","gamma","vonmises",50,"ssfOUT_240_0.5_3_VULTURE","VULTURE",3,2,240,"preference"
"ssfOUT_240_0.5_3_VULTURE.24",0.156114774855617,0.0683482835519565,0.243881266159278,"ssf","mf.ss","gamma","vonmises",158,"ssfOUT_240_0.5_3_VULTURE","VULTURE",3,2,240,"preference"
"ssfOUT_240_0.5_3_VULTURE.25",0.153503772534188,0.0660435292214274,0.240964015846949,"ssf","mf.ss","gamma","vonmises",500,"ssfOUT_240_0.5_3_VULTURE","VULTURE",3,2,240,"preference"
"ssfOUT_240_0.5_3_VULTURE.26",0.076681285854896,-0.0200440647318946,0.173406636441686,"ssf","mf.ss","gamma","unif",5,"ssfOUT_240_0.5_3_VULTURE","VULTURE",3,2,240,"no effect"
"ssfOUT_240_0.5_3_VULTURE.27",0.126488627435862,0.0361349858508439,0.21684226902088,"ssf","mf.ss","gamma","unif",15,"ssfOUT_240_0.5_3_VULTURE","VULTURE",3,2,240,"preference"
"ssfOUT_240_0.5_3_VULTURE.28",0.142434457987762,0.0542784784066966,0.230590437568827,"ssf","mf.ss","gamma","unif",50,"ssfOUT_240_0.5_3_VULTURE","VULTURE",3,2,240,"preference"
"ssfOUT_240_0.5_3_VULTURE.29",0.14860632255315,0.060981153899092,0.236231491207207,"ssf","mf.ss","gamma","unif",158,"ssfOUT_240_0.5_3_VULTURE","VULTURE",3,2,240,"preference"
"ssfOUT_240_0.5_3_VULTURE.30",0.153943964129626,0.0665288499869965,0.241359078272256,"ssf","mf.ss","gamma","unif",500,"ssfOUT_240_0.5_3_VULTURE","VULTURE",3,2,240,"preference"
"ssfOUT_240_0.5_3_VULTURE.31",0.0917652829451632,-0.0045366099223961,0.188067175812722,"ssf","mf.ss","exp","vonmises",5,"ssfOUT_240_0.5_3_VULTURE","VULTURE",3,2,240,"no effect"
"ssfOUT_240_0.5_3_VULTURE.32",0.161856447660339,0.0712204167434379,0.252492478577241,"ssf","mf.ss","exp","vonmises",15,"ssfOUT_240_0.5_3_VULTURE","VULTURE",3,2,240,"preference"
"ssfOUT_240_0.5_3_VULTURE.33",0.156688231652416,0.068023505510325,0.245352957794507,"ssf","mf.ss","exp","vonmises",50,"ssfOUT_240_0.5_3_VULTURE","VULTURE",3,2,240,"preference"
"ssfOUT_240_0.5_3_VULTURE.34",0.168186024521255,0.0799427864953075,0.256429262547203,"ssf","mf.ss","exp","vonmises",158,"ssfOUT_240_0.5_3_VULTURE","VULTURE",3,2,240,"preference"
"ssfOUT_240_0.5_3_VULTURE.35",0.168293353492465,0.0802472222841955,0.256339484700735,"ssf","mf.ss","exp","vonmises",500,"ssfOUT_240_0.5_3_VULTURE","VULTURE",3,2,240,"preference"
"ssfOUT_240_0.5_3_VULTURE.36",0.229839288239259,0.134153873537823,0.325524702940695,"ssf","mf.ss","exp","unif",5,"ssfOUT_240_0.5_3_VULTURE","VULTURE",3,2,240,"preference"
"ssfOUT_240_0.5_3_VULTURE.37",0.169519414286849,0.0789710352136136,0.260067793360085,"ssf","mf.ss","exp","unif",15,"ssfOUT_240_0.5_3_VULTURE","VULTURE",3,2,240,"preference"
"ssfOUT_240_0.5_3_VULTURE.38",0.144631367017582,0.0559482916754492,0.233314442359714,"ssf","mf.ss","exp","unif",50,"ssfOUT_240_0.5_3_VULTURE","VULTURE",3,2,240,"preference"
"ssfOUT_240_0.5_3_VULTURE.39",0.181285143057144,0.0930775383449337,0.269492747769355,"ssf","mf.ss","exp","unif",158,"ssfOUT_240_0.5_3_VULTURE","VULTURE",3,2,240,"preference"
"ssfOUT_240_0.5_3_VULTURE.40",0.169241176106675,0.0812165652726764,0.257265786940673,"ssf","mf.ss","exp","unif",500,"ssfOUT_240_0.5_3_VULTURE","VULTURE",3,2,240,"preference"
"ssfOUT_240_0.5_3_KINGCOBRA.1",0.394897753375257,0.190456683836737,0.599338822913777,"ssf","mf.is","gamma","vonmises",5,"ssfOUT_240_0.5_3_KINGCOBRA","KINGCOBRA",3,2,240,"preference"
"ssfOUT_240_0.5_3_KINGCOBRA.2",0.253418293349223,0.0555050195943325,0.451331567104113,"ssf","mf.is","gamma","vonmises",15,"ssfOUT_240_0.5_3_KINGCOBRA","KINGCOBRA",3,2,240,"preference"
"ssfOUT_240_0.5_3_KINGCOBRA.3",0.258180135239052,0.0653743377577965,0.450985932720307,"ssf","mf.is","gamma","vonmises",50,"ssfOUT_240_0.5_3_KINGCOBRA","KINGCOBRA",3,2,240,"preference"
"ssfOUT_240_0.5_3_KINGCOBRA.4",0.197758867758238,0.00797094353911593,0.38754679197736,"ssf","mf.is","gamma","vonmises",158,"ssfOUT_240_0.5_3_KINGCOBRA","KINGCOBRA",3,2,240,"preference"
"ssfOUT_240_0.5_3_KINGCOBRA.5",0.213142945691561,0.023223535160234,0.403062356222888,"ssf","mf.is","gamma","vonmises",500,"ssfOUT_240_0.5_3_KINGCOBRA","KINGCOBRA",3,2,240,"preference"
"ssfOUT_240_0.5_3_KINGCOBRA.6",0.232215559020144,0.0272828412074367,0.437148276832851,"ssf","mf.is","gamma","unif",5,"ssfOUT_240_0.5_3_KINGCOBRA","KINGCOBRA",3,2,240,"preference"
"ssfOUT_240_0.5_3_KINGCOBRA.7",0.223649778490463,0.029537231076777,0.417762325904149,"ssf","mf.is","gamma","unif",15,"ssfOUT_240_0.5_3_KINGCOBRA","KINGCOBRA",3,2,240,"preference"
"ssfOUT_240_0.5_3_KINGCOBRA.8",0.231450659171799,0.039205933066341,0.423695385277257,"ssf","mf.is","gamma","unif",50,"ssfOUT_240_0.5_3_KINGCOBRA","KINGCOBRA",3,2,240,"preference"
"ssfOUT_240_0.5_3_KINGCOBRA.9",0.202539843399389,0.011752738424079,0.393326948374699,"ssf","mf.is","gamma","unif",158,"ssfOUT_240_0.5_3_KINGCOBRA","KINGCOBRA",3,2,240,"preference"
"ssfOUT_240_0.5_3_KINGCOBRA.10",0.223467517508986,0.0332384059652252,0.413696629052746,"ssf","mf.is","gamma","unif",500,"ssfOUT_240_0.5_3_KINGCOBRA","KINGCOBRA",3,2,240,"preference"
"ssfOUT_240_0.5_3_KINGCOBRA.11",0.0450838705948455,-0.16630908168074,0.256476822870431,"ssf","mf.is","exp","vonmises",5,"ssfOUT_240_0.5_3_KINGCOBRA","KINGCOBRA",3,2,240,"no effect"
"ssfOUT_240_0.5_3_KINGCOBRA.12",0.0658258962577691,-0.132111616428763,0.263763408944301,"ssf","mf.is","exp","vonmises",15,"ssfOUT_240_0.5_3_KINGCOBRA","KINGCOBRA",3,2,240,"no effect"
"ssfOUT_240_0.5_3_KINGCOBRA.13",0.275867825840814,0.0781157643349599,0.473619887346667,"ssf","mf.is","exp","vonmises",50,"ssfOUT_240_0.5_3_KINGCOBRA","KINGCOBRA",3,2,240,"preference"
"ssfOUT_240_0.5_3_KINGCOBRA.14",0.209876871947476,0.0176629007439177,0.402090843151035,"ssf","mf.is","exp","vonmises",158,"ssfOUT_240_0.5_3_KINGCOBRA","KINGCOBRA",3,2,240,"preference"
"ssfOUT_240_0.5_3_KINGCOBRA.15",0.163201683941332,-0.0272046419119407,0.353608009794604,"ssf","mf.is","exp","vonmises",500,"ssfOUT_240_0.5_3_KINGCOBRA","KINGCOBRA",3,2,240,"no effect"
"ssfOUT_240_0.5_3_KINGCOBRA.16",0.0517268325828635,-0.165137128271547,0.268590793437274,"ssf","mf.is","exp","unif",5,"ssfOUT_240_0.5_3_KINGCOBRA","KINGCOBRA",3,2,240,"no effect"
"ssfOUT_240_0.5_3_KINGCOBRA.17",0.374631902444965,0.173453328746808,0.575810476143123,"ssf","mf.is","exp","unif",15,"ssfOUT_240_0.5_3_KINGCOBRA","KINGCOBRA",3,2,240,"preference"
"ssfOUT_240_0.5_3_KINGCOBRA.18",0.138052007327055,-0.0585818892404815,0.334685903894592,"ssf","mf.is","exp","unif",50,"ssfOUT_240_0.5_3_KINGCOBRA","KINGCOBRA",3,2,240,"no effect"
"ssfOUT_240_0.5_3_KINGCOBRA.19",0.241970111950252,0.0488131143219918,0.435127109578513,"ssf","mf.is","exp","unif",158,"ssfOUT_240_0.5_3_KINGCOBRA","KINGCOBRA",3,2,240,"preference"
"ssfOUT_240_0.5_3_KINGCOBRA.20",0.229249043165905,0.0372636053283364,0.421234481003474,"ssf","mf.is","exp","unif",500,"ssfOUT_240_0.5_3_KINGCOBRA","KINGCOBRA",3,2,240,"preference"
"ssfOUT_240_0.5_3_KINGCOBRA.21",0.389995590894052,0.185221153009233,0.594770028778871,"ssf","mf.ss","gamma","vonmises",5,"ssfOUT_240_0.5_3_KINGCOBRA","KINGCOBRA",3,2,240,"preference"
"ssfOUT_240_0.5_3_KINGCOBRA.22",0.248799225329117,0.0505230616387388,0.447075389019494,"ssf","mf.ss","gamma","vonmises",15,"ssfOUT_240_0.5_3_KINGCOBRA","KINGCOBRA",3,2,240,"preference"
"ssfOUT_240_0.5_3_KINGCOBRA.23",0.254287608051531,0.0610710762479239,0.447504139855138,"ssf","mf.ss","gamma","vonmises",50,"ssfOUT_240_0.5_3_KINGCOBRA","KINGCOBRA",3,2,240,"preference"
"ssfOUT_240_0.5_3_KINGCOBRA.24",0.193078953699795,0.00286599988549213,0.383291907514099,"ssf","mf.ss","gamma","vonmises",158,"ssfOUT_240_0.5_3_KINGCOBRA","KINGCOBRA",3,2,240,"preference"
"ssfOUT_240_0.5_3_KINGCOBRA.25",0.206847943027542,0.0164463808156965,0.397249505239388,"ssf","mf.ss","gamma","vonmises",500,"ssfOUT_240_0.5_3_KINGCOBRA","KINGCOBRA",3,2,240,"preference"
"ssfOUT_240_0.5_3_KINGCOBRA.26",0.220915277390738,0.0157495844187758,0.426080970362699,"ssf","mf.ss","gamma","unif",5,"ssfOUT_240_0.5_3_KINGCOBRA","KINGCOBRA",3,2,240,"preference"
"ssfOUT_240_0.5_3_KINGCOBRA.27",0.217109354636196,0.022620870080724,0.411597839191669,"ssf","mf.ss","gamma","unif",15,"ssfOUT_240_0.5_3_KINGCOBRA","KINGCOBRA",3,2,240,"preference"
"ssfOUT_240_0.5_3_KINGCOBRA.28",0.22621943413666,0.0334806363249306,0.418958231948389,"ssf","mf.ss","gamma","unif",50,"ssfOUT_240_0.5_3_KINGCOBRA","KINGCOBRA",3,2,240,"preference"
"ssfOUT_240_0.5_3_KINGCOBRA.29",0.197199506363981,0.00594953437922507,0.388449478348738,"ssf","mf.ss","gamma","unif",158,"ssfOUT_240_0.5_3_KINGCOBRA","KINGCOBRA",3,2,240,"preference"
"ssfOUT_240_0.5_3_KINGCOBRA.30",0.217480896095671,0.0267975686128558,0.408164223578486,"ssf","mf.ss","gamma","unif",500,"ssfOUT_240_0.5_3_KINGCOBRA","KINGCOBRA",3,2,240,"preference"
"ssfOUT_240_0.5_3_KINGCOBRA.31",0.0307973465846743,-0.171431660468424,0.233026353637772,"ssf","mf.ss","exp","vonmises",5,"ssfOUT_240_0.5_3_KINGCOBRA","KINGCOBRA",3,2,240,"no effect"
"ssfOUT_240_0.5_3_KINGCOBRA.32",0.0335729925579081,-0.153472090716723,0.220618075832539,"ssf","mf.ss","exp","vonmises",15,"ssfOUT_240_0.5_3_KINGCOBRA","KINGCOBRA",3,2,240,"no effect"
"ssfOUT_240_0.5_3_KINGCOBRA.33",0.187583224536373,0.00194860778877304,0.373217841283972,"ssf","mf.ss","exp","vonmises",50,"ssfOUT_240_0.5_3_KINGCOBRA","KINGCOBRA",3,2,240,"preference"
"ssfOUT_240_0.5_3_KINGCOBRA.34",0.128704320688488,-0.0547606487445221,0.312169290121497,"ssf","mf.ss","exp","vonmises",158,"ssfOUT_240_0.5_3_KINGCOBRA","KINGCOBRA",3,2,240,"no effect"
"ssfOUT_240_0.5_3_KINGCOBRA.35",0.148709840007251,-0.0349100463888268,0.332329726403329,"ssf","mf.ss","exp","vonmises",500,"ssfOUT_240_0.5_3_KINGCOBRA","KINGCOBRA",3,2,240,"no effect"
"ssfOUT_240_0.5_3_KINGCOBRA.36",0.112301544521856,-0.0956651767407363,0.320268265784448,"ssf","mf.ss","exp","unif",5,"ssfOUT_240_0.5_3_KINGCOBRA","KINGCOBRA",3,2,240,"no effect"
"ssfOUT_240_0.5_3_KINGCOBRA.37",0.199722995209632,0.0106330896797397,0.388812900739523,"ssf","mf.ss","exp","unif",15,"ssfOUT_240_0.5_3_KINGCOBRA","KINGCOBRA",3,2,240,"preference"
"ssfOUT_240_0.5_3_KINGCOBRA.38",0.0873800540526428,-0.0990288466586611,0.273788954763947,"ssf","mf.ss","exp","unif",50,"ssfOUT_240_0.5_3_KINGCOBRA","KINGCOBRA",3,2,240,"no effect"
"ssfOUT_240_0.5_3_KINGCOBRA.39",0.148331443482706,-0.0355746112271589,0.33223749819257,"ssf","mf.ss","exp","unif",158,"ssfOUT_240_0.5_3_KINGCOBRA","KINGCOBRA",3,2,240,"no effect"
"ssfOUT_240_0.5_3_KINGCOBRA.40",0.12834738593039,-0.055280764290078,0.311975536150858,"ssf","mf.ss","exp","unif",500,"ssfOUT_240_0.5_3_KINGCOBRA","KINGCOBRA",3,2,240,"no effect"
"ssfOUT_240_0.5_4_BADGER.1",0.349963045051458,0.264484292691015,0.435441797411901,"ssf","mf.is","gamma","vonmises",5,"ssfOUT_240_0.5_4_BADGER","BADGER",4,2,240,"preference"
"ssfOUT_240_0.5_4_BADGER.2",0.370723463547627,0.289548681023966,0.451898246071287,"ssf","mf.is","gamma","vonmises",15,"ssfOUT_240_0.5_4_BADGER","BADGER",4,2,240,"preference"
"ssfOUT_240_0.5_4_BADGER.3",0.336488958303216,0.256690996731259,0.416286919875172,"ssf","mf.is","gamma","vonmises",50,"ssfOUT_240_0.5_4_BADGER","BADGER",4,2,240,"preference"
"ssfOUT_240_0.5_4_BADGER.4",0.347167548831133,0.267938533753119,0.426396563909148,"ssf","mf.is","gamma","vonmises",158,"ssfOUT_240_0.5_4_BADGER","BADGER",4,2,240,"preference"
"ssfOUT_240_0.5_4_BADGER.5",0.362887610447001,0.283847076594007,0.441928144299994,"ssf","mf.is","gamma","vonmises",500,"ssfOUT_240_0.5_4_BADGER","BADGER",4,2,240,"preference"
"ssfOUT_240_0.5_4_BADGER.6",0.35318299926848,0.267482856197584,0.438883142339377,"ssf","mf.is","gamma","unif",5,"ssfOUT_240_0.5_4_BADGER","BADGER",4,2,240,"preference"
"ssfOUT_240_0.5_4_BADGER.7",0.373754493269213,0.292493951801437,0.455015034736988,"ssf","mf.is","gamma","unif",15,"ssfOUT_240_0.5_4_BADGER","BADGER",4,2,240,"preference"
"ssfOUT_240_0.5_4_BADGER.8",0.346916312776683,0.267198059363712,0.426634566189654,"ssf","mf.is","gamma","unif",50,"ssfOUT_240_0.5_4_BADGER","BADGER",4,2,240,"preference"
"ssfOUT_240_0.5_4_BADGER.9",0.359723380898081,0.280521647095173,0.438925114700989,"ssf","mf.is","gamma","unif",158,"ssfOUT_240_0.5_4_BADGER","BADGER",4,2,240,"preference"
"ssfOUT_240_0.5_4_BADGER.10",0.355431672816903,0.27635681991786,0.434506525715947,"ssf","mf.is","gamma","unif",500,"ssfOUT_240_0.5_4_BADGER","BADGER",4,2,240,"preference"
"ssfOUT_240_0.5_4_BADGER.11",0.407404587765154,0.32180410034588,0.493005075184428,"ssf","mf.is","exp","vonmises",5,"ssfOUT_240_0.5_4_BADGER","BADGER",4,2,240,"preference"
"ssfOUT_240_0.5_4_BADGER.12",0.363144281379001,0.281965130104077,0.444323432653924,"ssf","mf.is","exp","vonmises",15,"ssfOUT_240_0.5_4_BADGER","BADGER",4,2,240,"preference"
"ssfOUT_240_0.5_4_BADGER.13",0.343517323172302,0.263820040359753,0.423214605984851,"ssf","mf.is","exp","vonmises",50,"ssfOUT_240_0.5_4_BADGER","BADGER",4,2,240,"preference"
"ssfOUT_240_0.5_4_BADGER.14",0.353093343082885,0.27379153845153,0.43239514771424,"ssf","mf.is","exp","vonmises",158,"ssfOUT_240_0.5_4_BADGER","BADGER",4,2,240,"preference"
"ssfOUT_240_0.5_4_BADGER.15",0.356671235046346,0.277537630575015,0.435804839517678,"ssf","mf.is","exp","vonmises",500,"ssfOUT_240_0.5_4_BADGER","BADGER",4,2,240,"preference"
"ssfOUT_240_0.5_4_BADGER.16",0.333670839370868,0.24762161131727,0.419720067424466,"ssf","mf.is","exp","unif",5,"ssfOUT_240_0.5_4_BADGER","BADGER",4,2,240,"preference"
"ssfOUT_240_0.5_4_BADGER.17",0.325067729313391,0.243777423906421,0.406358034720362,"ssf","mf.is","exp","unif",15,"ssfOUT_240_0.5_4_BADGER","BADGER",4,2,240,"preference"
"ssfOUT_240_0.5_4_BADGER.18",0.33375123193655,0.25411876983109,0.413383694042009,"ssf","mf.is","exp","unif",50,"ssfOUT_240_0.5_4_BADGER","BADGER",4,2,240,"preference"
"ssfOUT_240_0.5_4_BADGER.19",0.360175621845347,0.281060535893859,0.439290707796836,"ssf","mf.is","exp","unif",158,"ssfOUT_240_0.5_4_BADGER","BADGER",4,2,240,"preference"
"ssfOUT_240_0.5_4_BADGER.20",0.356149262679667,0.277036272920002,0.435262252439333,"ssf","mf.is","exp","unif",500,"ssfOUT_240_0.5_4_BADGER","BADGER",4,2,240,"preference"
"ssfOUT_240_0.5_4_BADGER.21",0.346298914176677,0.260738981175322,0.431858847178032,"ssf","mf.ss","gamma","vonmises",5,"ssfOUT_240_0.5_4_BADGER","BADGER",4,2,240,"preference"
"ssfOUT_240_0.5_4_BADGER.22",0.369014361819955,0.287764749974611,0.450263973665298,"ssf","mf.ss","gamma","vonmises",15,"ssfOUT_240_0.5_4_BADGER","BADGER",4,2,240,"preference"
"ssfOUT_240_0.5_4_BADGER.23",0.335353593234256,0.255466027822679,0.415241158645832,"ssf","mf.ss","gamma","vonmises",50,"ssfOUT_240_0.5_4_BADGER","BADGER",4,2,240,"preference"
"ssfOUT_240_0.5_4_BADGER.24",0.346065285840385,0.266740974154272,0.425389597526498,"ssf","mf.ss","gamma","vonmises",158,"ssfOUT_240_0.5_4_BADGER","BADGER",4,2,240,"preference"
"ssfOUT_240_0.5_4_BADGER.25",0.361643659793588,0.282512203664299,0.440775115922877,"ssf","mf.ss","gamma","vonmises",500,"ssfOUT_240_0.5_4_BADGER","BADGER",4,2,240,"preference"
"ssfOUT_240_0.5_4_BADGER.26",0.351418516443138,0.265831152314036,0.437005880572241,"ssf","mf.ss","gamma","unif",5,"ssfOUT_240_0.5_4_BADGER","BADGER",4,2,240,"preference"
"ssfOUT_240_0.5_4_BADGER.27",0.374724506713734,0.293482204478833,0.455966808948634,"ssf","mf.ss","gamma","unif",15,"ssfOUT_240_0.5_4_BADGER","BADGER",4,2,240,"preference"
"ssfOUT_240_0.5_4_BADGER.28",0.34852704058012,0.268747715530575,0.428306365629664,"ssf","mf.ss","gamma","unif",50,"ssfOUT_240_0.5_4_BADGER","BADGER",4,2,240,"preference"
"ssfOUT_240_0.5_4_BADGER.29",0.362716338438458,0.283432856089184,0.441999820787732,"ssf","mf.ss","gamma","unif",158,"ssfOUT_240_0.5_4_BADGER","BADGER",4,2,240,"preference"
"ssfOUT_240_0.5_4_BADGER.30",0.357990150205683,0.278843938916273,0.437136361495093,"ssf","mf.ss","gamma","unif",500,"ssfOUT_240_0.5_4_BADGER","BADGER",4,2,240,"preference"
"ssfOUT_240_0.5_4_BADGER.31",0.409712748018367,0.324090067778568,0.495335428258167,"ssf","mf.ss","exp","vonmises",5,"ssfOUT_240_0.5_4_BADGER","BADGER",4,2,240,"preference"
"ssfOUT_240_0.5_4_BADGER.32",0.36316165723387,0.281922517528396,0.444400796939344,"ssf","mf.ss","exp","vonmises",15,"ssfOUT_240_0.5_4_BADGER","BADGER",4,2,240,"preference"
"ssfOUT_240_0.5_4_BADGER.33",0.341018274020866,0.261292444674875,0.420744103366858,"ssf","mf.ss","exp","vonmises",50,"ssfOUT_240_0.5_4_BADGER","BADGER",4,2,240,"preference"
"ssfOUT_240_0.5_4_BADGER.34",0.351435104366859,0.272133712416678,0.43073649631704,"ssf","mf.ss","exp","vonmises",158,"ssfOUT_240_0.5_4_BADGER","BADGER",4,2,240,"preference"
"ssfOUT_240_0.5_4_BADGER.35",0.35468391555189,0.275546338419507,0.433821492684272,"ssf","mf.ss","exp","vonmises",500,"ssfOUT_240_0.5_4_BADGER","BADGER",4,2,240,"preference"
"ssfOUT_240_0.5_4_BADGER.36",0.338965231373858,0.252916358643745,0.425014104103971,"ssf","mf.ss","exp","unif",5,"ssfOUT_240_0.5_4_BADGER","BADGER",4,2,240,"preference"
"ssfOUT_240_0.5_4_BADGER.37",0.328959723472206,0.247694973736944,0.410224473207468,"ssf","mf.ss","exp","unif",15,"ssfOUT_240_0.5_4_BADGER","BADGER",4,2,240,"preference"
"ssfOUT_240_0.5_4_BADGER.38",0.335974880429088,0.256342669809435,0.415607091048741,"ssf","mf.ss","exp","unif",50,"ssfOUT_240_0.5_4_BADGER","BADGER",4,2,240,"preference"
"ssfOUT_240_0.5_4_BADGER.39",0.360939428672425,0.28180738963057,0.44007146771428,"ssf","mf.ss","exp","unif",158,"ssfOUT_240_0.5_4_BADGER","BADGER",4,2,240,"preference"
"ssfOUT_240_0.5_4_BADGER.40",0.358746161252069,0.279628790321609,0.437863532182529,"ssf","mf.ss","exp","unif",500,"ssfOUT_240_0.5_4_BADGER","BADGER",4,2,240,"preference"
"ssfOUT_240_0.5_4_VULTURE.1",0.114930153515246,0.0343166755603825,0.195543631470109,"ssf","mf.is","gamma","vonmises",5,"ssfOUT_240_0.5_4_VULTURE","VULTURE",4,2,240,"preference"
"ssfOUT_240_0.5_4_VULTURE.2",0.115993658780132,0.0397928955700618,0.192194421990203,"ssf","mf.is","gamma","vonmises",15,"ssfOUT_240_0.5_4_VULTURE","VULTURE",4,2,240,"preference"
"ssfOUT_240_0.5_4_VULTURE.3",0.148908222304752,0.0744124384507959,0.223404006158708,"ssf","mf.is","gamma","vonmises",50,"ssfOUT_240_0.5_4_VULTURE","VULTURE",4,2,240,"preference"
"ssfOUT_240_0.5_4_VULTURE.4",0.137621793587399,0.063711143988205,0.211532443186594,"ssf","mf.is","gamma","vonmises",158,"ssfOUT_240_0.5_4_VULTURE","VULTURE",4,2,240,"preference"
"ssfOUT_240_0.5_4_VULTURE.5",0.138992063062323,0.0652243685084643,0.212759757616183,"ssf","mf.is","gamma","vonmises",500,"ssfOUT_240_0.5_4_VULTURE","VULTURE",4,2,240,"preference"
"ssfOUT_240_0.5_4_VULTURE.6",0.105297955272253,0.0250963893075406,0.185499521236965,"ssf","mf.is","gamma","unif",5,"ssfOUT_240_0.5_4_VULTURE","VULTURE",4,2,240,"preference"
"ssfOUT_240_0.5_4_VULTURE.7",0.169890303524724,0.0939915472526211,0.245789059796828,"ssf","mf.is","gamma","unif",15,"ssfOUT_240_0.5_4_VULTURE","VULTURE",4,2,240,"preference"
"ssfOUT_240_0.5_4_VULTURE.8",0.148897144012724,0.0744904135842694,0.223303874441178,"ssf","mf.is","gamma","unif",50,"ssfOUT_240_0.5_4_VULTURE","VULTURE",4,2,240,"preference"
"ssfOUT_240_0.5_4_VULTURE.9",0.138383942394639,0.0645024144795537,0.212265470309724,"ssf","mf.is","gamma","unif",158,"ssfOUT_240_0.5_4_VULTURE","VULTURE",4,2,240,"preference"
"ssfOUT_240_0.5_4_VULTURE.10",0.132999383644878,0.0592431526589013,0.206755614630855,"ssf","mf.is","gamma","unif",500,"ssfOUT_240_0.5_4_VULTURE","VULTURE",4,2,240,"preference"
"ssfOUT_240_0.5_4_VULTURE.11",0.149741404977489,0.0670509127982039,0.232431897156775,"ssf","mf.is","exp","vonmises",5,"ssfOUT_240_0.5_4_VULTURE","VULTURE",4,2,240,"preference"
"ssfOUT_240_0.5_4_VULTURE.12",0.156178799711204,0.0792625609183883,0.233095038504019,"ssf","mf.is","exp","vonmises",15,"ssfOUT_240_0.5_4_VULTURE","VULTURE",4,2,240,"preference"
"ssfOUT_240_0.5_4_VULTURE.13",0.132425545349514,0.0578892399816571,0.206961850717372,"ssf","mf.is","exp","vonmises",50,"ssfOUT_240_0.5_4_VULTURE","VULTURE",4,2,240,"preference"
"ssfOUT_240_0.5_4_VULTURE.14",0.133372933838864,0.059339374379088,0.20740649329864,"ssf","mf.is","exp","vonmises",158,"ssfOUT_240_0.5_4_VULTURE","VULTURE",4,2,240,"preference"
"ssfOUT_240_0.5_4_VULTURE.15",0.136691608827346,0.0629052952358229,0.210477922418868,"ssf","mf.is","exp","vonmises",500,"ssfOUT_240_0.5_4_VULTURE","VULTURE",4,2,240,"preference"
"ssfOUT_240_0.5_4_VULTURE.16",0.142304280256705,0.0590516927024764,0.225556867810933,"ssf","mf.is","exp","unif",5,"ssfOUT_240_0.5_4_VULTURE","VULTURE",4,2,240,"preference"
"ssfOUT_240_0.5_4_VULTURE.17",0.12467795282462,0.0478442757484525,0.201511629900788,"ssf","mf.is","exp","unif",15,"ssfOUT_240_0.5_4_VULTURE","VULTURE",4,2,240,"preference"
"ssfOUT_240_0.5_4_VULTURE.18",0.131966560354444,0.0572897740056123,0.206643346703275,"ssf","mf.is","exp","unif",50,"ssfOUT_240_0.5_4_VULTURE","VULTURE",4,2,240,"preference"
"ssfOUT_240_0.5_4_VULTURE.19",0.128399214152618,0.0543258288076641,0.202472599497572,"ssf","mf.is","exp","unif",158,"ssfOUT_240_0.5_4_VULTURE","VULTURE",4,2,240,"preference"
"ssfOUT_240_0.5_4_VULTURE.20",0.141985719560271,0.0681523522356649,0.215819086884877,"ssf","mf.is","exp","unif",500,"ssfOUT_240_0.5_4_VULTURE","VULTURE",4,2,240,"preference"
"ssfOUT_240_0.5_4_VULTURE.21",0.115052493556121,0.034403888927397,0.195701098184844,"ssf","mf.ss","gamma","vonmises",5,"ssfOUT_240_0.5_4_VULTURE","VULTURE",4,2,240,"preference"
"ssfOUT_240_0.5_4_VULTURE.22",0.114767817133531,0.0385415183036702,0.190994115963392,"ssf","mf.ss","gamma","vonmises",15,"ssfOUT_240_0.5_4_VULTURE","VULTURE",4,2,240,"preference"
"ssfOUT_240_0.5_4_VULTURE.23",0.148638619169581,0.0741233683828118,0.223153869956351,"ssf","mf.ss","gamma","vonmises",50,"ssfOUT_240_0.5_4_VULTURE","VULTURE",4,2,240,"preference"
"ssfOUT_240_0.5_4_VULTURE.24",0.137249038185732,0.0633201629456072,0.211177913425856,"ssf","mf.ss","gamma","vonmises",158,"ssfOUT_240_0.5_4_VULTURE","VULTURE",4,2,240,"preference"
"ssfOUT_240_0.5_4_VULTURE.25",0.138589149034351,0.064799521341808,0.212378776726893,"ssf","mf.ss","gamma","vonmises",500,"ssfOUT_240_0.5_4_VULTURE","VULTURE",4,2,240,"preference"
"ssfOUT_240_0.5_4_VULTURE.26",0.102626970803009,0.0226428272205219,0.182611114385495,"ssf","mf.ss","gamma","unif",5,"ssfOUT_240_0.5_4_VULTURE","VULTURE",4,2,240,"preference"
"ssfOUT_240_0.5_4_VULTURE.27",0.174440812508178,0.0986241075923247,0.250257517424032,"ssf","mf.ss","gamma","unif",15,"ssfOUT_240_0.5_4_VULTURE","VULTURE",4,2,240,"preference"
"ssfOUT_240_0.5_4_VULTURE.28",0.148817057447793,0.0744816024889186,0.223152512406667,"ssf","mf.ss","gamma","unif",50,"ssfOUT_240_0.5_4_VULTURE","VULTURE",4,2,240,"preference"
"ssfOUT_240_0.5_4_VULTURE.29",0.142325527121177,0.0684679010623181,0.216183153180037,"ssf","mf.ss","gamma","unif",158,"ssfOUT_240_0.5_4_VULTURE","VULTURE",4,2,240,"preference"
"ssfOUT_240_0.5_4_VULTURE.30",0.135951289710074,0.0622244473275561,0.209678132092592,"ssf","mf.ss","gamma","unif",500,"ssfOUT_240_0.5_4_VULTURE","VULTURE",4,2,240,"preference"
"ssfOUT_240_0.5_4_VULTURE.31",0.169529237389324,0.0891976361629954,0.249860838615652,"ssf","mf.ss","exp","vonmises",5,"ssfOUT_240_0.5_4_VULTURE","VULTURE",4,2,240,"preference"
"ssfOUT_240_0.5_4_VULTURE.32",0.208554079649033,0.131929130451946,0.28517902884612,"ssf","mf.ss","exp","vonmises",15,"ssfOUT_240_0.5_4_VULTURE","VULTURE",4,2,240,"preference"
"ssfOUT_240_0.5_4_VULTURE.33",0.165349911366626,0.0903868491434619,0.24031297358979,"ssf","mf.ss","exp","vonmises",50,"ssfOUT_240_0.5_4_VULTURE","VULTURE",4,2,240,"preference"
"ssfOUT_240_0.5_4_VULTURE.34",0.170466031722429,0.0958475166475986,0.24508454679726,"ssf","mf.ss","exp","vonmises",158,"ssfOUT_240_0.5_4_VULTURE","VULTURE",4,2,240,"preference"
"ssfOUT_240_0.5_4_VULTURE.35",0.169981222919348,0.0955698372407051,0.24439260859799,"ssf","mf.ss","exp","vonmises",500,"ssfOUT_240_0.5_4_VULTURE","VULTURE",4,2,240,"preference"
"ssfOUT_240_0.5_4_VULTURE.36",0.188316828279952,0.107500906670858,0.269132749889047,"ssf","mf.ss","exp","unif",5,"ssfOUT_240_0.5_4_VULTURE","VULTURE",4,2,240,"preference"
"ssfOUT_240_0.5_4_VULTURE.37",0.156755961235848,0.0804292120055305,0.233082710466166,"ssf","mf.ss","exp","unif",15,"ssfOUT_240_0.5_4_VULTURE","VULTURE",4,2,240,"preference"
"ssfOUT_240_0.5_4_VULTURE.38",0.170274985621727,0.0952143850617654,0.245335586181689,"ssf","mf.ss","exp","unif",50,"ssfOUT_240_0.5_4_VULTURE","VULTURE",4,2,240,"preference"
"ssfOUT_240_0.5_4_VULTURE.39",0.167446941386317,0.0928213222607785,0.242072560511856,"ssf","mf.ss","exp","unif",158,"ssfOUT_240_0.5_4_VULTURE","VULTURE",4,2,240,"preference"
"ssfOUT_240_0.5_4_VULTURE.40",0.178181945211032,0.103765791976819,0.252598098445245,"ssf","mf.ss","exp","unif",500,"ssfOUT_240_0.5_4_VULTURE","VULTURE",4,2,240,"preference"
"ssfOUT_240_0.5_4_KINGCOBRA.1",0.199242453717069,0.0566561765827181,0.34182873085142,"ssf","mf.is","gamma","vonmises",5,"ssfOUT_240_0.5_4_KINGCOBRA","KINGCOBRA",4,2,240,"preference"
"ssfOUT_240_0.5_4_KINGCOBRA.2",0.295015441071209,0.159323297268661,0.430707584873758,"ssf","mf.is","gamma","vonmises",15,"ssfOUT_240_0.5_4_KINGCOBRA","KINGCOBRA",4,2,240,"preference"
"ssfOUT_240_0.5_4_KINGCOBRA.3",0.289270021303957,0.155006175915872,0.423533866692042,"ssf","mf.is","gamma","vonmises",50,"ssfOUT_240_0.5_4_KINGCOBRA","KINGCOBRA",4,2,240,"preference"
"ssfOUT_240_0.5_4_KINGCOBRA.4",0.287215385661025,0.153151677167297,0.421279094154752,"ssf","mf.is","gamma","vonmises",158,"ssfOUT_240_0.5_4_KINGCOBRA","KINGCOBRA",4,2,240,"preference"
"ssfOUT_240_0.5_4_KINGCOBRA.5",0.280345502385092,0.146861656353129,0.413829348417055,"ssf","mf.is","gamma","vonmises",500,"ssfOUT_240_0.5_4_KINGCOBRA","KINGCOBRA",4,2,240,"preference"
"ssfOUT_240_0.5_4_KINGCOBRA.6",0.298564447675074,0.157052826840549,0.4400760685096,"ssf","mf.is","gamma","unif",5,"ssfOUT_240_0.5_4_KINGCOBRA","KINGCOBRA",4,2,240,"preference"
"ssfOUT_240_0.5_4_KINGCOBRA.7",0.304567796996078,0.168312653489807,0.440822940502348,"ssf","mf.is","gamma","unif",15,"ssfOUT_240_0.5_4_KINGCOBRA","KINGCOBRA",4,2,240,"preference"
"ssfOUT_240_0.5_4_KINGCOBRA.8",0.299858084774007,0.165338200493737,0.434377969054278,"ssf","mf.is","gamma","unif",50,"ssfOUT_240_0.5_4_KINGCOBRA","KINGCOBRA",4,2,240,"preference"
"ssfOUT_240_0.5_4_KINGCOBRA.9",0.287199095406087,0.15335632807188,0.421041862740293,"ssf","mf.is","gamma","unif",158,"ssfOUT_240_0.5_4_KINGCOBRA","KINGCOBRA",4,2,240,"preference"
"ssfOUT_240_0.5_4_KINGCOBRA.10",0.288118118293687,0.154368123475844,0.421868113111531,"ssf","mf.is","gamma","unif",500,"ssfOUT_240_0.5_4_KINGCOBRA","KINGCOBRA",4,2,240,"preference"
"ssfOUT_240_0.5_4_KINGCOBRA.11",0.364460372874977,0.218148125166373,0.510772620583581,"ssf","mf.is","exp","vonmises",5,"ssfOUT_240_0.5_4_KINGCOBRA","KINGCOBRA",4,2,240,"preference"
"ssfOUT_240_0.5_4_KINGCOBRA.12",0.244723609921398,0.107141841002965,0.382305378839832,"ssf","mf.is","exp","vonmises",15,"ssfOUT_240_0.5_4_KINGCOBRA","KINGCOBRA",4,2,240,"preference"
"ssfOUT_240_0.5_4_KINGCOBRA.13",0.320809224082991,0.185606423835548,0.456012024330435,"ssf","mf.is","exp","vonmises",50,"ssfOUT_240_0.5_4_KINGCOBRA","KINGCOBRA",4,2,240,"preference"
"ssfOUT_240_0.5_4_KINGCOBRA.14",0.319400151552445,0.184474390134419,0.454325912970471,"ssf","mf.is","exp","vonmises",158,"ssfOUT_240_0.5_4_KINGCOBRA","KINGCOBRA",4,2,240,"preference"
"ssfOUT_240_0.5_4_KINGCOBRA.15",0.295265251459443,0.16100675425992,0.429523748658966,"ssf","mf.is","exp","vonmises",500,"ssfOUT_240_0.5_4_KINGCOBRA","KINGCOBRA",4,2,240,"preference"
"ssfOUT_240_0.5_4_KINGCOBRA.16",0.392829370561479,0.247989038840264,0.537669702282694,"ssf","mf.is","exp","unif",5,"ssfOUT_240_0.5_4_KINGCOBRA","KINGCOBRA",4,2,240,"preference"
"ssfOUT_240_0.5_4_KINGCOBRA.17",0.33288821269991,0.19437389271296,0.47140253268686,"ssf","mf.is","exp","unif",15,"ssfOUT_240_0.5_4_KINGCOBRA","KINGCOBRA",4,2,240,"preference"
"ssfOUT_240_0.5_4_KINGCOBRA.18",0.32419986904072,0.188709998959526,0.459689739121914,"ssf","mf.is","exp","unif",50,"ssfOUT_240_0.5_4_KINGCOBRA","KINGCOBRA",4,2,240,"preference"
"ssfOUT_240_0.5_4_KINGCOBRA.19",0.308287335806369,0.174187018316887,0.442387653295851,"ssf","mf.is","exp","unif",158,"ssfOUT_240_0.5_4_KINGCOBRA","KINGCOBRA",4,2,240,"preference"
"ssfOUT_240_0.5_4_KINGCOBRA.20",0.304271271459773,0.169600678904052,0.438941864015495,"ssf","mf.is","exp","unif",500,"ssfOUT_240_0.5_4_KINGCOBRA","KINGCOBRA",4,2,240,"preference"
"ssfOUT_240_0.5_4_KINGCOBRA.21",0.195284089006512,0.052842255692355,0.337725922320668,"ssf","mf.ss","gamma","vonmises",5,"ssfOUT_240_0.5_4_KINGCOBRA","KINGCOBRA",4,2,240,"preference"
"ssfOUT_240_0.5_4_KINGCOBRA.22",0.292387822749403,0.156835659289519,0.427939986209287,"ssf","mf.ss","gamma","vonmises",15,"ssfOUT_240_0.5_4_KINGCOBRA","KINGCOBRA",4,2,240,"preference"
"ssfOUT_240_0.5_4_KINGCOBRA.23",0.288017556999986,0.153920388541705,0.422114725458268,"ssf","mf.ss","gamma","vonmises",50,"ssfOUT_240_0.5_4_KINGCOBRA","KINGCOBRA",4,2,240,"preference"
"ssfOUT_240_0.5_4_KINGCOBRA.24",0.286822313324239,0.152929738565562,0.420714888082916,"ssf","mf.ss","gamma","vonmises",158,"ssfOUT_240_0.5_4_KINGCOBRA","KINGCOBRA",4,2,240,"preference"
"ssfOUT_240_0.5_4_KINGCOBRA.25",0.279593615886876,0.146304692596962,0.412882539176791,"ssf","mf.ss","gamma","vonmises",500,"ssfOUT_240_0.5_4_KINGCOBRA","KINGCOBRA",4,2,240,"preference"
"ssfOUT_240_0.5_4_KINGCOBRA.26",0.297940965042892,0.15673515199124,0.439146778094544,"ssf","mf.ss","gamma","unif",5,"ssfOUT_240_0.5_4_KINGCOBRA","KINGCOBRA",4,2,240,"preference"
"ssfOUT_240_0.5_4_KINGCOBRA.27",0.305122517070817,0.169063626412624,0.441181407729009,"ssf","mf.ss","gamma","unif",15,"ssfOUT_240_0.5_4_KINGCOBRA","KINGCOBRA",4,2,240,"preference"
"ssfOUT_240_0.5_4_KINGCOBRA.28",0.299618040181104,0.16527732784227,0.433958752519938,"ssf","mf.ss","gamma","unif",50,"ssfOUT_240_0.5_4_KINGCOBRA","KINGCOBRA",4,2,240,"preference"
"ssfOUT_240_0.5_4_KINGCOBRA.29",0.287355783440895,0.153729974004684,0.420981592877106,"ssf","mf.ss","gamma","unif",158,"ssfOUT_240_0.5_4_KINGCOBRA","KINGCOBRA",4,2,240,"preference"
"ssfOUT_240_0.5_4_KINGCOBRA.30",0.287549388774407,0.15397689700735,0.421121880541463,"ssf","mf.ss","gamma","unif",500,"ssfOUT_240_0.5_4_KINGCOBRA","KINGCOBRA",4,2,240,"preference"
"ssfOUT_240_0.5_4_KINGCOBRA.31",0.124682857591914,-0.0161396755493843,0.265505390733212,"ssf","mf.ss","exp","vonmises",5,"ssfOUT_240_0.5_4_KINGCOBRA","KINGCOBRA",4,2,240,"no effect"
"ssfOUT_240_0.5_4_KINGCOBRA.32",0.0684965153665712,-0.0657645330194889,0.202757563752631,"ssf","mf.ss","exp","vonmises",15,"ssfOUT_240_0.5_4_KINGCOBRA","KINGCOBRA",4,2,240,"no effect"
"ssfOUT_240_0.5_4_KINGCOBRA.33",0.112525044850358,-0.0196370241710341,0.244687113871751,"ssf","mf.ss","exp","vonmises",50,"ssfOUT_240_0.5_4_KINGCOBRA","KINGCOBRA",4,2,240,"no effect"
"ssfOUT_240_0.5_4_KINGCOBRA.34",0.107103894661406,-0.0244345952374921,0.238642384560304,"ssf","mf.ss","exp","vonmises",158,"ssfOUT_240_0.5_4_KINGCOBRA","KINGCOBRA",4,2,240,"no effect"
"ssfOUT_240_0.5_4_KINGCOBRA.35",0.110800057193904,-0.020541710283809,0.242141824671617,"ssf","mf.ss","exp","vonmises",500,"ssfOUT_240_0.5_4_KINGCOBRA","KINGCOBRA",4,2,240,"no effect"
"ssfOUT_240_0.5_4_KINGCOBRA.36",0.178374364023286,0.0375664157666201,0.319182312279951,"ssf","mf.ss","exp","unif",5,"ssfOUT_240_0.5_4_KINGCOBRA","KINGCOBRA",4,2,240,"preference"
"ssfOUT_240_0.5_4_KINGCOBRA.37",0.111751235993999,-0.0230281187831513,0.246530590771148,"ssf","mf.ss","exp","unif",15,"ssfOUT_240_0.5_4_KINGCOBRA","KINGCOBRA",4,2,240,"no effect"
"ssfOUT_240_0.5_4_KINGCOBRA.38",0.0997782788948727,-0.0326767597720636,0.232233317561809,"ssf","mf.ss","exp","unif",50,"ssfOUT_240_0.5_4_KINGCOBRA","KINGCOBRA",4,2,240,"no effect"
"ssfOUT_240_0.5_4_KINGCOBRA.39",0.11339583307386,-0.0181284239696754,0.244920090117395,"ssf","mf.ss","exp","unif",158,"ssfOUT_240_0.5_4_KINGCOBRA","KINGCOBRA",4,2,240,"no effect"
"ssfOUT_240_0.5_4_KINGCOBRA.40",0.103981018491232,-0.0273263393705775,0.235288376353042,"ssf","mf.ss","exp","unif",500,"ssfOUT_240_0.5_4_KINGCOBRA","KINGCOBRA",4,2,240,"no effect"
"ssfOUT_240_1_1_BADGER.1",0.377462619071536,0.224687670715648,0.530237567427423,"ssf","mf.is","gamma","vonmises",5,"ssfOUT_240_1_1_BADGER","BADGER",1,1,240,"preference"
"ssfOUT_240_1_1_BADGER.2",0.437159073975222,0.289899289859358,0.584418858091086,"ssf","mf.is","gamma","vonmises",15,"ssfOUT_240_1_1_BADGER","BADGER",1,1,240,"preference"
"ssfOUT_240_1_1_BADGER.3",0.378828198913503,0.233240751004977,0.524415646822029,"ssf","mf.is","gamma","vonmises",50,"ssfOUT_240_1_1_BADGER","BADGER",1,1,240,"preference"
"ssfOUT_240_1_1_BADGER.4",0.399298232367037,0.255021692206882,0.543574772527192,"ssf","mf.is","gamma","vonmises",158,"ssfOUT_240_1_1_BADGER","BADGER",1,1,240,"preference"
"ssfOUT_240_1_1_BADGER.5",0.408240801682004,0.26430834929848,0.552173254065529,"ssf","mf.is","gamma","vonmises",500,"ssfOUT_240_1_1_BADGER","BADGER",1,1,240,"preference"
"ssfOUT_240_1_1_BADGER.6",0.431694622712018,0.280798896901914,0.582590348522121,"ssf","mf.is","gamma","unif",5,"ssfOUT_240_1_1_BADGER","BADGER",1,1,240,"preference"
"ssfOUT_240_1_1_BADGER.7",0.368335342476495,0.220806697387341,0.515863987565649,"ssf","mf.is","gamma","unif",15,"ssfOUT_240_1_1_BADGER","BADGER",1,1,240,"preference"
"ssfOUT_240_1_1_BADGER.8",0.393768498234877,0.248310414350532,0.539226582119222,"ssf","mf.is","gamma","unif",50,"ssfOUT_240_1_1_BADGER","BADGER",1,1,240,"preference"
"ssfOUT_240_1_1_BADGER.9",0.39728970373768,0.25320997845757,0.541369429017791,"ssf","mf.is","gamma","unif",158,"ssfOUT_240_1_1_BADGER","BADGER",1,1,240,"preference"
"ssfOUT_240_1_1_BADGER.10",0.402585993074423,0.258881617447262,0.546290368701584,"ssf","mf.is","gamma","unif",500,"ssfOUT_240_1_1_BADGER","BADGER",1,1,240,"preference"
"ssfOUT_240_1_1_BADGER.11",0.490701673872637,0.337016484131173,0.6443868636141,"ssf","mf.is","exp","vonmises",5,"ssfOUT_240_1_1_BADGER","BADGER",1,1,240,"preference"
"ssfOUT_240_1_1_BADGER.12",0.405303297959631,0.258120657016425,0.552485938902837,"ssf","mf.is","exp","vonmises",15,"ssfOUT_240_1_1_BADGER","BADGER",1,1,240,"preference"
"ssfOUT_240_1_1_BADGER.13",0.409296170000788,0.264444028898023,0.554148311103552,"ssf","mf.is","exp","vonmises",50,"ssfOUT_240_1_1_BADGER","BADGER",1,1,240,"preference"
"ssfOUT_240_1_1_BADGER.14",0.423791140032357,0.279587057000005,0.567995223064709,"ssf","mf.is","exp","vonmises",158,"ssfOUT_240_1_1_BADGER","BADGER",1,1,240,"preference"
"ssfOUT_240_1_1_BADGER.15",0.417737765827949,0.273789116350396,0.561686415305502,"ssf","mf.is","exp","vonmises",500,"ssfOUT_240_1_1_BADGER","BADGER",1,1,240,"preference"
"ssfOUT_240_1_1_BADGER.16",0.420449218384592,0.266159545911269,0.574738890857914,"ssf","mf.is","exp","unif",5,"ssfOUT_240_1_1_BADGER","BADGER",1,1,240,"preference"
"ssfOUT_240_1_1_BADGER.17",0.434089771365434,0.286819183014215,0.581360359716652,"ssf","mf.is","exp","unif",15,"ssfOUT_240_1_1_BADGER","BADGER",1,1,240,"preference"
"ssfOUT_240_1_1_BADGER.18",0.414985239454587,0.270427283276082,0.559543195633093,"ssf","mf.is","exp","unif",50,"ssfOUT_240_1_1_BADGER","BADGER",1,1,240,"preference"
"ssfOUT_240_1_1_BADGER.19",0.401820169277274,0.257803570484834,0.545836768069713,"ssf","mf.is","exp","unif",158,"ssfOUT_240_1_1_BADGER","BADGER",1,1,240,"preference"
"ssfOUT_240_1_1_BADGER.20",0.410247974477001,0.266301811642279,0.554194137311723,"ssf","mf.is","exp","unif",500,"ssfOUT_240_1_1_BADGER","BADGER",1,1,240,"preference"
"ssfOUT_240_1_1_BADGER.21",0.377593116565985,0.224867266179456,0.530318966952514,"ssf","mf.ss","gamma","vonmises",5,"ssfOUT_240_1_1_BADGER","BADGER",1,1,240,"preference"
"ssfOUT_240_1_1_BADGER.22",0.435443158731561,0.288176310249707,0.582710007213415,"ssf","mf.ss","gamma","vonmises",15,"ssfOUT_240_1_1_BADGER","BADGER",1,1,240,"preference"
"ssfOUT_240_1_1_BADGER.23",0.377922888406167,0.232331255565806,0.523514521246528,"ssf","mf.ss","gamma","vonmises",50,"ssfOUT_240_1_1_BADGER","BADGER",1,1,240,"preference"
"ssfOUT_240_1_1_BADGER.24",0.39882510561637,0.254564559113828,0.543085652118911,"ssf","mf.ss","gamma","vonmises",158,"ssfOUT_240_1_1_BADGER","BADGER",1,1,240,"preference"
"ssfOUT_240_1_1_BADGER.25",0.40746912032608,0.263539939883219,0.551398300768941,"ssf","mf.ss","gamma","vonmises",500,"ssfOUT_240_1_1_BADGER","BADGER",1,1,240,"preference"
"ssfOUT_240_1_1_BADGER.26",0.427836268516789,0.277099379558369,0.578573157475209,"ssf","mf.ss","gamma","unif",5,"ssfOUT_240_1_1_BADGER","BADGER",1,1,240,"preference"
"ssfOUT_240_1_1_BADGER.27",0.36961754478516,0.222061262245354,0.517173827324967,"ssf","mf.ss","gamma","unif",15,"ssfOUT_240_1_1_BADGER","BADGER",1,1,240,"preference"
"ssfOUT_240_1_1_BADGER.28",0.395537377624059,0.250076343843891,0.540998411404228,"ssf","mf.ss","gamma","unif",50,"ssfOUT_240_1_1_BADGER","BADGER",1,1,240,"preference"
"ssfOUT_240_1_1_BADGER.29",0.399826032415627,0.25574356515096,0.543908499680294,"ssf","mf.ss","gamma","unif",158,"ssfOUT_240_1_1_BADGER","BADGER",1,1,240,"preference"
"ssfOUT_240_1_1_BADGER.30",0.405247006695389,0.261539658252397,0.54895435513838,"ssf","mf.ss","gamma","unif",500,"ssfOUT_240_1_1_BADGER","BADGER",1,1,240,"preference"
"ssfOUT_240_1_1_BADGER.31",0.488825821732503,0.335328891971041,0.642322751493964,"ssf","mf.ss","exp","vonmises",5,"ssfOUT_240_1_1_BADGER","BADGER",1,1,240,"preference"
"ssfOUT_240_1_1_BADGER.32",0.401354588286135,0.254335578488432,0.548373598083838,"ssf","mf.ss","exp","vonmises",15,"ssfOUT_240_1_1_BADGER","BADGER",1,1,240,"preference"
"ssfOUT_240_1_1_BADGER.33",0.403106388914078,0.258440460229647,0.547772317598508,"ssf","mf.ss","exp","vonmises",50,"ssfOUT_240_1_1_BADGER","BADGER",1,1,240,"preference"
"ssfOUT_240_1_1_BADGER.34",0.417820185870315,0.273792848463468,0.561847523277162,"ssf","mf.ss","exp","vonmises",158,"ssfOUT_240_1_1_BADGER","BADGER",1,1,240,"preference"
"ssfOUT_240_1_1_BADGER.35",0.412056208864734,0.268299588928095,0.555812828801372,"ssf","mf.ss","exp","vonmises",500,"ssfOUT_240_1_1_BADGER","BADGER",1,1,240,"preference"
"ssfOUT_240_1_1_BADGER.36",0.419070736230773,0.265046328719233,0.573095143742314,"ssf","mf.ss","exp","unif",5,"ssfOUT_240_1_1_BADGER","BADGER",1,1,240,"preference"
"ssfOUT_240_1_1_BADGER.37",0.430736570090655,0.283643520916589,0.577829619264721,"ssf","mf.ss","exp","unif",15,"ssfOUT_240_1_1_BADGER","BADGER",1,1,240,"preference"
"ssfOUT_240_1_1_BADGER.38",0.411264852203117,0.266875371595536,0.555654332810698,"ssf","mf.ss","exp","unif",50,"ssfOUT_240_1_1_BADGER","BADGER",1,1,240,"preference"
"ssfOUT_240_1_1_BADGER.39",0.399776885192602,0.255941274847017,0.543612495538186,"ssf","mf.ss","exp","unif",158,"ssfOUT_240_1_1_BADGER","BADGER",1,1,240,"preference"
"ssfOUT_240_1_1_BADGER.40",0.407199360256457,0.263450142327622,0.550948578185292,"ssf","mf.ss","exp","unif",500,"ssfOUT_240_1_1_BADGER","BADGER",1,1,240,"preference"
"ssfOUT_240_1_1_VULTURE.1",0.159634732177618,0.0159591281003324,0.303310336254904,"ssf","mf.is","gamma","vonmises",5,"ssfOUT_240_1_1_VULTURE","VULTURE",1,1,240,"preference"
"ssfOUT_240_1_1_VULTURE.2",0.184375810733288,0.0478248360537428,0.320926785412834,"ssf","mf.is","gamma","vonmises",15,"ssfOUT_240_1_1_VULTURE","VULTURE",1,1,240,"preference"
"ssfOUT_240_1_1_VULTURE.3",0.174003969563832,0.0405465291581819,0.307461409969482,"ssf","mf.is","gamma","vonmises",50,"ssfOUT_240_1_1_VULTURE","VULTURE",1,1,240,"preference"
"ssfOUT_240_1_1_VULTURE.4",0.155226046566737,0.0225972403404557,0.287854852793019,"ssf","mf.is","gamma","vonmises",158,"ssfOUT_240_1_1_VULTURE","VULTURE",1,1,240,"preference"
"ssfOUT_240_1_1_VULTURE.5",0.157575232838259,0.0254633817041072,0.28968708397241,"ssf","mf.is","gamma","vonmises",500,"ssfOUT_240_1_1_VULTURE","VULTURE",1,1,240,"preference"
"ssfOUT_240_1_1_VULTURE.6",0.0568235687069558,-0.0891113029137288,0.20275844032764,"ssf","mf.is","gamma","unif",5,"ssfOUT_240_1_1_VULTURE","VULTURE",1,1,240,"no effect"
"ssfOUT_240_1_1_VULTURE.7",0.127412799688644,-0.00860425385360866,0.263429853230898,"ssf","mf.is","gamma","unif",15,"ssfOUT_240_1_1_VULTURE","VULTURE",1,1,240,"no effect"
"ssfOUT_240_1_1_VULTURE.8",0.167833419796864,0.0345037690398373,0.301163070553891,"ssf","mf.is","gamma","unif",50,"ssfOUT_240_1_1_VULTURE","VULTURE",1,1,240,"preference"
"ssfOUT_240_1_1_VULTURE.9",0.163516294132462,0.031148653215458,0.295883935049465,"ssf","mf.is","gamma","unif",158,"ssfOUT_240_1_1_VULTURE","VULTURE",1,1,240,"preference"
"ssfOUT_240_1_1_VULTURE.10",0.151794853007253,0.0195798720551715,0.284009833959334,"ssf","mf.is","gamma","unif",500,"ssfOUT_240_1_1_VULTURE","VULTURE",1,1,240,"preference"
"ssfOUT_240_1_1_VULTURE.11",0.230643953239416,0.0839168542771715,0.37737105220166,"ssf","mf.is","exp","vonmises",5,"ssfOUT_240_1_1_VULTURE","VULTURE",1,1,240,"preference"
"ssfOUT_240_1_1_VULTURE.12",0.146059687015559,0.00861521420048345,0.283504159830634,"ssf","mf.is","exp","vonmises",15,"ssfOUT_240_1_1_VULTURE","VULTURE",1,1,240,"preference"
"ssfOUT_240_1_1_VULTURE.13",0.190974250753525,0.0573991617253257,0.324549339781724,"ssf","mf.is","exp","vonmises",50,"ssfOUT_240_1_1_VULTURE","VULTURE",1,1,240,"preference"
"ssfOUT_240_1_1_VULTURE.14",0.151299519277538,0.0186268160483685,0.283972222506707,"ssf","mf.is","exp","vonmises",158,"ssfOUT_240_1_1_VULTURE","VULTURE",1,1,240,"preference"
"ssfOUT_240_1_1_VULTURE.15",0.165003863553911,0.0329719679074355,0.297035759200387,"ssf","mf.is","exp","vonmises",500,"ssfOUT_240_1_1_VULTURE","VULTURE",1,1,240,"preference"
"ssfOUT_240_1_1_VULTURE.16",0.108021822126149,-0.0398328764345371,0.255876520686835,"ssf","mf.is","exp","unif",5,"ssfOUT_240_1_1_VULTURE","VULTURE",1,1,240,"no effect"
"ssfOUT_240_1_1_VULTURE.17",0.160014693772966,0.0226374455446291,0.297391942001302,"ssf","mf.is","exp","unif",15,"ssfOUT_240_1_1_VULTURE","VULTURE",1,1,240,"preference"
"ssfOUT_240_1_1_VULTURE.18",0.166887387987484,0.0332025832659188,0.300572192709049,"ssf","mf.is","exp","unif",50,"ssfOUT_240_1_1_VULTURE","VULTURE",1,1,240,"preference"
"ssfOUT_240_1_1_VULTURE.19",0.155092565117106,0.0227677266973228,0.28741740353689,"ssf","mf.is","exp","unif",158,"ssfOUT_240_1_1_VULTURE","VULTURE",1,1,240,"preference"
"ssfOUT_240_1_1_VULTURE.20",0.15560214074836,0.023461766073231,0.287742515423489,"ssf","mf.is","exp","unif",500,"ssfOUT_240_1_1_VULTURE","VULTURE",1,1,240,"preference"
"ssfOUT_240_1_1_VULTURE.21",0.15921925730294,0.0155425224339876,0.302895992171893,"ssf","mf.ss","gamma","vonmises",5,"ssfOUT_240_1_1_VULTURE","VULTURE",1,1,240,"preference"
"ssfOUT_240_1_1_VULTURE.22",0.183704280229339,0.0471469591073251,0.320261601351353,"ssf","mf.ss","gamma","vonmises",15,"ssfOUT_240_1_1_VULTURE","VULTURE",1,1,240,"preference"
"ssfOUT_240_1_1_VULTURE.23",0.173189181011657,0.0397039638291646,0.306674398194149,"ssf","mf.ss","gamma","vonmises",50,"ssfOUT_240_1_1_VULTURE","VULTURE",1,1,240,"preference"
"ssfOUT_240_1_1_VULTURE.24",0.154498835594608,0.0218374279289078,0.287160243260308,"ssf","mf.ss","gamma","vonmises",158,"ssfOUT_240_1_1_VULTURE","VULTURE",1,1,240,"preference"
"ssfOUT_240_1_1_VULTURE.25",0.156707666059034,0.02456156268377,0.288853769434297,"ssf","mf.ss","gamma","vonmises",500,"ssfOUT_240_1_1_VULTURE","VULTURE",1,1,240,"preference"
"ssfOUT_240_1_1_VULTURE.26",0.0590132702024882,-0.0868681642088922,0.204894704613869,"ssf","mf.ss","gamma","unif",5,"ssfOUT_240_1_1_VULTURE","VULTURE",1,1,240,"no effect"
"ssfOUT_240_1_1_VULTURE.27",0.129267297554148,-0.00675981944519505,0.265294414553492,"ssf","mf.ss","gamma","unif",15,"ssfOUT_240_1_1_VULTURE","VULTURE",1,1,240,"no effect"
"ssfOUT_240_1_1_VULTURE.28",0.16879784447523,0.0354476805817982,0.302148008368662,"ssf","mf.ss","gamma","unif",50,"ssfOUT_240_1_1_VULTURE","VULTURE",1,1,240,"preference"
"ssfOUT_240_1_1_VULTURE.29",0.163947648543325,0.0315581278202318,0.296337169266418,"ssf","mf.ss","gamma","unif",158,"ssfOUT_240_1_1_VULTURE","VULTURE",1,1,240,"preference"
"ssfOUT_240_1_1_VULTURE.30",0.152553452488774,0.0203102945261805,0.284796610451368,"ssf","mf.ss","gamma","unif",500,"ssfOUT_240_1_1_VULTURE","VULTURE",1,1,240,"preference"
"ssfOUT_240_1_1_VULTURE.31",0.284853203417927,0.141755760568109,0.427950646267745,"ssf","mf.ss","exp","vonmises",5,"ssfOUT_240_1_1_VULTURE","VULTURE",1,1,240,"preference"
"ssfOUT_240_1_1_VULTURE.32",0.221845879030157,0.0849003586080223,0.358791399452291,"ssf","mf.ss","exp","vonmises",15,"ssfOUT_240_1_1_VULTURE","VULTURE",1,1,240,"preference"
"ssfOUT_240_1_1_VULTURE.33",0.238516762992836,0.104114957920362,0.372918568065309,"ssf","mf.ss","exp","vonmises",50,"ssfOUT_240_1_1_VULTURE","VULTURE",1,1,240,"preference"
"ssfOUT_240_1_1_VULTURE.34",0.207156651253639,0.0734402340760161,0.340873068431261,"ssf","mf.ss","exp","vonmises",158,"ssfOUT_240_1_1_VULTURE","VULTURE",1,1,240,"preference"
"ssfOUT_240_1_1_VULTURE.35",0.221120443159136,0.087939481380248,0.354301404938024,"ssf","mf.ss","exp","vonmises",500,"ssfOUT_240_1_1_VULTURE","VULTURE",1,1,240,"preference"
"ssfOUT_240_1_1_VULTURE.36",0.139069076881872,-0.00511941163918639,0.283257565402931,"ssf","mf.ss","exp","unif",5,"ssfOUT_240_1_1_VULTURE","VULTURE",1,1,240,"no effect"
"ssfOUT_240_1_1_VULTURE.37",0.215569245622523,0.0782634048086068,0.35287508643644,"ssf","mf.ss","exp","unif",15,"ssfOUT_240_1_1_VULTURE","VULTURE",1,1,240,"preference"
"ssfOUT_240_1_1_VULTURE.38",0.230994158903877,0.0966395447343666,0.365348773073388,"ssf","mf.ss","exp","unif",50,"ssfOUT_240_1_1_VULTURE","VULTURE",1,1,240,"preference"
"ssfOUT_240_1_1_VULTURE.39",0.210669346510374,0.0774073784279039,0.343931314592844,"ssf","mf.ss","exp","unif",158,"ssfOUT_240_1_1_VULTURE","VULTURE",1,1,240,"preference"
"ssfOUT_240_1_1_VULTURE.40",0.210888504106221,0.0776547534863489,0.344122254726093,"ssf","mf.ss","exp","unif",500,"ssfOUT_240_1_1_VULTURE","VULTURE",1,1,240,"preference"
"ssfOUT_240_1_1_KINGCOBRA.1",0.43541909898525,0.25690921831616,0.61392897965434,"ssf","mf.is","gamma","vonmises",5,"ssfOUT_240_1_1_KINGCOBRA","KINGCOBRA",1,1,240,"preference"
"ssfOUT_240_1_1_KINGCOBRA.2",0.453457836587147,0.279248792016276,0.627666881158019,"ssf","mf.is","gamma","vonmises",15,"ssfOUT_240_1_1_KINGCOBRA","KINGCOBRA",1,1,240,"preference"
"ssfOUT_240_1_1_KINGCOBRA.3",0.483693276563089,0.311365841289995,0.656020711836184,"ssf","mf.is","gamma","vonmises",50,"ssfOUT_240_1_1_KINGCOBRA","KINGCOBRA",1,1,240,"preference"
"ssfOUT_240_1_1_KINGCOBRA.4",0.457627111403049,0.2866428550985,0.628611367707599,"ssf","mf.is","gamma","vonmises",158,"ssfOUT_240_1_1_KINGCOBRA","KINGCOBRA",1,1,240,"preference"
"ssfOUT_240_1_1_KINGCOBRA.5",0.473722702556453,0.302794122988626,0.64465128212428,"ssf","mf.is","gamma","vonmises",500,"ssfOUT_240_1_1_KINGCOBRA","KINGCOBRA",1,1,240,"preference"
"ssfOUT_240_1_1_KINGCOBRA.6",0.40793747631646,0.227386171136419,0.588488781496501,"ssf","mf.is","gamma","unif",5,"ssfOUT_240_1_1_KINGCOBRA","KINGCOBRA",1,1,240,"preference"
"ssfOUT_240_1_1_KINGCOBRA.7",0.462518884153638,0.289244957554872,0.635792810752403,"ssf","mf.is","gamma","unif",15,"ssfOUT_240_1_1_KINGCOBRA","KINGCOBRA",1,1,240,"preference"
"ssfOUT_240_1_1_KINGCOBRA.8",0.469053661044274,0.2987038197077,0.639403502380848,"ssf","mf.is","gamma","unif",50,"ssfOUT_240_1_1_KINGCOBRA","KINGCOBRA",1,1,240,"preference"
"ssfOUT_240_1_1_KINGCOBRA.9",0.479891581061191,0.308389116434596,0.651394045687785,"ssf","mf.is","gamma","unif",158,"ssfOUT_240_1_1_KINGCOBRA","KINGCOBRA",1,1,240,"preference"
"ssfOUT_240_1_1_KINGCOBRA.10",0.478228840205407,0.307293079601138,0.649164600809676,"ssf","mf.is","gamma","unif",500,"ssfOUT_240_1_1_KINGCOBRA","KINGCOBRA",1,1,240,"preference"
"ssfOUT_240_1_1_KINGCOBRA.11",0.106114337782346,-0.0725027246488635,0.284731400213555,"ssf","mf.is","exp","vonmises",5,"ssfOUT_240_1_1_KINGCOBRA","KINGCOBRA",1,1,240,"no effect"
"ssfOUT_240_1_1_KINGCOBRA.12",0.302855030193178,0.130569326833954,0.475140733552403,"ssf","mf.is","exp","vonmises",15,"ssfOUT_240_1_1_KINGCOBRA","KINGCOBRA",1,1,240,"preference"
"ssfOUT_240_1_1_KINGCOBRA.13",0.350480457925874,0.178753643649757,0.522207272201992,"ssf","mf.is","exp","vonmises",50,"ssfOUT_240_1_1_KINGCOBRA","KINGCOBRA",1,1,240,"preference"
"ssfOUT_240_1_1_KINGCOBRA.14",0.430439965322565,0.258008388871115,0.602871541774016,"ssf","mf.is","exp","vonmises",158,"ssfOUT_240_1_1_KINGCOBRA","KINGCOBRA",1,1,240,"preference"
"ssfOUT_240_1_1_KINGCOBRA.15",0.464062920218496,0.290375149222387,0.637750691214605,"ssf","mf.is","exp","vonmises",500,"ssfOUT_240_1_1_KINGCOBRA","KINGCOBRA",1,1,240,"preference"
"ssfOUT_240_1_1_KINGCOBRA.16",0.338961105900602,0.155428435186128,0.522493776615075,"ssf","mf.is","exp","unif",5,"ssfOUT_240_1_1_KINGCOBRA","KINGCOBRA",1,1,240,"preference"
"ssfOUT_240_1_1_KINGCOBRA.17",0.318634828737178,0.14541206130674,0.491857596167617,"ssf","mf.is","exp","unif",15,"ssfOUT_240_1_1_KINGCOBRA","KINGCOBRA",1,1,240,"preference"
"ssfOUT_240_1_1_KINGCOBRA.18",0.383847407884562,0.211264765238656,0.556430050530468,"ssf","mf.is","exp","unif",50,"ssfOUT_240_1_1_KINGCOBRA","KINGCOBRA",1,1,240,"preference"
"ssfOUT_240_1_1_KINGCOBRA.19",0.460610513731315,0.286771069737516,0.634449957725113,"ssf","mf.is","exp","unif",158,"ssfOUT_240_1_1_KINGCOBRA","KINGCOBRA",1,1,240,"preference"
"ssfOUT_240_1_1_KINGCOBRA.20",0.437275874281669,0.264731622071335,0.609820126492004,"ssf","mf.is","exp","unif",500,"ssfOUT_240_1_1_KINGCOBRA","KINGCOBRA",1,1,240,"preference"
"ssfOUT_240_1_1_KINGCOBRA.21",0.450517458708913,0.271756176578037,0.62927874083979,"ssf","mf.ss","gamma","vonmises",5,"ssfOUT_240_1_1_KINGCOBRA","KINGCOBRA",1,1,240,"preference"
"ssfOUT_240_1_1_KINGCOBRA.22",0.473306355965768,0.298794453332706,0.647818258598829,"ssf","mf.ss","gamma","vonmises",15,"ssfOUT_240_1_1_KINGCOBRA","KINGCOBRA",1,1,240,"preference"
"ssfOUT_240_1_1_KINGCOBRA.23",0.505961060051874,0.333285251998801,0.678636868104946,"ssf","mf.ss","gamma","vonmises",50,"ssfOUT_240_1_1_KINGCOBRA","KINGCOBRA",1,1,240,"preference"
"ssfOUT_240_1_1_KINGCOBRA.24",0.479650999618729,0.308370173847925,0.650931825389532,"ssf","mf.ss","gamma","vonmises",158,"ssfOUT_240_1_1_KINGCOBRA","KINGCOBRA",1,1,240,"preference"
"ssfOUT_240_1_1_KINGCOBRA.25",0.492501079062762,0.321417801118709,0.663584357006814,"ssf","mf.ss","gamma","vonmises",500,"ssfOUT_240_1_1_KINGCOBRA","KINGCOBRA",1,1,240,"preference"
"ssfOUT_240_1_1_KINGCOBRA.26",0.420968387702951,0.240615145514208,0.601321629891695,"ssf","mf.ss","gamma","unif",5,"ssfOUT_240_1_1_KINGCOBRA","KINGCOBRA",1,1,240,"preference"
"ssfOUT_240_1_1_KINGCOBRA.27",0.479069908892976,0.305828233438555,0.652311584347397,"ssf","mf.ss","gamma","unif",15,"ssfOUT_240_1_1_KINGCOBRA","KINGCOBRA",1,1,240,"preference"
"ssfOUT_240_1_1_KINGCOBRA.28",0.486527590674644,0.316148347007305,0.656906834341983,"ssf","mf.ss","gamma","unif",50,"ssfOUT_240_1_1_KINGCOBRA","KINGCOBRA",1,1,240,"preference"
"ssfOUT_240_1_1_KINGCOBRA.29",0.495184639650461,0.323640757674583,0.666728521626339,"ssf","mf.ss","gamma","unif",158,"ssfOUT_240_1_1_KINGCOBRA","KINGCOBRA",1,1,240,"preference"
"ssfOUT_240_1_1_KINGCOBRA.30",0.494765543095796,0.323769478027494,0.665761608164097,"ssf","mf.ss","gamma","unif",500,"ssfOUT_240_1_1_KINGCOBRA","KINGCOBRA",1,1,240,"preference"
"ssfOUT_240_1_1_KINGCOBRA.31",0.360165794133353,0.185995386868034,0.534336201398671,"ssf","mf.ss","exp","vonmises",5,"ssfOUT_240_1_1_KINGCOBRA","KINGCOBRA",1,1,240,"preference"
"ssfOUT_240_1_1_KINGCOBRA.32",0.494750149353511,0.326962758259862,0.66253754044716,"ssf","mf.ss","exp","vonmises",15,"ssfOUT_240_1_1_KINGCOBRA","KINGCOBRA",1,1,240,"preference"
"ssfOUT_240_1_1_KINGCOBRA.33",0.470556102874731,0.305063040575519,0.636049165173942,"ssf","mf.ss","exp","vonmises",50,"ssfOUT_240_1_1_KINGCOBRA","KINGCOBRA",1,1,240,"preference"
"ssfOUT_240_1_1_KINGCOBRA.34",0.488190097211085,0.32381270023985,0.65256749418232,"ssf","mf.ss","exp","vonmises",158,"ssfOUT_240_1_1_KINGCOBRA","KINGCOBRA",1,1,240,"preference"
"ssfOUT_240_1_1_KINGCOBRA.35",0.494810034597446,0.330432799563194,0.659187269631698,"ssf","mf.ss","exp","vonmises",500,"ssfOUT_240_1_1_KINGCOBRA","KINGCOBRA",1,1,240,"preference"
"ssfOUT_240_1_1_KINGCOBRA.36",0.460828665402761,0.284723739633662,0.636933591171861,"ssf","mf.ss","exp","unif",5,"ssfOUT_240_1_1_KINGCOBRA","KINGCOBRA",1,1,240,"preference"
"ssfOUT_240_1_1_KINGCOBRA.37",0.420737063625223,0.253368073213978,0.588106054036468,"ssf","mf.ss","exp","unif",15,"ssfOUT_240_1_1_KINGCOBRA","KINGCOBRA",1,1,240,"preference"
"ssfOUT_240_1_1_KINGCOBRA.38",0.484339200218877,0.31843684420562,0.650241556232134,"ssf","mf.ss","exp","unif",50,"ssfOUT_240_1_1_KINGCOBRA","KINGCOBRA",1,1,240,"preference"
"ssfOUT_240_1_1_KINGCOBRA.39",0.492269767259032,0.327166071465957,0.657373463052107,"ssf","mf.ss","exp","unif",158,"ssfOUT_240_1_1_KINGCOBRA","KINGCOBRA",1,1,240,"preference"
"ssfOUT_240_1_1_KINGCOBRA.40",0.489684060832335,0.325215508862596,0.654152612802073,"ssf","mf.ss","exp","unif",500,"ssfOUT_240_1_1_KINGCOBRA","KINGCOBRA",1,1,240,"preference"
"ssfOUT_240_1_2_BADGER.1",0.486994032621303,0.371143348867156,0.60284471637545,"ssf","mf.is","gamma","vonmises",5,"ssfOUT_240_1_2_BADGER","BADGER",2,1,240,"preference"
"ssfOUT_240_1_2_BADGER.2",0.482780965273432,0.370633242297206,0.594928688249658,"ssf","mf.is","gamma","vonmises",15,"ssfOUT_240_1_2_BADGER","BADGER",2,1,240,"preference"
"ssfOUT_240_1_2_BADGER.3",0.471401435513556,0.3625803200719,0.580222550955212,"ssf","mf.is","gamma","vonmises",50,"ssfOUT_240_1_2_BADGER","BADGER",2,1,240,"preference"
"ssfOUT_240_1_2_BADGER.4",0.460905335292587,0.352662521541074,0.569148149044101,"ssf","mf.is","gamma","vonmises",158,"ssfOUT_240_1_2_BADGER","BADGER",2,1,240,"preference"
"ssfOUT_240_1_2_BADGER.5",0.464032317031304,0.356142742719507,0.571921891343101,"ssf","mf.is","gamma","vonmises",500,"ssfOUT_240_1_2_BADGER","BADGER",2,1,240,"preference"
"ssfOUT_240_1_2_BADGER.6",0.463441153459988,0.346724901348107,0.58015740557187,"ssf","mf.is","gamma","unif",5,"ssfOUT_240_1_2_BADGER","BADGER",2,1,240,"preference"
"ssfOUT_240_1_2_BADGER.7",0.472297297791717,0.36073557232538,0.583859023258053,"ssf","mf.is","gamma","unif",15,"ssfOUT_240_1_2_BADGER","BADGER",2,1,240,"preference"
"ssfOUT_240_1_2_BADGER.8",0.427837198850498,0.318953689489679,0.536720708211316,"ssf","mf.is","gamma","unif",50,"ssfOUT_240_1_2_BADGER","BADGER",2,1,240,"preference"
"ssfOUT_240_1_2_BADGER.9",0.473921187444199,0.365737873368287,0.582104501520111,"ssf","mf.is","gamma","unif",158,"ssfOUT_240_1_2_BADGER","BADGER",2,1,240,"preference"
"ssfOUT_240_1_2_BADGER.10",0.459616363362374,0.35162152878872,0.567611197936029,"ssf","mf.is","gamma","unif",500,"ssfOUT_240_1_2_BADGER","BADGER",2,1,240,"preference"
"ssfOUT_240_1_2_BADGER.11",0.458346834446181,0.341864653156813,0.574829015735549,"ssf","mf.is","exp","vonmises",5,"ssfOUT_240_1_2_BADGER","BADGER",2,1,240,"preference"
"ssfOUT_240_1_2_BADGER.12",0.482663227162999,0.37148174298483,0.593844711341167,"ssf","mf.is","exp","vonmises",15,"ssfOUT_240_1_2_BADGER","BADGER",2,1,240,"preference"
"ssfOUT_240_1_2_BADGER.13",0.437930525741173,0.329079368406924,0.546781683075423,"ssf","mf.is","exp","vonmises",50,"ssfOUT_240_1_2_BADGER","BADGER",2,1,240,"preference"
"ssfOUT_240_1_2_BADGER.14",0.471013482657182,0.362773522276172,0.579253443038191,"ssf","mf.is","exp","vonmises",158,"ssfOUT_240_1_2_BADGER","BADGER",2,1,240,"preference"
"ssfOUT_240_1_2_BADGER.15",0.464263056971572,0.356164756742062,0.572361357201083,"ssf","mf.is","exp","vonmises",500,"ssfOUT_240_1_2_BADGER","BADGER",2,1,240,"preference"
"ssfOUT_240_1_2_BADGER.16",0.462413062601842,0.344861043657125,0.57996508154656,"ssf","mf.is","exp","unif",5,"ssfOUT_240_1_2_BADGER","BADGER",2,1,240,"preference"
"ssfOUT_240_1_2_BADGER.17",0.446039512925272,0.335418887932348,0.556660137918197,"ssf","mf.is","exp","unif",15,"ssfOUT_240_1_2_BADGER","BADGER",2,1,240,"preference"
"ssfOUT_240_1_2_BADGER.18",0.443139193138105,0.334077653695742,0.552200732580468,"ssf","mf.is","exp","unif",50,"ssfOUT_240_1_2_BADGER","BADGER",2,1,240,"preference"
"ssfOUT_240_1_2_BADGER.19",0.45682531974289,0.348569909282029,0.565080730203751,"ssf","mf.is","exp","unif",158,"ssfOUT_240_1_2_BADGER","BADGER",2,1,240,"preference"
"ssfOUT_240_1_2_BADGER.20",0.472048325545113,0.364029348209392,0.580067302880834,"ssf","mf.is","exp","unif",500,"ssfOUT_240_1_2_BADGER","BADGER",2,1,240,"preference"
"ssfOUT_240_1_2_BADGER.21",0.483344744088816,0.367392119795484,0.599297368382147,"ssf","mf.ss","gamma","vonmises",5,"ssfOUT_240_1_2_BADGER","BADGER",2,1,240,"preference"
"ssfOUT_240_1_2_BADGER.22",0.480744807444548,0.36830100508198,0.593188609807116,"ssf","mf.ss","gamma","vonmises",15,"ssfOUT_240_1_2_BADGER","BADGER",2,1,240,"preference"
"ssfOUT_240_1_2_BADGER.23",0.467095569730591,0.35798247773456,0.576208661726621,"ssf","mf.ss","gamma","vonmises",50,"ssfOUT_240_1_2_BADGER","BADGER",2,1,240,"preference"
"ssfOUT_240_1_2_BADGER.24",0.456335413585804,0.347842889793202,0.564827937378406,"ssf","mf.ss","gamma","vonmises",158,"ssfOUT_240_1_2_BADGER","BADGER",2,1,240,"preference"
"ssfOUT_240_1_2_BADGER.25",0.459920353699309,0.351796566565553,0.568044140833064,"ssf","mf.ss","gamma","vonmises",500,"ssfOUT_240_1_2_BADGER","BADGER",2,1,240,"preference"
"ssfOUT_240_1_2_BADGER.26",0.464785970798648,0.347964173537586,0.58160776805971,"ssf","mf.ss","gamma","unif",5,"ssfOUT_240_1_2_BADGER","BADGER",2,1,240,"preference"
"ssfOUT_240_1_2_BADGER.27",0.47174229247675,0.359983141518287,0.583501443435213,"ssf","mf.ss","gamma","unif",15,"ssfOUT_240_1_2_BADGER","BADGER",2,1,240,"preference"
"ssfOUT_240_1_2_BADGER.28",0.426073648826742,0.316902411149156,0.535244886504328,"ssf","mf.ss","gamma","unif",50,"ssfOUT_240_1_2_BADGER","BADGER",2,1,240,"preference"
"ssfOUT_240_1_2_BADGER.29",0.472690452329005,0.364252721767746,0.581128182890264,"ssf","mf.ss","gamma","unif",158,"ssfOUT_240_1_2_BADGER","BADGER",2,1,240,"preference"
"ssfOUT_240_1_2_BADGER.30",0.45792489033432,0.349708964548216,0.566140816120425,"ssf","mf.ss","gamma","unif",500,"ssfOUT_240_1_2_BADGER","BADGER",2,1,240,"preference"
"ssfOUT_240_1_2_BADGER.31",0.459654714279023,0.343198865742088,0.576110562815959,"ssf","mf.ss","exp","vonmises",5,"ssfOUT_240_1_2_BADGER","BADGER",2,1,240,"preference"
"ssfOUT_240_1_2_BADGER.32",0.482902257021283,0.371731708692172,0.594072805350394,"ssf","mf.ss","exp","vonmises",15,"ssfOUT_240_1_2_BADGER","BADGER",2,1,240,"preference"
"ssfOUT_240_1_2_BADGER.33",0.437072996220498,0.328235018154054,0.545910974286942,"ssf","mf.ss","exp","vonmises",50,"ssfOUT_240_1_2_BADGER","BADGER",2,1,240,"preference"
"ssfOUT_240_1_2_BADGER.34",0.470533396561591,0.362319698476581,0.5787470946466,"ssf","mf.ss","exp","vonmises",158,"ssfOUT_240_1_2_BADGER","BADGER",2,1,240,"preference"
"ssfOUT_240_1_2_BADGER.35",0.463853062544223,0.355775962853456,0.571930162234989,"ssf","mf.ss","exp","vonmises",500,"ssfOUT_240_1_2_BADGER","BADGER",2,1,240,"preference"
"ssfOUT_240_1_2_BADGER.36",0.465838991250591,0.3483895576501,0.583288424851082,"ssf","mf.ss","exp","unif",5,"ssfOUT_240_1_2_BADGER","BADGER",2,1,240,"preference"
"ssfOUT_240_1_2_BADGER.37",0.451068962609163,0.340395336819222,0.561742588399105,"ssf","mf.ss","exp","unif",15,"ssfOUT_240_1_2_BADGER","BADGER",2,1,240,"preference"
"ssfOUT_240_1_2_BADGER.38",0.443305985106171,0.334268884705407,0.552343085506934,"ssf","mf.ss","exp","unif",50,"ssfOUT_240_1_2_BADGER","BADGER",2,1,240,"preference"
"ssfOUT_240_1_2_BADGER.39",0.458441210569458,0.350210101410443,0.566672319728472,"ssf","mf.ss","exp","unif",158,"ssfOUT_240_1_2_BADGER","BADGER",2,1,240,"preference"
"ssfOUT_240_1_2_BADGER.40",0.473507751826051,0.365531279667815,0.581484223984287,"ssf","mf.ss","exp","unif",500,"ssfOUT_240_1_2_BADGER","BADGER",2,1,240,"preference"
"ssfOUT_240_1_2_VULTURE.1",0.43557594713551,0.304562046347385,0.566589847923635,"ssf","mf.is","gamma","vonmises",5,"ssfOUT_240_1_2_VULTURE","VULTURE",2,1,240,"preference"
"ssfOUT_240_1_2_VULTURE.2",0.442662253525289,0.316945547252872,0.568378959797706,"ssf","mf.is","gamma","vonmises",15,"ssfOUT_240_1_2_VULTURE","VULTURE",2,1,240,"preference"
"ssfOUT_240_1_2_VULTURE.3",0.458848127988726,0.335137606904095,0.582558649073357,"ssf","mf.is","gamma","vonmises",50,"ssfOUT_240_1_2_VULTURE","VULTURE",2,1,240,"preference"
"ssfOUT_240_1_2_VULTURE.4",0.44501211645632,0.322028615428666,0.567995617483974,"ssf","mf.is","gamma","vonmises",158,"ssfOUT_240_1_2_VULTURE","VULTURE",2,1,240,"preference"
"ssfOUT_240_1_2_VULTURE.5",0.432121795024455,0.309315304965544,0.554928285083365,"ssf","mf.is","gamma","vonmises",500,"ssfOUT_240_1_2_VULTURE","VULTURE",2,1,240,"preference"
"ssfOUT_240_1_2_VULTURE.6",0.424729930495596,0.293159740366237,0.556300120624954,"ssf","mf.is","gamma","unif",5,"ssfOUT_240_1_2_VULTURE","VULTURE",2,1,240,"preference"
"ssfOUT_240_1_2_VULTURE.7",0.42651980348189,0.300777525699924,0.552262081263855,"ssf","mf.is","gamma","unif",15,"ssfOUT_240_1_2_VULTURE","VULTURE",2,1,240,"preference"
"ssfOUT_240_1_2_VULTURE.8",0.437297690496794,0.313457964175734,0.561137416817855,"ssf","mf.is","gamma","unif",50,"ssfOUT_240_1_2_VULTURE","VULTURE",2,1,240,"preference"
"ssfOUT_240_1_2_VULTURE.9",0.43138365692491,0.308448748476518,0.554318565373303,"ssf","mf.is","gamma","unif",158,"ssfOUT_240_1_2_VULTURE","VULTURE",2,1,240,"preference"
"ssfOUT_240_1_2_VULTURE.10",0.425703734253479,0.302905614488489,0.54850185401847,"ssf","mf.is","gamma","unif",500,"ssfOUT_240_1_2_VULTURE","VULTURE",2,1,240,"preference"
"ssfOUT_240_1_2_VULTURE.11",0.373631171213024,0.239365340064404,0.507897002361644,"ssf","mf.is","exp","vonmises",5,"ssfOUT_240_1_2_VULTURE","VULTURE",2,1,240,"preference"
"ssfOUT_240_1_2_VULTURE.12",0.458068698514183,0.331915998861785,0.584221398166582,"ssf","mf.is","exp","vonmises",15,"ssfOUT_240_1_2_VULTURE","VULTURE",2,1,240,"preference"
"ssfOUT_240_1_2_VULTURE.13",0.45958471134812,0.335855294196589,0.58331412849965,"ssf","mf.is","exp","vonmises",50,"ssfOUT_240_1_2_VULTURE","VULTURE",2,1,240,"preference"
"ssfOUT_240_1_2_VULTURE.14",0.437944887338102,0.314960484822942,0.560929289853262,"ssf","mf.is","exp","vonmises",158,"ssfOUT_240_1_2_VULTURE","VULTURE",2,1,240,"preference"
"ssfOUT_240_1_2_VULTURE.15",0.42482673263178,0.302011609379898,0.547641855883663,"ssf","mf.is","exp","vonmises",500,"ssfOUT_240_1_2_VULTURE","VULTURE",2,1,240,"preference"
"ssfOUT_240_1_2_VULTURE.16",0.422797908859278,0.289032636310598,0.556563181407958,"ssf","mf.is","exp","unif",5,"ssfOUT_240_1_2_VULTURE","VULTURE",2,1,240,"preference"
"ssfOUT_240_1_2_VULTURE.17",0.477108005291294,0.350751813899502,0.603464196683086,"ssf","mf.is","exp","unif",15,"ssfOUT_240_1_2_VULTURE","VULTURE",2,1,240,"preference"
"ssfOUT_240_1_2_VULTURE.18",0.44204971744753,0.318184251180226,0.565915183714835,"ssf","mf.is","exp","unif",50,"ssfOUT_240_1_2_VULTURE","VULTURE",2,1,240,"preference"
"ssfOUT_240_1_2_VULTURE.19",0.442447318447545,0.319438319144531,0.565456317750558,"ssf","mf.is","exp","unif",158,"ssfOUT_240_1_2_VULTURE","VULTURE",2,1,240,"preference"
"ssfOUT_240_1_2_VULTURE.20",0.444464614982683,0.321695739413303,0.567233490552062,"ssf","mf.is","exp","unif",500,"ssfOUT_240_1_2_VULTURE","VULTURE",2,1,240,"preference"
"ssfOUT_240_1_2_VULTURE.21",0.432004013006379,0.301002158225565,0.563005867787193,"ssf","mf.ss","gamma","vonmises",5,"ssfOUT_240_1_2_VULTURE","VULTURE",2,1,240,"preference"
"ssfOUT_240_1_2_VULTURE.22",0.441169671012744,0.315453892862429,0.566885449163058,"ssf","mf.ss","gamma","vonmises",15,"ssfOUT_240_1_2_VULTURE","VULTURE",2,1,240,"preference"
"ssfOUT_240_1_2_VULTURE.23",0.457868307926831,0.334155818994695,0.581580796858967,"ssf","mf.ss","gamma","vonmises",50,"ssfOUT_240_1_2_VULTURE","VULTURE",2,1,240,"preference"
"ssfOUT_240_1_2_VULTURE.24",0.44396855512247,0.320982564452182,0.566954545792758,"ssf","mf.ss","gamma","vonmises",158,"ssfOUT_240_1_2_VULTURE","VULTURE",2,1,240,"preference"
"ssfOUT_240_1_2_VULTURE.25",0.431270614987623,0.308465180624231,0.554076049351015,"ssf","mf.ss","gamma","vonmises",500,"ssfOUT_240_1_2_VULTURE","VULTURE",2,1,240,"preference"
"ssfOUT_240_1_2_VULTURE.26",0.424792427849452,0.293381166327484,0.556203689371419,"ssf","mf.ss","gamma","unif",5,"ssfOUT_240_1_2_VULTURE","VULTURE",2,1,240,"preference"
"ssfOUT_240_1_2_VULTURE.27",0.434960418181684,0.309231394271046,0.560689442092323,"ssf","mf.ss","gamma","unif",15,"ssfOUT_240_1_2_VULTURE","VULTURE",2,1,240,"preference"
"ssfOUT_240_1_2_VULTURE.28",0.443255641523069,0.319431492480805,0.567079790565333,"ssf","mf.ss","gamma","unif",50,"ssfOUT_240_1_2_VULTURE","VULTURE",2,1,240,"preference"
"ssfOUT_240_1_2_VULTURE.29",0.438206619388411,0.315262605219709,0.561150633557113,"ssf","mf.ss","gamma","unif",158,"ssfOUT_240_1_2_VULTURE","VULTURE",2,1,240,"preference"
"ssfOUT_240_1_2_VULTURE.30",0.432414669260236,0.309608987706114,0.555220350814359,"ssf","mf.ss","gamma","unif",500,"ssfOUT_240_1_2_VULTURE","VULTURE",2,1,240,"preference"
"ssfOUT_240_1_2_VULTURE.31",0.374507417723805,0.24271514461778,0.50629969082983,"ssf","mf.ss","exp","vonmises",5,"ssfOUT_240_1_2_VULTURE","VULTURE",2,1,240,"preference"
"ssfOUT_240_1_2_VULTURE.32",0.438000757876778,0.311922187398807,0.564079328354749,"ssf","mf.ss","exp","vonmises",15,"ssfOUT_240_1_2_VULTURE","VULTURE",2,1,240,"preference"
"ssfOUT_240_1_2_VULTURE.33",0.438383888659157,0.31405354933722,0.562714227981093,"ssf","mf.ss","exp","vonmises",50,"ssfOUT_240_1_2_VULTURE","VULTURE",2,1,240,"preference"
"ssfOUT_240_1_2_VULTURE.34",0.405272461997561,0.281701535577918,0.528843388417204,"ssf","mf.ss","exp","vonmises",158,"ssfOUT_240_1_2_VULTURE","VULTURE",2,1,240,"preference"
"ssfOUT_240_1_2_VULTURE.35",0.397172922378489,0.273609683380439,0.52073616137654,"ssf","mf.ss","exp","vonmises",500,"ssfOUT_240_1_2_VULTURE","VULTURE",2,1,240,"preference"
"ssfOUT_240_1_2_VULTURE.36",0.393328894978126,0.261483043824895,0.525174746131357,"ssf","mf.ss","exp","unif",5,"ssfOUT_240_1_2_VULTURE","VULTURE",2,1,240,"preference"
"ssfOUT_240_1_2_VULTURE.37",0.453093846114913,0.32707119451258,0.579116497717245,"ssf","mf.ss","exp","unif",15,"ssfOUT_240_1_2_VULTURE","VULTURE",2,1,240,"preference"
"ssfOUT_240_1_2_VULTURE.38",0.415308582745928,0.29088529639612,0.539731869095736,"ssf","mf.ss","exp","unif",50,"ssfOUT_240_1_2_VULTURE","VULTURE",2,1,240,"preference"
"ssfOUT_240_1_2_VULTURE.39",0.418791251343334,0.295144488087841,0.542438014598827,"ssf","mf.ss","exp","unif",158,"ssfOUT_240_1_2_VULTURE","VULTURE",2,1,240,"preference"
"ssfOUT_240_1_2_VULTURE.40",0.419554965669578,0.296073116196174,0.543036815142982,"ssf","mf.ss","exp","unif",500,"ssfOUT_240_1_2_VULTURE","VULTURE",2,1,240,"preference"
"ssfOUT_240_1_2_KINGCOBRA.1",0.511828871243731,0.369864695835534,0.653793046651929,"ssf","mf.is","gamma","vonmises",5,"ssfOUT_240_1_2_KINGCOBRA","KINGCOBRA",2,1,240,"preference"
"ssfOUT_240_1_2_KINGCOBRA.2",0.45953980214604,0.321364002168524,0.597715602123556,"ssf","mf.is","gamma","vonmises",15,"ssfOUT_240_1_2_KINGCOBRA","KINGCOBRA",2,1,240,"preference"
"ssfOUT_240_1_2_KINGCOBRA.3",0.452485123689457,0.317543248279843,0.587426999099071,"ssf","mf.is","gamma","vonmises",50,"ssfOUT_240_1_2_KINGCOBRA","KINGCOBRA",2,1,240,"preference"
"ssfOUT_240_1_2_KINGCOBRA.4",0.467480696369699,0.333413001384415,0.601548391354984,"ssf","mf.is","gamma","vonmises",158,"ssfOUT_240_1_2_KINGCOBRA","KINGCOBRA",2,1,240,"preference"
"ssfOUT_240_1_2_KINGCOBRA.5",0.457132140051754,0.322983059448097,0.59128122065541,"ssf","mf.is","gamma","vonmises",500,"ssfOUT_240_1_2_KINGCOBRA","KINGCOBRA",2,1,240,"preference"
"ssfOUT_240_1_2_KINGCOBRA.6",0.487857603727681,0.347452916032349,0.628262291423013,"ssf","mf.is","gamma","unif",5,"ssfOUT_240_1_2_KINGCOBRA","KINGCOBRA",2,1,240,"preference"
"ssfOUT_240_1_2_KINGCOBRA.7",0.511934814172142,0.375724303704315,0.64814532463997,"ssf","mf.is","gamma","unif",15,"ssfOUT_240_1_2_KINGCOBRA","KINGCOBRA",2,1,240,"preference"
"ssfOUT_240_1_2_KINGCOBRA.8",0.461449778818604,0.326918940807658,0.59598061682955,"ssf","mf.is","gamma","unif",50,"ssfOUT_240_1_2_KINGCOBRA","KINGCOBRA",2,1,240,"preference"
"ssfOUT_240_1_2_KINGCOBRA.9",0.456083340616295,0.321549055018621,0.59061762621397,"ssf","mf.is","gamma","unif",158,"ssfOUT_240_1_2_KINGCOBRA","KINGCOBRA",2,1,240,"preference"
"ssfOUT_240_1_2_KINGCOBRA.10",0.461372281062756,0.32728094272301,0.595463619402502,"ssf","mf.is","gamma","unif",500,"ssfOUT_240_1_2_KINGCOBRA","KINGCOBRA",2,1,240,"preference"
"ssfOUT_240_1_2_KINGCOBRA.11",0.353867950622656,0.212018778896747,0.495717122348565,"ssf","mf.is","exp","vonmises",5,"ssfOUT_240_1_2_KINGCOBRA","KINGCOBRA",2,1,240,"preference"
"ssfOUT_240_1_2_KINGCOBRA.12",0.314879465640503,0.178300721828212,0.451458209452794,"ssf","mf.is","exp","vonmises",15,"ssfOUT_240_1_2_KINGCOBRA","KINGCOBRA",2,1,240,"preference"
"ssfOUT_240_1_2_KINGCOBRA.13",0.433344260718037,0.297160336368949,0.569528185067125,"ssf","mf.is","exp","vonmises",50,"ssfOUT_240_1_2_KINGCOBRA","KINGCOBRA",2,1,240,"preference"
"ssfOUT_240_1_2_KINGCOBRA.14",0.445713651289413,0.309441426130166,0.581985876448659,"ssf","mf.is","exp","vonmises",158,"ssfOUT_240_1_2_KINGCOBRA","KINGCOBRA",2,1,240,"preference"
"ssfOUT_240_1_2_KINGCOBRA.15",0.461499263435861,0.325551634602247,0.597446892269476,"ssf","mf.is","exp","vonmises",500,"ssfOUT_240_1_2_KINGCOBRA","KINGCOBRA",2,1,240,"preference"
"ssfOUT_240_1_2_KINGCOBRA.16",0.36484256267218,0.221590129181306,0.508094996163053,"ssf","mf.is","exp","unif",5,"ssfOUT_240_1_2_KINGCOBRA","KINGCOBRA",2,1,240,"preference"
"ssfOUT_240_1_2_KINGCOBRA.17",0.327879199770841,0.191639378660577,0.464119020881106,"ssf","mf.is","exp","unif",15,"ssfOUT_240_1_2_KINGCOBRA","KINGCOBRA",2,1,240,"preference"
"ssfOUT_240_1_2_KINGCOBRA.18",0.398951707081941,0.263522520509434,0.534380893654447,"ssf","mf.is","exp","unif",50,"ssfOUT_240_1_2_KINGCOBRA","KINGCOBRA",2,1,240,"preference"
"ssfOUT_240_1_2_KINGCOBRA.19",0.45839359267184,0.322439169425641,0.59434801591804,"ssf","mf.is","exp","unif",158,"ssfOUT_240_1_2_KINGCOBRA","KINGCOBRA",2,1,240,"preference"
"ssfOUT_240_1_2_KINGCOBRA.20",0.447554411090227,0.312088653023237,0.583020169157216,"ssf","mf.is","exp","unif",500,"ssfOUT_240_1_2_KINGCOBRA","KINGCOBRA",2,1,240,"preference"
"ssfOUT_240_1_2_KINGCOBRA.21",0.511014869402875,0.368724999848055,0.653304738957695,"ssf","mf.ss","gamma","vonmises",5,"ssfOUT_240_1_2_KINGCOBRA","KINGCOBRA",2,1,240,"preference"
"ssfOUT_240_1_2_KINGCOBRA.22",0.456970150498267,0.318737655383388,0.595202645613146,"ssf","mf.ss","gamma","vonmises",15,"ssfOUT_240_1_2_KINGCOBRA","KINGCOBRA",2,1,240,"preference"
"ssfOUT_240_1_2_KINGCOBRA.23",0.448145499990254,0.313068397026397,0.583222602954111,"ssf","mf.ss","gamma","vonmises",50,"ssfOUT_240_1_2_KINGCOBRA","KINGCOBRA",2,1,240,"preference"
"ssfOUT_240_1_2_KINGCOBRA.24",0.464693895426832,0.330503596324537,0.598884194529128,"ssf","mf.ss","gamma","vonmises",158,"ssfOUT_240_1_2_KINGCOBRA","KINGCOBRA",2,1,240,"preference"
"ssfOUT_240_1_2_KINGCOBRA.25",0.4545492184286,0.320279069565314,0.588819367291886,"ssf","mf.ss","gamma","vonmises",500,"ssfOUT_240_1_2_KINGCOBRA","KINGCOBRA",2,1,240,"preference"
"ssfOUT_240_1_2_KINGCOBRA.26",0.482953589031469,0.342379820234601,0.623527357828337,"ssf","mf.ss","gamma","unif",5,"ssfOUT_240_1_2_KINGCOBRA","KINGCOBRA",2,1,240,"preference"
"ssfOUT_240_1_2_KINGCOBRA.27",0.509968639948601,0.373526332823572,0.646410947073629,"ssf","mf.ss","gamma","unif",15,"ssfOUT_240_1_2_KINGCOBRA","KINGCOBRA",2,1,240,"preference"
"ssfOUT_240_1_2_KINGCOBRA.28",0.459737197189925,0.325074726096962,0.594399668282887,"ssf","mf.ss","gamma","unif",50,"ssfOUT_240_1_2_KINGCOBRA","KINGCOBRA",2,1,240,"preference"
"ssfOUT_240_1_2_KINGCOBRA.29",0.45415843832537,0.319538003804852,0.588778872845888,"ssf","mf.ss","gamma","unif",158,"ssfOUT_240_1_2_KINGCOBRA","KINGCOBRA",2,1,240,"preference"
"ssfOUT_240_1_2_KINGCOBRA.30",0.459493602367242,0.325280732487842,0.593706472246641,"ssf","mf.ss","gamma","unif",500,"ssfOUT_240_1_2_KINGCOBRA","KINGCOBRA",2,1,240,"preference"
"ssfOUT_240_1_2_KINGCOBRA.31",0.553274697042013,0.414819037298899,0.691730356785127,"ssf","mf.ss","exp","vonmises",5,"ssfOUT_240_1_2_KINGCOBRA","KINGCOBRA",2,1,240,"preference"
"ssfOUT_240_1_2_KINGCOBRA.32",0.503104142473021,0.37095469720212,0.635253587743922,"ssf","mf.ss","exp","vonmises",15,"ssfOUT_240_1_2_KINGCOBRA","KINGCOBRA",2,1,240,"preference"
"ssfOUT_240_1_2_KINGCOBRA.33",0.536502902644268,0.406500819936843,0.666504985351692,"ssf","mf.ss","exp","vonmises",50,"ssfOUT_240_1_2_KINGCOBRA","KINGCOBRA",2,1,240,"preference"
"ssfOUT_240_1_2_KINGCOBRA.34",0.521958807984573,0.392670464365369,0.651247151603777,"ssf","mf.ss","exp","vonmises",158,"ssfOUT_240_1_2_KINGCOBRA","KINGCOBRA",2,1,240,"preference"
"ssfOUT_240_1_2_KINGCOBRA.35",0.520802384595619,0.392052183615907,0.649552585575331,"ssf","mf.ss","exp","vonmises",500,"ssfOUT_240_1_2_KINGCOBRA","KINGCOBRA",2,1,240,"preference"
"ssfOUT_240_1_2_KINGCOBRA.36",0.521033543691733,0.383521066523615,0.658546020859852,"ssf","mf.ss","exp","unif",5,"ssfOUT_240_1_2_KINGCOBRA","KINGCOBRA",2,1,240,"preference"
"ssfOUT_240_1_2_KINGCOBRA.37",0.527805278956381,0.395735610089779,0.659874947822983,"ssf","mf.ss","exp","unif",15,"ssfOUT_240_1_2_KINGCOBRA","KINGCOBRA",2,1,240,"preference"
"ssfOUT_240_1_2_KINGCOBRA.38",0.505126788403632,0.375660940532315,0.634592636274949,"ssf","mf.ss","exp","unif",50,"ssfOUT_240_1_2_KINGCOBRA","KINGCOBRA",2,1,240,"preference"
"ssfOUT_240_1_2_KINGCOBRA.39",0.520809311424116,0.391694054804871,0.649924568043361,"ssf","mf.ss","exp","unif",158,"ssfOUT_240_1_2_KINGCOBRA","KINGCOBRA",2,1,240,"preference"
"ssfOUT_240_1_2_KINGCOBRA.40",0.517827772740792,0.388975780902835,0.646679764578749,"ssf","mf.ss","exp","unif",500,"ssfOUT_240_1_2_KINGCOBRA","KINGCOBRA",2,1,240,"preference"
"ssfOUT_240_1_3_BADGER.1",0.0710356539026526,-0.038404550633924,0.180475858439229,"ssf","mf.is","gamma","vonmises",5,"ssfOUT_240_1_3_BADGER","BADGER",3,1,240,"no effect"
"ssfOUT_240_1_3_BADGER.2",0.032235487243365,-0.0710040038958695,0.135474978382599,"ssf","mf.is","gamma","vonmises",15,"ssfOUT_240_1_3_BADGER","BADGER",3,1,240,"no effect"
"ssfOUT_240_1_3_BADGER.3",0.0689222991187006,-0.0318829244093793,0.169727522646781,"ssf","mf.is","gamma","vonmises",50,"ssfOUT_240_1_3_BADGER","BADGER",3,1,240,"no effect"
"ssfOUT_240_1_3_BADGER.4",0.0631563368850763,-0.0371691826246476,0.1634818563948,"ssf","mf.is","gamma","vonmises",158,"ssfOUT_240_1_3_BADGER","BADGER",3,1,240,"no effect"
"ssfOUT_240_1_3_BADGER.5",0.0725296783510445,-0.0276267875473662,0.172686144249455,"ssf","mf.is","gamma","vonmises",500,"ssfOUT_240_1_3_BADGER","BADGER",3,1,240,"no effect"
"ssfOUT_240_1_3_BADGER.6",0.140043449764562,0.0309120321703874,0.249174867358737,"ssf","mf.is","gamma","unif",5,"ssfOUT_240_1_3_BADGER","BADGER",3,1,240,"preference"
"ssfOUT_240_1_3_BADGER.7",0.0792915964084296,-0.0242359762302297,0.182819169047089,"ssf","mf.is","gamma","unif",15,"ssfOUT_240_1_3_BADGER","BADGER",3,1,240,"no effect"
"ssfOUT_240_1_3_BADGER.8",0.102667497456034,0.00172797322033473,0.203607021691732,"ssf","mf.is","gamma","unif",50,"ssfOUT_240_1_3_BADGER","BADGER",3,1,240,"preference"
"ssfOUT_240_1_3_BADGER.9",0.0724777853905566,-0.0278214638373026,0.172777034618416,"ssf","mf.is","gamma","unif",158,"ssfOUT_240_1_3_BADGER","BADGER",3,1,240,"no effect"
"ssfOUT_240_1_3_BADGER.10",0.0721593537974586,-0.0279320291622141,0.172250736757131,"ssf","mf.is","gamma","unif",500,"ssfOUT_240_1_3_BADGER","BADGER",3,1,240,"no effect"
"ssfOUT_240_1_3_BADGER.11",0.107853557997946,-0.00119240992468728,0.21689952592058,"ssf","mf.is","exp","vonmises",5,"ssfOUT_240_1_3_BADGER","BADGER",3,1,240,"no effect"
"ssfOUT_240_1_3_BADGER.12",0.0593937826673952,-0.0442949167362168,0.163082482071007,"ssf","mf.is","exp","vonmises",15,"ssfOUT_240_1_3_BADGER","BADGER",3,1,240,"no effect"
"ssfOUT_240_1_3_BADGER.13",0.0731661449979547,-0.0279320741835765,0.174264364179486,"ssf","mf.is","exp","vonmises",50,"ssfOUT_240_1_3_BADGER","BADGER",3,1,240,"no effect"
"ssfOUT_240_1_3_BADGER.14",0.0733988258117993,-0.0267501427226501,0.173547794346249,"ssf","mf.is","exp","vonmises",158,"ssfOUT_240_1_3_BADGER","BADGER",3,1,240,"no effect"
"ssfOUT_240_1_3_BADGER.15",0.0772657272377697,-0.0227913410000793,0.177322795475619,"ssf","mf.is","exp","vonmises",500,"ssfOUT_240_1_3_BADGER","BADGER",3,1,240,"no effect"
"ssfOUT_240_1_3_BADGER.16",0.144425960964336,0.0350237211431391,0.253828200785532,"ssf","mf.is","exp","unif",5,"ssfOUT_240_1_3_BADGER","BADGER",3,1,240,"preference"
"ssfOUT_240_1_3_BADGER.17",0.0809471047259552,-0.0222832239917604,0.184177433443671,"ssf","mf.is","exp","unif",15,"ssfOUT_240_1_3_BADGER","BADGER",3,1,240,"no effect"
"ssfOUT_240_1_3_BADGER.18",0.0788095503004243,-0.0222654653776811,0.17988456597853,"ssf","mf.is","exp","unif",50,"ssfOUT_240_1_3_BADGER","BADGER",3,1,240,"no effect"
"ssfOUT_240_1_3_BADGER.19",0.0815612801354466,-0.0187826404979858,0.181905200768879,"ssf","mf.is","exp","unif",158,"ssfOUT_240_1_3_BADGER","BADGER",3,1,240,"no effect"
"ssfOUT_240_1_3_BADGER.20",0.0757560199629666,-0.0242804073708651,0.175792447296798,"ssf","mf.is","exp","unif",500,"ssfOUT_240_1_3_BADGER","BADGER",3,1,240,"no effect"
"ssfOUT_240_1_3_BADGER.21",0.0676578395450308,-0.0418761719184112,0.177191851008473,"ssf","mf.ss","gamma","vonmises",5,"ssfOUT_240_1_3_BADGER","BADGER",3,1,240,"no effect"
"ssfOUT_240_1_3_BADGER.22",0.030702044174714,-0.0726322720998747,0.134036360449303,"ssf","mf.ss","gamma","vonmises",15,"ssfOUT_240_1_3_BADGER","BADGER",3,1,240,"no effect"
"ssfOUT_240_1_3_BADGER.23",0.0684998447320462,-0.0323755421908304,0.169375231654923,"ssf","mf.ss","gamma","vonmises",50,"ssfOUT_240_1_3_BADGER","BADGER",3,1,240,"no effect"
"ssfOUT_240_1_3_BADGER.24",0.0625939235535855,-0.0377828485496872,0.162970695656858,"ssf","mf.ss","gamma","vonmises",158,"ssfOUT_240_1_3_BADGER","BADGER",3,1,240,"no effect"
"ssfOUT_240_1_3_BADGER.25",0.0718942081511403,-0.0283117424464568,0.172100158748737,"ssf","mf.ss","gamma","vonmises",500,"ssfOUT_240_1_3_BADGER","BADGER",3,1,240,"no effect"
"ssfOUT_240_1_3_BADGER.26",0.134896022599204,0.0261325499714743,0.243659495226934,"ssf","mf.ss","gamma","unif",5,"ssfOUT_240_1_3_BADGER","BADGER",3,1,240,"preference"
"ssfOUT_240_1_3_BADGER.27",0.0778085219920802,-0.0256596699535467,0.181276713937707,"ssf","mf.ss","gamma","unif",15,"ssfOUT_240_1_3_BADGER","BADGER",3,1,240,"no effect"
"ssfOUT_240_1_3_BADGER.28",0.106341903462525,0.00540996822605479,0.207273838698995,"ssf","mf.ss","gamma","unif",50,"ssfOUT_240_1_3_BADGER","BADGER",3,1,240,"preference"
"ssfOUT_240_1_3_BADGER.29",0.074951422196952,-0.0254017640313332,0.175304608425237,"ssf","mf.ss","gamma","unif",158,"ssfOUT_240_1_3_BADGER","BADGER",3,1,240,"no effect"
"ssfOUT_240_1_3_BADGER.30",0.0749331132983666,-0.0251974069487561,0.175063633545489,"ssf","mf.ss","gamma","unif",500,"ssfOUT_240_1_3_BADGER","BADGER",3,1,240,"no effect"
"ssfOUT_240_1_3_BADGER.31",0.112253106079739,0.003195043213519,0.221311168945959,"ssf","mf.ss","exp","vonmises",5,"ssfOUT_240_1_3_BADGER","BADGER",3,1,240,"preference"
"ssfOUT_240_1_3_BADGER.32",0.0835056398933384,-0.0203842442907597,0.187395524077436,"ssf","mf.ss","exp","vonmises",15,"ssfOUT_240_1_3_BADGER","BADGER",3,1,240,"no effect"
"ssfOUT_240_1_3_BADGER.33",0.0842140975308821,-0.0172119939657993,0.185640189027563,"ssf","mf.ss","exp","vonmises",50,"ssfOUT_240_1_3_BADGER","BADGER",3,1,240,"no effect"
"ssfOUT_240_1_3_BADGER.34",0.0894038375711926,-0.0111994740965917,0.190007149238977,"ssf","mf.ss","exp","vonmises",158,"ssfOUT_240_1_3_BADGER","BADGER",3,1,240,"no effect"
"ssfOUT_240_1_3_BADGER.35",0.0941659246221952,-0.00638530072859911,0.19471714997299,"ssf","mf.ss","exp","vonmises",500,"ssfOUT_240_1_3_BADGER","BADGER",3,1,240,"no effect"
"ssfOUT_240_1_3_BADGER.36",0.136068820896035,0.0270198346321922,0.245117807159879,"ssf","mf.ss","exp","unif",5,"ssfOUT_240_1_3_BADGER","BADGER",3,1,240,"preference"
"ssfOUT_240_1_3_BADGER.37",0.0950389530139486,-0.00845547110302014,0.198533377130917,"ssf","mf.ss","exp","unif",15,"ssfOUT_240_1_3_BADGER","BADGER",3,1,240,"no effect"
"ssfOUT_240_1_3_BADGER.38",0.0990531641748868,-0.00249967681176046,0.200606005161534,"ssf","mf.ss","exp","unif",50,"ssfOUT_240_1_3_BADGER","BADGER",3,1,240,"no effect"
"ssfOUT_240_1_3_BADGER.39",0.102167132161987,0.00137163588799664,0.202962628435978,"ssf","mf.ss","exp","unif",158,"ssfOUT_240_1_3_BADGER","BADGER",3,1,240,"preference"
"ssfOUT_240_1_3_BADGER.40",0.0913303699252146,-0.00917548325364399,0.191836223104073,"ssf","mf.ss","exp","unif",500,"ssfOUT_240_1_3_BADGER","BADGER",3,1,240,"no effect"
"ssfOUT_240_1_3_VULTURE.1",0.282901999447913,0.145890047813037,0.419913951082789,"ssf","mf.is","gamma","vonmises",5,"ssfOUT_240_1_3_VULTURE","VULTURE",3,1,240,"preference"
"ssfOUT_240_1_3_VULTURE.2",0.297164720708162,0.167757901221815,0.426571540194509,"ssf","mf.is","gamma","vonmises",15,"ssfOUT_240_1_3_VULTURE","VULTURE",3,1,240,"preference"
"ssfOUT_240_1_3_VULTURE.3",0.306696613138503,0.179315557771463,0.434077668505543,"ssf","mf.is","gamma","vonmises",50,"ssfOUT_240_1_3_VULTURE","VULTURE",3,1,240,"preference"
"ssfOUT_240_1_3_VULTURE.4",0.330904200501612,0.204352542308064,0.45745585869516,"ssf","mf.is","gamma","vonmises",158,"ssfOUT_240_1_3_VULTURE","VULTURE",3,1,240,"preference"
"ssfOUT_240_1_3_VULTURE.5",0.315027500756371,0.188722179698878,0.441332821813864,"ssf","mf.is","gamma","vonmises",500,"ssfOUT_240_1_3_VULTURE","VULTURE",3,1,240,"preference"
"ssfOUT_240_1_3_VULTURE.6",0.410689667405434,0.274978835236693,0.546400499574174,"ssf","mf.is","gamma","unif",5,"ssfOUT_240_1_3_VULTURE","VULTURE",3,1,240,"preference"
"ssfOUT_240_1_3_VULTURE.7",0.347769527264596,0.218442631296293,0.477096423232899,"ssf","mf.is","gamma","unif",15,"ssfOUT_240_1_3_VULTURE","VULTURE",3,1,240,"preference"
"ssfOUT_240_1_3_VULTURE.8",0.325139922547754,0.197926223200353,0.452353621895154,"ssf","mf.is","gamma","unif",50,"ssfOUT_240_1_3_VULTURE","VULTURE",3,1,240,"preference"
"ssfOUT_240_1_3_VULTURE.9",0.34368006803148,0.217303898430755,0.470056237632204,"ssf","mf.is","gamma","unif",158,"ssfOUT_240_1_3_VULTURE","VULTURE",3,1,240,"preference"
"ssfOUT_240_1_3_VULTURE.10",0.320620999399842,0.194280245566869,0.446961753232816,"ssf","mf.is","gamma","unif",500,"ssfOUT_240_1_3_VULTURE","VULTURE",3,1,240,"preference"
"ssfOUT_240_1_3_VULTURE.11",0.338067813975897,0.198755280826924,0.47738034712487,"ssf","mf.is","exp","vonmises",5,"ssfOUT_240_1_3_VULTURE","VULTURE",3,1,240,"preference"
"ssfOUT_240_1_3_VULTURE.12",0.34757123879279,0.216701362525154,0.478441115060426,"ssf","mf.is","exp","vonmises",15,"ssfOUT_240_1_3_VULTURE","VULTURE",3,1,240,"preference"
"ssfOUT_240_1_3_VULTURE.13",0.322860350941459,0.195229975534847,0.450490726348072,"ssf","mf.is","exp","vonmises",50,"ssfOUT_240_1_3_VULTURE","VULTURE",3,1,240,"preference"
"ssfOUT_240_1_3_VULTURE.14",0.333250769213425,0.206726070211561,0.45977546821529,"ssf","mf.is","exp","vonmises",158,"ssfOUT_240_1_3_VULTURE","VULTURE",3,1,240,"preference"
"ssfOUT_240_1_3_VULTURE.15",0.318947579163148,0.192635515625115,0.445259642701182,"ssf","mf.is","exp","vonmises",500,"ssfOUT_240_1_3_VULTURE","VULTURE",3,1,240,"preference"
"ssfOUT_240_1_3_VULTURE.16",0.37465962808086,0.234749434834914,0.514569821326806,"ssf","mf.is","exp","unif",5,"ssfOUT_240_1_3_VULTURE","VULTURE",3,1,240,"preference"
"ssfOUT_240_1_3_VULTURE.17",0.329914728877355,0.199458931022854,0.460370526731856,"ssf","mf.is","exp","unif",15,"ssfOUT_240_1_3_VULTURE","VULTURE",3,1,240,"preference"
"ssfOUT_240_1_3_VULTURE.18",0.323694653017828,0.196080986579411,0.451308319456244,"ssf","mf.is","exp","unif",50,"ssfOUT_240_1_3_VULTURE","VULTURE",3,1,240,"preference"
"ssfOUT_240_1_3_VULTURE.19",0.338791009967458,0.212360898454033,0.465221121480883,"ssf","mf.is","exp","unif",158,"ssfOUT_240_1_3_VULTURE","VULTURE",3,1,240,"preference"
"ssfOUT_240_1_3_VULTURE.20",0.320935295404799,0.194612916741338,0.447257674068261,"ssf","mf.is","exp","unif",500,"ssfOUT_240_1_3_VULTURE","VULTURE",3,1,240,"preference"
"ssfOUT_240_1_3_VULTURE.21",0.280236596152091,0.143210881597433,0.417262310706748,"ssf","mf.ss","gamma","vonmises",5,"ssfOUT_240_1_3_VULTURE","VULTURE",3,1,240,"preference"
"ssfOUT_240_1_3_VULTURE.22",0.294587633197412,0.1651368754235,0.424038390971324,"ssf","mf.ss","gamma","vonmises",15,"ssfOUT_240_1_3_VULTURE","VULTURE",3,1,240,"preference"
"ssfOUT_240_1_3_VULTURE.23",0.304778881373601,0.177361512440992,0.432196250306209,"ssf","mf.ss","gamma","vonmises",50,"ssfOUT_240_1_3_VULTURE","VULTURE",3,1,240,"preference"
"ssfOUT_240_1_3_VULTURE.24",0.329516242122802,0.202917775304947,0.456114708940657,"ssf","mf.ss","gamma","vonmises",158,"ssfOUT_240_1_3_VULTURE","VULTURE",3,1,240,"preference"
"ssfOUT_240_1_3_VULTURE.25",0.313505436825469,0.187157523611884,0.439853350039054,"ssf","mf.ss","gamma","vonmises",500,"ssfOUT_240_1_3_VULTURE","VULTURE",3,1,240,"preference"
"ssfOUT_240_1_3_VULTURE.26",0.409289279345605,0.273566990271614,0.545011568419596,"ssf","mf.ss","gamma","unif",5,"ssfOUT_240_1_3_VULTURE","VULTURE",3,1,240,"preference"
"ssfOUT_240_1_3_VULTURE.27",0.347405453335215,0.218044021031534,0.476766885638896,"ssf","mf.ss","gamma","unif",15,"ssfOUT_240_1_3_VULTURE","VULTURE",3,1,240,"preference"
"ssfOUT_240_1_3_VULTURE.28",0.324695765489388,0.197449624068542,0.451941906910234,"ssf","mf.ss","gamma","unif",50,"ssfOUT_240_1_3_VULTURE","VULTURE",3,1,240,"preference"
"ssfOUT_240_1_3_VULTURE.29",0.34383500277704,0.217428913139848,0.470241092414231,"ssf","mf.ss","gamma","unif",158,"ssfOUT_240_1_3_VULTURE","VULTURE",3,1,240,"preference"
"ssfOUT_240_1_3_VULTURE.30",0.320765000126693,0.194387119790711,0.447142880462675,"ssf","mf.ss","gamma","unif",500,"ssfOUT_240_1_3_VULTURE","VULTURE",3,1,240,"preference"
"ssfOUT_240_1_3_VULTURE.31",0.338152547726917,0.200821676910939,0.475483418542894,"ssf","mf.ss","exp","vonmises",5,"ssfOUT_240_1_3_VULTURE","VULTURE",3,1,240,"preference"
"ssfOUT_240_1_3_VULTURE.32",0.349971228647916,0.219673609197523,0.480268848098309,"ssf","mf.ss","exp","vonmises",15,"ssfOUT_240_1_3_VULTURE","VULTURE",3,1,240,"preference"
"ssfOUT_240_1_3_VULTURE.33",0.333048974414622,0.205122511282642,0.460975437546602,"ssf","mf.ss","exp","vonmises",50,"ssfOUT_240_1_3_VULTURE","VULTURE",3,1,240,"preference"
"ssfOUT_240_1_3_VULTURE.34",0.355656820941159,0.228532706075031,0.482780935807287,"ssf","mf.ss","exp","vonmises",158,"ssfOUT_240_1_3_VULTURE","VULTURE",3,1,240,"preference"
"ssfOUT_240_1_3_VULTURE.35",0.344750086850705,0.217749085591735,0.471751088109674,"ssf","mf.ss","exp","vonmises",500,"ssfOUT_240_1_3_VULTURE","VULTURE",3,1,240,"preference"
"ssfOUT_240_1_3_VULTURE.36",0.353834143700215,0.216594858726338,0.491073428674093,"ssf","mf.ss","exp","unif",5,"ssfOUT_240_1_3_VULTURE","VULTURE",3,1,240,"preference"
"ssfOUT_240_1_3_VULTURE.37",0.381291651450332,0.251170802444091,0.511412500456573,"ssf","mf.ss","exp","unif",15,"ssfOUT_240_1_3_VULTURE","VULTURE",3,1,240,"preference"
"ssfOUT_240_1_3_VULTURE.38",0.340604968316957,0.212623722689357,0.468586213944556,"ssf","mf.ss","exp","unif",50,"ssfOUT_240_1_3_VULTURE","VULTURE",3,1,240,"preference"
"ssfOUT_240_1_3_VULTURE.39",0.354752965782304,0.22764859349178,0.481857338072828,"ssf","mf.ss","exp","unif",158,"ssfOUT_240_1_3_VULTURE","VULTURE",3,1,240,"preference"
"ssfOUT_240_1_3_VULTURE.40",0.339049331299085,0.21210428350308,0.46599437909509,"ssf","mf.ss","exp","unif",500,"ssfOUT_240_1_3_VULTURE","VULTURE",3,1,240,"preference"
"ssfOUT_240_1_3_KINGCOBRA.1",0.308912869701834,0.0357401281937644,0.582085611209903,"ssf","mf.is","gamma","vonmises",5,"ssfOUT_240_1_3_KINGCOBRA","KINGCOBRA",3,1,240,"preference"
"ssfOUT_240_1_3_KINGCOBRA.2",0.281941742986992,0.0193653649713599,0.544518121002623,"ssf","mf.is","gamma","vonmises",15,"ssfOUT_240_1_3_KINGCOBRA","KINGCOBRA",3,1,240,"preference"
"ssfOUT_240_1_3_KINGCOBRA.3",0.335374667541929,0.0733937889650482,0.59735554611881,"ssf","mf.is","gamma","vonmises",50,"ssfOUT_240_1_3_KINGCOBRA","KINGCOBRA",3,1,240,"preference"
"ssfOUT_240_1_3_KINGCOBRA.4",0.336920250879468,0.0781751547716417,0.595665346987294,"ssf","mf.is","gamma","vonmises",158,"ssfOUT_240_1_3_KINGCOBRA","KINGCOBRA",3,1,240,"preference"
"ssfOUT_240_1_3_KINGCOBRA.5",0.362600985820471,0.105231832867584,0.619970138773358,"ssf","mf.is","gamma","vonmises",500,"ssfOUT_240_1_3_KINGCOBRA","KINGCOBRA",3,1,240,"preference"
"ssfOUT_240_1_3_KINGCOBRA.6",0.152844554508426,-0.126169383241165,0.431858492258017,"ssf","mf.is","gamma","unif",5,"ssfOUT_240_1_3_KINGCOBRA","KINGCOBRA",3,1,240,"no effect"
"ssfOUT_240_1_3_KINGCOBRA.7",0.293177781178985,0.0292113694432808,0.557144192914689,"ssf","mf.is","gamma","unif",15,"ssfOUT_240_1_3_KINGCOBRA","KINGCOBRA",3,1,240,"preference"
"ssfOUT_240_1_3_KINGCOBRA.8",0.364747850432695,0.105872231297115,0.623623469568275,"ssf","mf.is","gamma","unif",50,"ssfOUT_240_1_3_KINGCOBRA","KINGCOBRA",3,1,240,"preference"
"ssfOUT_240_1_3_KINGCOBRA.9",0.339148680652751,0.0817720098534852,0.596525351452017,"ssf","mf.is","gamma","unif",158,"ssfOUT_240_1_3_KINGCOBRA","KINGCOBRA",3,1,240,"preference"
"ssfOUT_240_1_3_KINGCOBRA.10",0.372866965650658,0.115259479138769,0.630474452162547,"ssf","mf.is","gamma","unif",500,"ssfOUT_240_1_3_KINGCOBRA","KINGCOBRA",3,1,240,"preference"
"ssfOUT_240_1_3_KINGCOBRA.11",0.152548973904298,-0.135086098753278,0.440184046561874,"ssf","mf.is","exp","vonmises",5,"ssfOUT_240_1_3_KINGCOBRA","KINGCOBRA",3,1,240,"no effect"
"ssfOUT_240_1_3_KINGCOBRA.12",0.313775904589188,0.0384540457476339,0.589097763430741,"ssf","mf.is","exp","vonmises",15,"ssfOUT_240_1_3_KINGCOBRA","KINGCOBRA",3,1,240,"preference"
"ssfOUT_240_1_3_KINGCOBRA.13",0.366934358646439,0.0999324338844836,0.633936283408395,"ssf","mf.is","exp","vonmises",50,"ssfOUT_240_1_3_KINGCOBRA","KINGCOBRA",3,1,240,"preference"
"ssfOUT_240_1_3_KINGCOBRA.14",0.306948738253143,0.0472883774771036,0.566609099029183,"ssf","mf.is","exp","vonmises",158,"ssfOUT_240_1_3_KINGCOBRA","KINGCOBRA",3,1,240,"preference"
"ssfOUT_240_1_3_KINGCOBRA.15",0.452122087652185,0.188314799477271,0.715929375827098,"ssf","mf.is","exp","vonmises",500,"ssfOUT_240_1_3_KINGCOBRA","KINGCOBRA",3,1,240,"preference"
"ssfOUT_240_1_3_KINGCOBRA.16",0.215456831470526,-0.063566165090993,0.494479828032046,"ssf","mf.is","exp","unif",5,"ssfOUT_240_1_3_KINGCOBRA","KINGCOBRA",3,1,240,"no effect"
"ssfOUT_240_1_3_KINGCOBRA.17",0.402164614744602,0.118290430883674,0.686038798605529,"ssf","mf.is","exp","unif",15,"ssfOUT_240_1_3_KINGCOBRA","KINGCOBRA",3,1,240,"preference"
"ssfOUT_240_1_3_KINGCOBRA.18",0.371995291906702,0.10603618944241,0.637954394370994,"ssf","mf.is","exp","unif",50,"ssfOUT_240_1_3_KINGCOBRA","KINGCOBRA",3,1,240,"preference"
"ssfOUT_240_1_3_KINGCOBRA.19",0.427149306147901,0.158205701277837,0.696092911017966,"ssf","mf.is","exp","unif",158,"ssfOUT_240_1_3_KINGCOBRA","KINGCOBRA",3,1,240,"preference"
"ssfOUT_240_1_3_KINGCOBRA.20",0.420893668565467,0.158182839944626,0.683604497186309,"ssf","mf.is","exp","unif",500,"ssfOUT_240_1_3_KINGCOBRA","KINGCOBRA",3,1,240,"preference"
"ssfOUT_240_1_3_KINGCOBRA.21",0.293359890119149,0.019483415790773,0.567236364447525,"ssf","mf.ss","gamma","vonmises",5,"ssfOUT_240_1_3_KINGCOBRA","KINGCOBRA",3,1,240,"preference"
"ssfOUT_240_1_3_KINGCOBRA.22",0.261346376621314,-0.00194241903516995,0.524635172277798,"ssf","mf.ss","gamma","vonmises",15,"ssfOUT_240_1_3_KINGCOBRA","KINGCOBRA",3,1,240,"no effect"
"ssfOUT_240_1_3_KINGCOBRA.23",0.323383179414605,0.0607250297967934,0.586041329032417,"ssf","mf.ss","gamma","vonmises",50,"ssfOUT_240_1_3_KINGCOBRA","KINGCOBRA",3,1,240,"preference"
"ssfOUT_240_1_3_KINGCOBRA.24",0.318593208238797,0.0591605323404062,0.578025884137187,"ssf","mf.ss","gamma","vonmises",158,"ssfOUT_240_1_3_KINGCOBRA","KINGCOBRA",3,1,240,"preference"
"ssfOUT_240_1_3_KINGCOBRA.25",0.344417805031276,0.086267315984733,0.602568294077819,"ssf","mf.ss","gamma","vonmises",500,"ssfOUT_240_1_3_KINGCOBRA","KINGCOBRA",3,1,240,"preference"
"ssfOUT_240_1_3_KINGCOBRA.26",0.129167326656929,-0.149828324730518,0.408162978044376,"ssf","mf.ss","gamma","unif",5,"ssfOUT_240_1_3_KINGCOBRA","KINGCOBRA",3,1,240,"no effect"
"ssfOUT_240_1_3_KINGCOBRA.27",0.281026921428973,0.0165246859737416,0.545529156884205,"ssf","mf.ss","gamma","unif",15,"ssfOUT_240_1_3_KINGCOBRA","KINGCOBRA",3,1,240,"preference"
"ssfOUT_240_1_3_KINGCOBRA.28",0.348384079381353,0.0887549865859765,0.608013172176729,"ssf","mf.ss","gamma","unif",50,"ssfOUT_240_1_3_KINGCOBRA","KINGCOBRA",3,1,240,"preference"
"ssfOUT_240_1_3_KINGCOBRA.29",0.325068845243469,0.0670278771944813,0.583109813292456,"ssf","mf.ss","gamma","unif",158,"ssfOUT_240_1_3_KINGCOBRA","KINGCOBRA",3,1,240,"preference"
"ssfOUT_240_1_3_KINGCOBRA.30",0.35772944281156,0.0993827907963417,0.616076094826777,"ssf","mf.ss","gamma","unif",500,"ssfOUT_240_1_3_KINGCOBRA","KINGCOBRA",3,1,240,"preference"
"ssfOUT_240_1_3_KINGCOBRA.31",0.209774796022614,-0.0660651610830816,0.48561475312831,"ssf","mf.ss","exp","vonmises",5,"ssfOUT_240_1_3_KINGCOBRA","KINGCOBRA",3,1,240,"no effect"
"ssfOUT_240_1_3_KINGCOBRA.32",0.246973840099286,-0.0134245151248269,0.507372195323398,"ssf","mf.ss","exp","vonmises",15,"ssfOUT_240_1_3_KINGCOBRA","KINGCOBRA",3,1,240,"no effect"
"ssfOUT_240_1_3_KINGCOBRA.33",0.281763263725315,0.024695879137828,0.538830648312802,"ssf","mf.ss","exp","vonmises",50,"ssfOUT_240_1_3_KINGCOBRA","KINGCOBRA",3,1,240,"preference"
"ssfOUT_240_1_3_KINGCOBRA.34",0.237024851732413,-0.0158834746492943,0.48993317811412,"ssf","mf.ss","exp","vonmises",158,"ssfOUT_240_1_3_KINGCOBRA","KINGCOBRA",3,1,240,"no effect"
"ssfOUT_240_1_3_KINGCOBRA.35",0.234392019150675,-0.0184244231144647,0.487208461415814,"ssf","mf.ss","exp","vonmises",500,"ssfOUT_240_1_3_KINGCOBRA","KINGCOBRA",3,1,240,"no effect"
"ssfOUT_240_1_3_KINGCOBRA.36",0.276514851134032,0.0013700381210659,0.551659664146998,"ssf","mf.ss","exp","unif",5,"ssfOUT_240_1_3_KINGCOBRA","KINGCOBRA",3,1,240,"preference"
"ssfOUT_240_1_3_KINGCOBRA.37",0.215146170184118,-0.0468892270202891,0.477181567388526,"ssf","mf.ss","exp","unif",15,"ssfOUT_240_1_3_KINGCOBRA","KINGCOBRA",3,1,240,"no effect"
"ssfOUT_240_1_3_KINGCOBRA.38",0.310890731445167,0.0566095305791748,0.565171932311159,"ssf","mf.ss","exp","unif",50,"ssfOUT_240_1_3_KINGCOBRA","KINGCOBRA",3,1,240,"preference"
"ssfOUT_240_1_3_KINGCOBRA.39",0.254041646347199,0.000140407241428053,0.50794288545297,"ssf","mf.ss","exp","unif",158,"ssfOUT_240_1_3_KINGCOBRA","KINGCOBRA",3,1,240,"preference"
"ssfOUT_240_1_3_KINGCOBRA.40",0.2560766215216,0.00296675726261775,0.509186485780582,"ssf","mf.ss","exp","unif",500,"ssfOUT_240_1_3_KINGCOBRA","KINGCOBRA",3,1,240,"preference"
"ssfOUT_240_1_4_BADGER.1",0.289600082684548,0.176346581121751,0.402853584247346,"ssf","mf.is","gamma","vonmises",5,"ssfOUT_240_1_4_BADGER","BADGER",4,1,240,"preference"
"ssfOUT_240_1_4_BADGER.2",0.344930397181661,0.237970626867128,0.451890167496194,"ssf","mf.is","gamma","vonmises",15,"ssfOUT_240_1_4_BADGER","BADGER",4,1,240,"preference"
"ssfOUT_240_1_4_BADGER.3",0.333896432382296,0.229056429395075,0.438736435369517,"ssf","mf.is","gamma","vonmises",50,"ssfOUT_240_1_4_BADGER","BADGER",4,1,240,"preference"
"ssfOUT_240_1_4_BADGER.4",0.352092013609999,0.247791377070963,0.456392650149034,"ssf","mf.is","gamma","vonmises",158,"ssfOUT_240_1_4_BADGER","BADGER",4,1,240,"preference"
"ssfOUT_240_1_4_BADGER.5",0.348369403526527,0.244198808954437,0.452539998098617,"ssf","mf.is","gamma","vonmises",500,"ssfOUT_240_1_4_BADGER","BADGER",4,1,240,"preference"
"ssfOUT_240_1_4_BADGER.6",0.435674516428668,0.322933696177922,0.548415336679414,"ssf","mf.is","gamma","unif",5,"ssfOUT_240_1_4_BADGER","BADGER",4,1,240,"preference"
"ssfOUT_240_1_4_BADGER.7",0.34908529155977,0.242191236067689,0.45597934705185,"ssf","mf.is","gamma","unif",15,"ssfOUT_240_1_4_BADGER","BADGER",4,1,240,"preference"
"ssfOUT_240_1_4_BADGER.8",0.35720623291534,0.252163645713715,0.462248820116966,"ssf","mf.is","gamma","unif",50,"ssfOUT_240_1_4_BADGER","BADGER",4,1,240,"preference"
"ssfOUT_240_1_4_BADGER.9",0.337255610683113,0.232884661618829,0.441626559747398,"ssf","mf.is","gamma","unif",158,"ssfOUT_240_1_4_BADGER","BADGER",4,1,240,"preference"
"ssfOUT_240_1_4_BADGER.10",0.346304241417777,0.242066837706581,0.450541645128973,"ssf","mf.is","gamma","unif",500,"ssfOUT_240_1_4_BADGER","BADGER",4,1,240,"preference"
"ssfOUT_240_1_4_BADGER.11",0.319437097055098,0.207588503192627,0.43128569091757,"ssf","mf.is","exp","vonmises",5,"ssfOUT_240_1_4_BADGER","BADGER",4,1,240,"preference"
"ssfOUT_240_1_4_BADGER.12",0.335732687406623,0.228687996323117,0.442777378490128,"ssf","mf.is","exp","vonmises",15,"ssfOUT_240_1_4_BADGER","BADGER",4,1,240,"preference"
"ssfOUT_240_1_4_BADGER.13",0.333822346270259,0.228962699464583,0.438681993075935,"ssf","mf.is","exp","vonmises",50,"ssfOUT_240_1_4_BADGER","BADGER",4,1,240,"preference"
"ssfOUT_240_1_4_BADGER.14",0.353514934099532,0.249062134768456,0.457967733430608,"ssf","mf.is","exp","vonmises",158,"ssfOUT_240_1_4_BADGER","BADGER",4,1,240,"preference"
"ssfOUT_240_1_4_BADGER.15",0.342371726767692,0.238183173356893,0.44656028017849,"ssf","mf.is","exp","vonmises",500,"ssfOUT_240_1_4_BADGER","BADGER",4,1,240,"preference"
"ssfOUT_240_1_4_BADGER.16",0.405578250808527,0.292769139938735,0.51838736167832,"ssf","mf.is","exp","unif",5,"ssfOUT_240_1_4_BADGER","BADGER",4,1,240,"preference"
"ssfOUT_240_1_4_BADGER.17",0.319498060204493,0.211346493509579,0.427649626899407,"ssf","mf.is","exp","unif",15,"ssfOUT_240_1_4_BADGER","BADGER",4,1,240,"preference"
"ssfOUT_240_1_4_BADGER.18",0.331198862435061,0.226251541160143,0.436146183709979,"ssf","mf.is","exp","unif",50,"ssfOUT_240_1_4_BADGER","BADGER",4,1,240,"preference"
"ssfOUT_240_1_4_BADGER.19",0.352914762224434,0.248531327393652,0.457298197055217,"ssf","mf.is","exp","unif",158,"ssfOUT_240_1_4_BADGER","BADGER",4,1,240,"preference"
"ssfOUT_240_1_4_BADGER.20",0.356522886556468,0.252362462195366,0.460683310917571,"ssf","mf.is","exp","unif",500,"ssfOUT_240_1_4_BADGER","BADGER",4,1,240,"preference"
"ssfOUT_240_1_4_BADGER.21",0.286185374964936,0.17283457114458,0.399536178785292,"ssf","mf.ss","gamma","vonmises",5,"ssfOUT_240_1_4_BADGER","BADGER",4,1,240,"preference"
"ssfOUT_240_1_4_BADGER.22",0.341851141923542,0.234765541643952,0.448936742203132,"ssf","mf.ss","gamma","vonmises",15,"ssfOUT_240_1_4_BADGER","BADGER",4,1,240,"preference"
"ssfOUT_240_1_4_BADGER.23",0.33154468084228,0.226612152090193,0.436477209594368,"ssf","mf.ss","gamma","vonmises",50,"ssfOUT_240_1_4_BADGER","BADGER",4,1,240,"preference"
"ssfOUT_240_1_4_BADGER.24",0.350045378761811,0.245628633437762,0.45446212408586,"ssf","mf.ss","gamma","vonmises",158,"ssfOUT_240_1_4_BADGER","BADGER",4,1,240,"preference"
"ssfOUT_240_1_4_BADGER.25",0.346635800800288,0.242355034310026,0.450916567290549,"ssf","mf.ss","gamma","vonmises",500,"ssfOUT_240_1_4_BADGER","BADGER",4,1,240,"preference"
"ssfOUT_240_1_4_BADGER.26",0.43711084900407,0.324247976477912,0.549973721530227,"ssf","mf.ss","gamma","unif",5,"ssfOUT_240_1_4_BADGER","BADGER",4,1,240,"preference"
"ssfOUT_240_1_4_BADGER.27",0.350236472902206,0.243207459600252,0.45726548620416,"ssf","mf.ss","gamma","unif",15,"ssfOUT_240_1_4_BADGER","BADGER",4,1,240,"preference"
"ssfOUT_240_1_4_BADGER.28",0.357944303451798,0.252790895434946,0.463097711468651,"ssf","mf.ss","gamma","unif",50,"ssfOUT_240_1_4_BADGER","BADGER",4,1,240,"preference"
"ssfOUT_240_1_4_BADGER.29",0.339927828715721,0.235446653519851,0.44440900391159,"ssf","mf.ss","gamma","unif",158,"ssfOUT_240_1_4_BADGER","BADGER",4,1,240,"preference"
"ssfOUT_240_1_4_BADGER.30",0.348426802853049,0.244071138759938,0.452782466946161,"ssf","mf.ss","gamma","unif",500,"ssfOUT_240_1_4_BADGER","BADGER",4,1,240,"preference"
"ssfOUT_240_1_4_BADGER.31",0.310246276951054,0.198345398218861,0.422147155683247,"ssf","mf.ss","exp","vonmises",5,"ssfOUT_240_1_4_BADGER","BADGER",4,1,240,"preference"
"ssfOUT_240_1_4_BADGER.32",0.33260390763356,0.225337913157634,0.439869902109487,"ssf","mf.ss","exp","vonmises",15,"ssfOUT_240_1_4_BADGER","BADGER",4,1,240,"preference"
"ssfOUT_240_1_4_BADGER.33",0.330448486385008,0.225360690713533,0.435536282056484,"ssf","mf.ss","exp","vonmises",50,"ssfOUT_240_1_4_BADGER","BADGER",4,1,240,"preference"
"ssfOUT_240_1_4_BADGER.34",0.352455058092428,0.247735121784578,0.457174994400278,"ssf","mf.ss","exp","vonmises",158,"ssfOUT_240_1_4_BADGER","BADGER",4,1,240,"preference"
"ssfOUT_240_1_4_BADGER.35",0.340421654386591,0.235966823634709,0.444876485138472,"ssf","mf.ss","exp","vonmises",500,"ssfOUT_240_1_4_BADGER","BADGER",4,1,240,"preference"
"ssfOUT_240_1_4_BADGER.36",0.399573235207373,0.286722390964144,0.512424079450602,"ssf","mf.ss","exp","unif",5,"ssfOUT_240_1_4_BADGER","BADGER",4,1,240,"preference"
"ssfOUT_240_1_4_BADGER.37",0.315518723805923,0.207095642305594,0.423941805306252,"ssf","mf.ss","exp","unif",15,"ssfOUT_240_1_4_BADGER","BADGER",4,1,240,"preference"
"ssfOUT_240_1_4_BADGER.38",0.332426301415715,0.227228358462883,0.437624244368547,"ssf","mf.ss","exp","unif",50,"ssfOUT_240_1_4_BADGER","BADGER",4,1,240,"preference"
"ssfOUT_240_1_4_BADGER.39",0.354348017056215,0.249698700736331,0.458997333376099,"ssf","mf.ss","exp","unif",158,"ssfOUT_240_1_4_BADGER","BADGER",4,1,240,"preference"
"ssfOUT_240_1_4_BADGER.40",0.358547569027122,0.254116442729068,0.462978695325176,"ssf","mf.ss","exp","unif",500,"ssfOUT_240_1_4_BADGER","BADGER",4,1,240,"preference"
"ssfOUT_240_1_4_VULTURE.1",0.232429233726197,0.120584160309533,0.34427430714286,"ssf","mf.is","gamma","vonmises",5,"ssfOUT_240_1_4_VULTURE","VULTURE",4,1,240,"preference"
"ssfOUT_240_1_4_VULTURE.2",0.210668023850962,0.104578477909981,0.316757569791943,"ssf","mf.is","gamma","vonmises",15,"ssfOUT_240_1_4_VULTURE","VULTURE",4,1,240,"preference"
"ssfOUT_240_1_4_VULTURE.3",0.214105846595063,0.110230404696576,0.317981288493549,"ssf","mf.is","gamma","vonmises",50,"ssfOUT_240_1_4_VULTURE","VULTURE",4,1,240,"preference"
"ssfOUT_240_1_4_VULTURE.4",0.235009977605833,0.131689983110303,0.338329972101364,"ssf","mf.is","gamma","vonmises",158,"ssfOUT_240_1_4_VULTURE","VULTURE",4,1,240,"preference"
"ssfOUT_240_1_4_VULTURE.5",0.212528463871763,0.109320989528726,0.315735938214801,"ssf","mf.is","gamma","vonmises",500,"ssfOUT_240_1_4_VULTURE","VULTURE",4,1,240,"preference"
"ssfOUT_240_1_4_VULTURE.6",0.141619436406312,0.0294316418245859,0.253807230988038,"ssf","mf.is","gamma","unif",5,"ssfOUT_240_1_4_VULTURE","VULTURE",4,1,240,"preference"
"ssfOUT_240_1_4_VULTURE.7",0.246352610846958,0.140470060952768,0.352235160741148,"ssf","mf.is","gamma","unif",15,"ssfOUT_240_1_4_VULTURE","VULTURE",4,1,240,"preference"
"ssfOUT_240_1_4_VULTURE.8",0.211900925754672,0.108049973085428,0.315751878423917,"ssf","mf.is","gamma","unif",50,"ssfOUT_240_1_4_VULTURE","VULTURE",4,1,240,"preference"
"ssfOUT_240_1_4_VULTURE.9",0.242766959748096,0.139344789865833,0.346189129630359,"ssf","mf.is","gamma","unif",158,"ssfOUT_240_1_4_VULTURE","VULTURE",4,1,240,"preference"
"ssfOUT_240_1_4_VULTURE.10",0.225071576113999,0.121874926244587,0.328268225983411,"ssf","mf.is","gamma","unif",500,"ssfOUT_240_1_4_VULTURE","VULTURE",4,1,240,"preference"
"ssfOUT_240_1_4_VULTURE.11",0.179204283788067,0.0644222155403311,0.293986352035803,"ssf","mf.is","exp","vonmises",5,"ssfOUT_240_1_4_VULTURE","VULTURE",4,1,240,"preference"
"ssfOUT_240_1_4_VULTURE.12",0.254796073168,0.147393648530626,0.362198497805374,"ssf","mf.is","exp","vonmises",15,"ssfOUT_240_1_4_VULTURE","VULTURE",4,1,240,"preference"
"ssfOUT_240_1_4_VULTURE.13",0.220822825921966,0.116570419829373,0.32507523201456,"ssf","mf.is","exp","vonmises",50,"ssfOUT_240_1_4_VULTURE","VULTURE",4,1,240,"preference"
"ssfOUT_240_1_4_VULTURE.14",0.209012047965175,0.105523486356908,0.312500609573442,"ssf","mf.is","exp","vonmises",158,"ssfOUT_240_1_4_VULTURE","VULTURE",4,1,240,"preference"
"ssfOUT_240_1_4_VULTURE.15",0.228975678421224,0.125721015996764,0.332230340845684,"ssf","mf.is","exp","vonmises",500,"ssfOUT_240_1_4_VULTURE","VULTURE",4,1,240,"preference"
"ssfOUT_240_1_4_VULTURE.16",0.243039924081518,0.128096118946779,0.357983729216256,"ssf","mf.is","exp","unif",5,"ssfOUT_240_1_4_VULTURE","VULTURE",4,1,240,"preference"
"ssfOUT_240_1_4_VULTURE.17",0.248488734419007,0.141628380821452,0.355349088016562,"ssf","mf.is","exp","unif",15,"ssfOUT_240_1_4_VULTURE","VULTURE",4,1,240,"preference"
"ssfOUT_240_1_4_VULTURE.18",0.202989162464886,0.0986200687569105,0.307358256172861,"ssf","mf.is","exp","unif",50,"ssfOUT_240_1_4_VULTURE","VULTURE",4,1,240,"preference"
"ssfOUT_240_1_4_VULTURE.19",0.215206868242554,0.111762028757501,0.318651707727606,"ssf","mf.is","exp","unif",158,"ssfOUT_240_1_4_VULTURE","VULTURE",4,1,240,"preference"
"ssfOUT_240_1_4_VULTURE.20",0.223808562804824,0.120612252644083,0.327004872965566,"ssf","mf.is","exp","unif",500,"ssfOUT_240_1_4_VULTURE","VULTURE",4,1,240,"preference"
"ssfOUT_240_1_4_VULTURE.21",0.233587671028093,0.121728379850832,0.345446962205354,"ssf","mf.ss","gamma","vonmises",5,"ssfOUT_240_1_4_VULTURE","VULTURE",4,1,240,"preference"
"ssfOUT_240_1_4_VULTURE.22",0.210549008164188,0.104455810808695,0.316642205519682,"ssf","mf.ss","gamma","vonmises",15,"ssfOUT_240_1_4_VULTURE","VULTURE",4,1,240,"preference"
"ssfOUT_240_1_4_VULTURE.23",0.213773627789156,0.10988741495089,0.317659840627422,"ssf","mf.ss","gamma","vonmises",50,"ssfOUT_240_1_4_VULTURE","VULTURE",4,1,240,"preference"
"ssfOUT_240_1_4_VULTURE.24",0.234323709831679,0.13099902274838,0.337648396914979,"ssf","mf.ss","gamma","vonmises",158,"ssfOUT_240_1_4_VULTURE","VULTURE",4,1,240,"preference"
"ssfOUT_240_1_4_VULTURE.25",0.211827836747629,0.108614312496348,0.315041360998911,"ssf","mf.ss","gamma","vonmises",500,"ssfOUT_240_1_4_VULTURE","VULTURE",4,1,240,"preference"
"ssfOUT_240_1_4_VULTURE.26",0.146463931710556,0.0346022145175714,0.25832564890354,"ssf","mf.ss","gamma","unif",5,"ssfOUT_240_1_4_VULTURE","VULTURE",4,1,240,"preference"
"ssfOUT_240_1_4_VULTURE.27",0.247975588632091,0.142236905452488,0.353714271811693,"ssf","mf.ss","gamma","unif",15,"ssfOUT_240_1_4_VULTURE","VULTURE",4,1,240,"preference"
"ssfOUT_240_1_4_VULTURE.28",0.21510965534787,0.111348213751611,0.318871096944129,"ssf","mf.ss","gamma","unif",50,"ssfOUT_240_1_4_VULTURE","VULTURE",4,1,240,"preference"
"ssfOUT_240_1_4_VULTURE.29",0.24648855657821,0.143121273204386,0.349855839952033,"ssf","mf.ss","gamma","unif",158,"ssfOUT_240_1_4_VULTURE","VULTURE",4,1,240,"preference"
"ssfOUT_240_1_4_VULTURE.30",0.229622277250371,0.126471420118788,0.332773134381954,"ssf","mf.ss","gamma","unif",500,"ssfOUT_240_1_4_VULTURE","VULTURE",4,1,240,"preference"
"ssfOUT_240_1_4_VULTURE.31",0.205394276636509,0.093639608922154,0.317148944350864,"ssf","mf.ss","exp","vonmises",5,"ssfOUT_240_1_4_VULTURE","VULTURE",4,1,240,"preference"
"ssfOUT_240_1_4_VULTURE.32",0.272923868634984,0.165558347815127,0.380289389454841,"ssf","mf.ss","exp","vonmises",15,"ssfOUT_240_1_4_VULTURE","VULTURE",4,1,240,"preference"
"ssfOUT_240_1_4_VULTURE.33",0.261484703250177,0.156733647708249,0.366235758792106,"ssf","mf.ss","exp","vonmises",50,"ssfOUT_240_1_4_VULTURE","VULTURE",4,1,240,"preference"
"ssfOUT_240_1_4_VULTURE.34",0.251691023131466,0.147454199270905,0.355927846992026,"ssf","mf.ss","exp","vonmises",158,"ssfOUT_240_1_4_VULTURE","VULTURE",4,1,240,"preference"
"ssfOUT_240_1_4_VULTURE.35",0.268089052392527,0.164018328612017,0.372159776173038,"ssf","mf.ss","exp","vonmises",500,"ssfOUT_240_1_4_VULTURE","VULTURE",4,1,240,"preference"
"ssfOUT_240_1_4_VULTURE.36",0.262103944858173,0.150291565383315,0.373916324333031,"ssf","mf.ss","exp","unif",5,"ssfOUT_240_1_4_VULTURE","VULTURE",4,1,240,"preference"
"ssfOUT_240_1_4_VULTURE.37",0.280480852037957,0.174035498863341,0.386926205212574,"ssf","mf.ss","exp","unif",15,"ssfOUT_240_1_4_VULTURE","VULTURE",4,1,240,"preference"
"ssfOUT_240_1_4_VULTURE.38",0.262662126805946,0.157797199823736,0.367527053788156,"ssf","mf.ss","exp","unif",50,"ssfOUT_240_1_4_VULTURE","VULTURE",4,1,240,"preference"
"ssfOUT_240_1_4_VULTURE.39",0.26218663488934,0.1580483281952,0.36632494158348,"ssf","mf.ss","exp","unif",158,"ssfOUT_240_1_4_VULTURE","VULTURE",4,1,240,"preference"
"ssfOUT_240_1_4_VULTURE.40",0.27215528382334,0.168140253723435,0.376170313923244,"ssf","mf.ss","exp","unif",500,"ssfOUT_240_1_4_VULTURE","VULTURE",4,1,240,"preference"
"ssfOUT_240_1_4_KINGCOBRA.1",0.465354525996255,0.274280606732753,0.656428445259758,"ssf","mf.is","gamma","vonmises",5,"ssfOUT_240_1_4_KINGCOBRA","KINGCOBRA",4,1,240,"preference"
"ssfOUT_240_1_4_KINGCOBRA.2",0.39244429262024,0.21023026459423,0.574658320646251,"ssf","mf.is","gamma","vonmises",15,"ssfOUT_240_1_4_KINGCOBRA","KINGCOBRA",4,1,240,"preference"
"ssfOUT_240_1_4_KINGCOBRA.3",0.406243313845118,0.22604333859097,0.586443289099265,"ssf","mf.is","gamma","vonmises",50,"ssfOUT_240_1_4_KINGCOBRA","KINGCOBRA",4,1,240,"preference"
"ssfOUT_240_1_4_KINGCOBRA.4",0.436070533471191,0.256418298425517,0.615722768516866,"ssf","mf.is","gamma","vonmises",158,"ssfOUT_240_1_4_KINGCOBRA","KINGCOBRA",4,1,240,"preference"
"ssfOUT_240_1_4_KINGCOBRA.5",0.444544167672833,0.265132101421421,0.623956233924246,"ssf","mf.is","gamma","vonmises",500,"ssfOUT_240_1_4_KINGCOBRA","KINGCOBRA",4,1,240,"preference"
"ssfOUT_240_1_4_KINGCOBRA.6",0.469907006292483,0.282475153682683,0.657338858902283,"ssf","mf.is","gamma","unif",5,"ssfOUT_240_1_4_KINGCOBRA","KINGCOBRA",4,1,240,"preference"
"ssfOUT_240_1_4_KINGCOBRA.7",0.454159177868414,0.271695895769428,0.636622459967401,"ssf","mf.is","gamma","unif",15,"ssfOUT_240_1_4_KINGCOBRA","KINGCOBRA",4,1,240,"preference"
"ssfOUT_240_1_4_KINGCOBRA.8",0.433833716486544,0.253202287269857,0.61446514570323,"ssf","mf.is","gamma","unif",50,"ssfOUT_240_1_4_KINGCOBRA","KINGCOBRA",4,1,240,"preference"
"ssfOUT_240_1_4_KINGCOBRA.9",0.421066510947548,0.241502326311922,0.600630695583174,"ssf","mf.is","gamma","unif",158,"ssfOUT_240_1_4_KINGCOBRA","KINGCOBRA",4,1,240,"preference"
"ssfOUT_240_1_4_KINGCOBRA.10",0.430832903073022,0.251261192516649,0.610404613629395,"ssf","mf.is","gamma","unif",500,"ssfOUT_240_1_4_KINGCOBRA","KINGCOBRA",4,1,240,"preference"
"ssfOUT_240_1_4_KINGCOBRA.11",0.391043198530566,0.200467041198443,0.581619355862688,"ssf","mf.is","exp","vonmises",5,"ssfOUT_240_1_4_KINGCOBRA","KINGCOBRA",4,1,240,"preference"
"ssfOUT_240_1_4_KINGCOBRA.12",0.455811728619615,0.270269547672925,0.641353909566305,"ssf","mf.is","exp","vonmises",15,"ssfOUT_240_1_4_KINGCOBRA","KINGCOBRA",4,1,240,"preference"
"ssfOUT_240_1_4_KINGCOBRA.13",0.445104759321957,0.26166954124984,0.628539977394075,"ssf","mf.is","exp","vonmises",50,"ssfOUT_240_1_4_KINGCOBRA","KINGCOBRA",4,1,240,"preference"
"ssfOUT_240_1_4_KINGCOBRA.14",0.431004038468975,0.250655448956412,0.611352627981537,"ssf","mf.is","exp","vonmises",158,"ssfOUT_240_1_4_KINGCOBRA","KINGCOBRA",4,1,240,"preference"
"ssfOUT_240_1_4_KINGCOBRA.15",0.444437651394198,0.263599586799945,0.625275715988451,"ssf","mf.is","exp","vonmises",500,"ssfOUT_240_1_4_KINGCOBRA","KINGCOBRA",4,1,240,"preference"
"ssfOUT_240_1_4_KINGCOBRA.16",0.409441437962344,0.213777543985723,0.605105331938965,"ssf","mf.is","exp","unif",5,"ssfOUT_240_1_4_KINGCOBRA","KINGCOBRA",4,1,240,"preference"
"ssfOUT_240_1_4_KINGCOBRA.17",0.443006382867378,0.257301158462299,0.628711607272456,"ssf","mf.is","exp","unif",15,"ssfOUT_240_1_4_KINGCOBRA","KINGCOBRA",4,1,240,"preference"
"ssfOUT_240_1_4_KINGCOBRA.18",0.443533103157962,0.261052760928207,0.626013445387717,"ssf","mf.is","exp","unif",50,"ssfOUT_240_1_4_KINGCOBRA","KINGCOBRA",4,1,240,"preference"
"ssfOUT_240_1_4_KINGCOBRA.19",0.418578548438087,0.2382627255033,0.598894371372874,"ssf","mf.is","exp","unif",158,"ssfOUT_240_1_4_KINGCOBRA","KINGCOBRA",4,1,240,"preference"
"ssfOUT_240_1_4_KINGCOBRA.20",0.439613298451091,0.258955432065981,0.620271164836201,"ssf","mf.is","exp","unif",500,"ssfOUT_240_1_4_KINGCOBRA","KINGCOBRA",4,1,240,"preference"
"ssfOUT_240_1_4_KINGCOBRA.21",0.446696171314882,0.255569058019966,0.637823284609797,"ssf","mf.ss","gamma","vonmises",5,"ssfOUT_240_1_4_KINGCOBRA","KINGCOBRA",4,1,240,"preference"
"ssfOUT_240_1_4_KINGCOBRA.22",0.384047014774903,0.202110475417515,0.56598355413229,"ssf","mf.ss","gamma","vonmises",15,"ssfOUT_240_1_4_KINGCOBRA","KINGCOBRA",4,1,240,"preference"
"ssfOUT_240_1_4_KINGCOBRA.23",0.402086830946271,0.222216402022241,0.581957259870301,"ssf","mf.ss","gamma","vonmises",50,"ssfOUT_240_1_4_KINGCOBRA","KINGCOBRA",4,1,240,"preference"
"ssfOUT_240_1_4_KINGCOBRA.24",0.431120388721219,0.25170020708031,0.610540570362127,"ssf","mf.ss","gamma","vonmises",158,"ssfOUT_240_1_4_KINGCOBRA","KINGCOBRA",4,1,240,"preference"
"ssfOUT_240_1_4_KINGCOBRA.25",0.438519911902359,0.259313733559568,0.61772609024515,"ssf","mf.ss","gamma","vonmises",500,"ssfOUT_240_1_4_KINGCOBRA","KINGCOBRA",4,1,240,"preference"
"ssfOUT_240_1_4_KINGCOBRA.26",0.463613140231443,0.276586507108816,0.650639773354071,"ssf","mf.ss","gamma","unif",5,"ssfOUT_240_1_4_KINGCOBRA","KINGCOBRA",4,1,240,"preference"
"ssfOUT_240_1_4_KINGCOBRA.27",0.448268943041565,0.266135721899034,0.630402164184095,"ssf","mf.ss","gamma","unif",15,"ssfOUT_240_1_4_KINGCOBRA","KINGCOBRA",4,1,240,"preference"
"ssfOUT_240_1_4_KINGCOBRA.28",0.431499850128531,0.251152609965819,0.611847090291242,"ssf","mf.ss","gamma","unif",50,"ssfOUT_240_1_4_KINGCOBRA","KINGCOBRA",4,1,240,"preference"
"ssfOUT_240_1_4_KINGCOBRA.29",0.417264830400463,0.237922134387829,0.596607526413097,"ssf","mf.ss","gamma","unif",158,"ssfOUT_240_1_4_KINGCOBRA","KINGCOBRA",4,1,240,"preference"
"ssfOUT_240_1_4_KINGCOBRA.30",0.42699834601194,0.24764035791611,0.60635633410777,"ssf","mf.ss","gamma","unif",500,"ssfOUT_240_1_4_KINGCOBRA","KINGCOBRA",4,1,240,"preference"
"ssfOUT_240_1_4_KINGCOBRA.31",0.370112670734149,0.183329733389676,0.556895608078621,"ssf","mf.ss","exp","vonmises",5,"ssfOUT_240_1_4_KINGCOBRA","KINGCOBRA",4,1,240,"preference"
"ssfOUT_240_1_4_KINGCOBRA.32",0.341754162745545,0.161220718721937,0.522287606769154,"ssf","mf.ss","exp","vonmises",15,"ssfOUT_240_1_4_KINGCOBRA","KINGCOBRA",4,1,240,"preference"
"ssfOUT_240_1_4_KINGCOBRA.33",0.331156492932685,0.153955136801366,0.508357849064005,"ssf","mf.ss","exp","vonmises",50,"ssfOUT_240_1_4_KINGCOBRA","KINGCOBRA",4,1,240,"preference"
"ssfOUT_240_1_4_KINGCOBRA.34",0.348856956157606,0.172556188809616,0.525157723505595,"ssf","mf.ss","exp","vonmises",158,"ssfOUT_240_1_4_KINGCOBRA","KINGCOBRA",4,1,240,"preference"
"ssfOUT_240_1_4_KINGCOBRA.35",0.355624529777606,0.179510327025311,0.5317387325299,"ssf","mf.ss","exp","vonmises",500,"ssfOUT_240_1_4_KINGCOBRA","KINGCOBRA",4,1,240,"preference"
"ssfOUT_240_1_4_KINGCOBRA.36",0.313450227621118,0.126014641279402,0.500885813962833,"ssf","mf.ss","exp","unif",5,"ssfOUT_240_1_4_KINGCOBRA","KINGCOBRA",4,1,240,"preference"
"ssfOUT_240_1_4_KINGCOBRA.37",0.336640201882316,0.156841597217064,0.516438806547568,"ssf","mf.ss","exp","unif",15,"ssfOUT_240_1_4_KINGCOBRA","KINGCOBRA",4,1,240,"preference"
"ssfOUT_240_1_4_KINGCOBRA.38",0.365131346121531,0.187803663271572,0.54245902897149,"ssf","mf.ss","exp","unif",50,"ssfOUT_240_1_4_KINGCOBRA","KINGCOBRA",4,1,240,"preference"
"ssfOUT_240_1_4_KINGCOBRA.39",0.354441394979671,0.178074211321349,0.530808578637994,"ssf","mf.ss","exp","unif",158,"ssfOUT_240_1_4_KINGCOBRA","KINGCOBRA",4,1,240,"preference"
"ssfOUT_240_1_4_KINGCOBRA.40",0.368781225139951,0.192459010466225,0.545103439813677,"ssf","mf.ss","exp","unif",500,"ssfOUT_240_1_4_KINGCOBRA","KINGCOBRA",4,1,240,"preference"
"ssfOUT_240_2_1_BADGER.1",0.608223212454773,0.392306994234413,0.824139430675134,"ssf","mf.is","gamma","vonmises",5,"ssfOUT_240_2_1_BADGER","BADGER",1,0.5,240,"preference"
"ssfOUT_240_2_1_BADGER.2",0.525215551168515,0.319588051382532,0.730843050954498,"ssf","mf.is","gamma","vonmises",15,"ssfOUT_240_2_1_BADGER","BADGER",1,0.5,240,"preference"
"ssfOUT_240_2_1_BADGER.3",0.576969371748847,0.374584189658214,0.77935455383948,"ssf","mf.is","gamma","vonmises",50,"ssfOUT_240_2_1_BADGER","BADGER",1,0.5,240,"preference"
"ssfOUT_240_2_1_BADGER.4",0.549085806592762,0.347980365283719,0.750191247901804,"ssf","mf.is","gamma","vonmises",158,"ssfOUT_240_2_1_BADGER","BADGER",1,0.5,240,"preference"
"ssfOUT_240_2_1_BADGER.5",0.577270670952086,0.376360640496192,0.77818070140798,"ssf","mf.is","gamma","vonmises",500,"ssfOUT_240_2_1_BADGER","BADGER",1,0.5,240,"preference"
"ssfOUT_240_2_1_BADGER.6",0.54582414179835,0.331804065974,0.759844217622699,"ssf","mf.is","gamma","unif",5,"ssfOUT_240_2_1_BADGER","BADGER",1,0.5,240,"preference"
"ssfOUT_240_2_1_BADGER.7",0.54881335799828,0.343560535743645,0.754066180252914,"ssf","mf.is","gamma","unif",15,"ssfOUT_240_2_1_BADGER","BADGER",1,0.5,240,"preference"
"ssfOUT_240_2_1_BADGER.8",0.571980909371503,0.370268450698273,0.773693368044733,"ssf","mf.is","gamma","unif",50,"ssfOUT_240_2_1_BADGER","BADGER",1,0.5,240,"preference"
"ssfOUT_240_2_1_BADGER.9",0.556219532241217,0.354947662229521,0.757491402252914,"ssf","mf.is","gamma","unif",158,"ssfOUT_240_2_1_BADGER","BADGER",1,0.5,240,"preference"
"ssfOUT_240_2_1_BADGER.10",0.567949357018106,0.366844212765124,0.769054501271088,"ssf","mf.is","gamma","unif",500,"ssfOUT_240_2_1_BADGER","BADGER",1,0.5,240,"preference"
"ssfOUT_240_2_1_BADGER.11",0.472284968540148,0.256859312280768,0.687710624799529,"ssf","mf.is","exp","vonmises",5,"ssfOUT_240_2_1_BADGER","BADGER",1,0.5,240,"preference"
"ssfOUT_240_2_1_BADGER.12",0.628398142946537,0.423840867093204,0.83295541879987,"ssf","mf.is","exp","vonmises",15,"ssfOUT_240_2_1_BADGER","BADGER",1,0.5,240,"preference"
"ssfOUT_240_2_1_BADGER.13",0.560139779985134,0.357871282811624,0.762408277158644,"ssf","mf.is","exp","vonmises",50,"ssfOUT_240_2_1_BADGER","BADGER",1,0.5,240,"preference"
"ssfOUT_240_2_1_BADGER.14",0.591237712038335,0.389873080809333,0.792602343267337,"ssf","mf.is","exp","vonmises",158,"ssfOUT_240_2_1_BADGER","BADGER",1,0.5,240,"preference"
"ssfOUT_240_2_1_BADGER.15",0.562933570158632,0.362050356063731,0.763816784253533,"ssf","mf.is","exp","vonmises",500,"ssfOUT_240_2_1_BADGER","BADGER",1,0.5,240,"preference"
"ssfOUT_240_2_1_BADGER.16",0.651449409624304,0.436374977996708,0.8665238412519,"ssf","mf.is","exp","unif",5,"ssfOUT_240_2_1_BADGER","BADGER",1,0.5,240,"preference"
"ssfOUT_240_2_1_BADGER.17",0.618854721212258,0.413269414705192,0.824440027719325,"ssf","mf.is","exp","unif",15,"ssfOUT_240_2_1_BADGER","BADGER",1,0.5,240,"preference"
"ssfOUT_240_2_1_BADGER.18",0.560878310196841,0.358742728637455,0.763013891756226,"ssf","mf.is","exp","unif",50,"ssfOUT_240_2_1_BADGER","BADGER",1,0.5,240,"preference"
"ssfOUT_240_2_1_BADGER.19",0.56445043288985,0.363084002857135,0.765816862922566,"ssf","mf.is","exp","unif",158,"ssfOUT_240_2_1_BADGER","BADGER",1,0.5,240,"preference"
"ssfOUT_240_2_1_BADGER.20",0.580515023724615,0.379540426234025,0.781489621215205,"ssf","mf.is","exp","unif",500,"ssfOUT_240_2_1_BADGER","BADGER",1,0.5,240,"preference"
"ssfOUT_240_2_1_BADGER.21",0.595561866705724,0.379627078298571,0.811496655112877,"ssf","mf.ss","gamma","vonmises",5,"ssfOUT_240_2_1_BADGER","BADGER",1,0.5,240,"preference"
"ssfOUT_240_2_1_BADGER.22",0.512432098912166,0.306868820058217,0.717995377766115,"ssf","mf.ss","gamma","vonmises",15,"ssfOUT_240_2_1_BADGER","BADGER",1,0.5,240,"preference"
"ssfOUT_240_2_1_BADGER.23",0.562225451739157,0.359972241227105,0.76447866225121,"ssf","mf.ss","gamma","vonmises",50,"ssfOUT_240_2_1_BADGER","BADGER",1,0.5,240,"preference"
"ssfOUT_240_2_1_BADGER.24",0.537559152356486,0.336521426876007,0.738596877836966,"ssf","mf.ss","gamma","vonmises",158,"ssfOUT_240_2_1_BADGER","BADGER",1,0.5,240,"preference"
"ssfOUT_240_2_1_BADGER.25",0.564291686066722,0.363426685333051,0.765156686800394,"ssf","mf.ss","gamma","vonmises",500,"ssfOUT_240_2_1_BADGER","BADGER",1,0.5,240,"preference"
"ssfOUT_240_2_1_BADGER.26",0.542418254833451,0.328316083278185,0.756520426388717,"ssf","mf.ss","gamma","unif",5,"ssfOUT_240_2_1_BADGER","BADGER",1,0.5,240,"preference"
"ssfOUT_240_2_1_BADGER.27",0.539170250596928,0.333895967580011,0.744444533613845,"ssf","mf.ss","gamma","unif",15,"ssfOUT_240_2_1_BADGER","BADGER",1,0.5,240,"preference"
"ssfOUT_240_2_1_BADGER.28",0.56295171807415,0.361257006283196,0.764646429865104,"ssf","mf.ss","gamma","unif",50,"ssfOUT_240_2_1_BADGER","BADGER",1,0.5,240,"preference"
"ssfOUT_240_2_1_BADGER.29",0.548026085994288,0.346810051623684,0.749242120364892,"ssf","mf.ss","gamma","unif",158,"ssfOUT_240_2_1_BADGER","BADGER",1,0.5,240,"preference"
"ssfOUT_240_2_1_BADGER.30",0.559692989241933,0.358639601054202,0.760746377429663,"ssf","mf.ss","gamma","unif",500,"ssfOUT_240_2_1_BADGER","BADGER",1,0.5,240,"preference"
"ssfOUT_240_2_1_BADGER.31",0.466547062343964,0.251466435883284,0.681627688804643,"ssf","mf.ss","exp","vonmises",5,"ssfOUT_240_2_1_BADGER","BADGER",1,0.5,240,"preference"
"ssfOUT_240_2_1_BADGER.32",0.613139113386064,0.408603368902849,0.817674857869279,"ssf","mf.ss","exp","vonmises",15,"ssfOUT_240_2_1_BADGER","BADGER",1,0.5,240,"preference"
"ssfOUT_240_2_1_BADGER.33",0.545513423447179,0.343146589217136,0.747880257677222,"ssf","mf.ss","exp","vonmises",50,"ssfOUT_240_2_1_BADGER","BADGER",1,0.5,240,"preference"
"ssfOUT_240_2_1_BADGER.34",0.577617421877388,0.376237522298171,0.778997321456604,"ssf","mf.ss","exp","vonmises",158,"ssfOUT_240_2_1_BADGER","BADGER",1,0.5,240,"preference"
"ssfOUT_240_2_1_BADGER.35",0.550630199672074,0.349716833392821,0.751543565951327,"ssf","mf.ss","exp","vonmises",500,"ssfOUT_240_2_1_BADGER","BADGER",1,0.5,240,"preference"
"ssfOUT_240_2_1_BADGER.36",0.641960051255376,0.426886167860412,0.857033934650341,"ssf","mf.ss","exp","unif",5,"ssfOUT_240_2_1_BADGER","BADGER",1,0.5,240,"preference"
"ssfOUT_240_2_1_BADGER.37",0.614419180259659,0.40877876683304,0.820059593686278,"ssf","mf.ss","exp","unif",15,"ssfOUT_240_2_1_BADGER","BADGER",1,0.5,240,"preference"
"ssfOUT_240_2_1_BADGER.38",0.551762659096328,0.349680838561,0.753844479631656,"ssf","mf.ss","exp","unif",50,"ssfOUT_240_2_1_BADGER","BADGER",1,0.5,240,"preference"
"ssfOUT_240_2_1_BADGER.39",0.557746797047418,0.356340767939035,0.759152826155802,"ssf","mf.ss","exp","unif",158,"ssfOUT_240_2_1_BADGER","BADGER",1,0.5,240,"preference"
"ssfOUT_240_2_1_BADGER.40",0.572906600815385,0.37189086738385,0.773922334246919,"ssf","mf.ss","exp","unif",500,"ssfOUT_240_2_1_BADGER","BADGER",1,0.5,240,"preference"
"ssfOUT_240_2_1_VULTURE.1",0.24287565610285,0.0509629903754234,0.434788321830277,"ssf","mf.is","gamma","vonmises",5,"ssfOUT_240_2_1_VULTURE","VULTURE",1,0.5,240,"preference"
"ssfOUT_240_2_1_VULTURE.2",0.199421200521828,0.0174176312008756,0.38142476984278,"ssf","mf.is","gamma","vonmises",15,"ssfOUT_240_2_1_VULTURE","VULTURE",1,0.5,240,"preference"
"ssfOUT_240_2_1_VULTURE.3",0.179911589108772,0.00124779109975909,0.358575387117785,"ssf","mf.is","gamma","vonmises",50,"ssfOUT_240_2_1_VULTURE","VULTURE",1,0.5,240,"preference"
"ssfOUT_240_2_1_VULTURE.4",0.187971151069116,0.010498398490916,0.365443903647315,"ssf","mf.is","gamma","vonmises",158,"ssfOUT_240_2_1_VULTURE","VULTURE",1,0.5,240,"preference"
"ssfOUT_240_2_1_VULTURE.5",0.195495841091793,0.0182796910496381,0.372711991133948,"ssf","mf.is","gamma","vonmises",500,"ssfOUT_240_2_1_VULTURE","VULTURE",1,0.5,240,"preference"
"ssfOUT_240_2_1_VULTURE.6",0.153415355352675,-0.0403766252011932,0.347207335906544,"ssf","mf.is","gamma","unif",5,"ssfOUT_240_2_1_VULTURE","VULTURE",1,0.5,240,"no effect"
"ssfOUT_240_2_1_VULTURE.7",0.106190296565331,-0.075984237693001,0.288364830823663,"ssf","mf.is","gamma","unif",15,"ssfOUT_240_2_1_VULTURE","VULTURE",1,0.5,240,"no effect"
"ssfOUT_240_2_1_VULTURE.8",0.173720093581667,-0.0050051983004944,0.352445385463829,"ssf","mf.is","gamma","unif",50,"ssfOUT_240_2_1_VULTURE","VULTURE",1,0.5,240,"no effect"
"ssfOUT_240_2_1_VULTURE.9",0.177847258526127,0.000449358492018825,0.355245158560235,"ssf","mf.is","gamma","unif",158,"ssfOUT_240_2_1_VULTURE","VULTURE",1,0.5,240,"preference"
"ssfOUT_240_2_1_VULTURE.10",0.189658423327555,0.0124625618889209,0.36685428476619,"ssf","mf.is","gamma","unif",500,"ssfOUT_240_2_1_VULTURE","VULTURE",1,0.5,240,"preference"
"ssfOUT_240_2_1_VULTURE.11",0.199759345656844,0.000917250687503313,0.398601440626186,"ssf","mf.is","exp","vonmises",5,"ssfOUT_240_2_1_VULTURE","VULTURE",1,0.5,240,"preference"
"ssfOUT_240_2_1_VULTURE.12",0.1140421147465,-0.0703685645483963,0.298452794041397,"ssf","mf.is","exp","vonmises",15,"ssfOUT_240_2_1_VULTURE","VULTURE",1,0.5,240,"no effect"
"ssfOUT_240_2_1_VULTURE.13",0.17170329368511,-0.00748238914341326,0.350888976513634,"ssf","mf.is","exp","vonmises",50,"ssfOUT_240_2_1_VULTURE","VULTURE",1,0.5,240,"no effect"
"ssfOUT_240_2_1_VULTURE.14",0.175972834252073,-0.0017243945622159,0.353670063066362,"ssf","mf.is","exp","vonmises",158,"ssfOUT_240_2_1_VULTURE","VULTURE",1,0.5,240,"no effect"
"ssfOUT_240_2_1_VULTURE.15",0.169931643585953,-0.00742266354059523,0.3472859507125,"ssf","mf.is","exp","vonmises",500,"ssfOUT_240_2_1_VULTURE","VULTURE",1,0.5,240,"no effect"
"ssfOUT_240_2_1_VULTURE.16",0.175524766481385,-0.019496807191687,0.370546340154458,"ssf","mf.is","exp","unif",5,"ssfOUT_240_2_1_VULTURE","VULTURE",1,0.5,240,"no effect"
"ssfOUT_240_2_1_VULTURE.17",0.123272163002716,-0.0604995674221589,0.307043893427591,"ssf","mf.is","exp","unif",15,"ssfOUT_240_2_1_VULTURE","VULTURE",1,0.5,240,"no effect"
"ssfOUT_240_2_1_VULTURE.18",0.17165005101798,-0.00718849779366759,0.350488599829628,"ssf","mf.is","exp","unif",50,"ssfOUT_240_2_1_VULTURE","VULTURE",1,0.5,240,"no effect"
"ssfOUT_240_2_1_VULTURE.19",0.181457821962022,0.00360960947021979,0.359306034453825,"ssf","mf.is","exp","unif",158,"ssfOUT_240_2_1_VULTURE","VULTURE",1,0.5,240,"preference"
"ssfOUT_240_2_1_VULTURE.20",0.193629616777668,0.0164078172002352,0.370851416355101,"ssf","mf.is","exp","unif",500,"ssfOUT_240_2_1_VULTURE","VULTURE",1,0.5,240,"preference"
"ssfOUT_240_2_1_VULTURE.21",0.233380848538584,0.0415424584032499,0.425219238673919,"ssf","mf.ss","gamma","vonmises",5,"ssfOUT_240_2_1_VULTURE","VULTURE",1,0.5,240,"preference"
"ssfOUT_240_2_1_VULTURE.22",0.189655449649536,0.00773347828534204,0.371577421013731,"ssf","mf.ss","gamma","vonmises",15,"ssfOUT_240_2_1_VULTURE","VULTURE",1,0.5,240,"preference"
"ssfOUT_240_2_1_VULTURE.23",0.175449069398155,-0.00321000093220714,0.354108139728517,"ssf","mf.ss","gamma","vonmises",50,"ssfOUT_240_2_1_VULTURE","VULTURE",1,0.5,240,"no effect"
"ssfOUT_240_2_1_VULTURE.24",0.182921032937981,0.00546639071080057,0.360375675165162,"ssf","mf.ss","gamma","vonmises",158,"ssfOUT_240_2_1_VULTURE","VULTURE",1,0.5,240,"preference"
"ssfOUT_240_2_1_VULTURE.25",0.190817213291496,0.0136010179256562,0.368033408657337,"ssf","mf.ss","gamma","vonmises",500,"ssfOUT_240_2_1_VULTURE","VULTURE",1,0.5,240,"preference"
"ssfOUT_240_2_1_VULTURE.26",0.158182147133155,-0.0353668392211559,0.351731133487466,"ssf","mf.ss","gamma","unif",5,"ssfOUT_240_2_1_VULTURE","VULTURE",1,0.5,240,"no effect"
"ssfOUT_240_2_1_VULTURE.27",0.104074370729513,-0.0780695066595063,0.286218248118533,"ssf","mf.ss","gamma","unif",15,"ssfOUT_240_2_1_VULTURE","VULTURE",1,0.5,240,"no effect"
"ssfOUT_240_2_1_VULTURE.28",0.171871256095364,-0.00680900980578439,0.350551521996513,"ssf","mf.ss","gamma","unif",50,"ssfOUT_240_2_1_VULTURE","VULTURE",1,0.5,240,"no effect"
"ssfOUT_240_2_1_VULTURE.29",0.178406938684524,0.0010525957094685,0.355761281659579,"ssf","mf.ss","gamma","unif",158,"ssfOUT_240_2_1_VULTURE","VULTURE",1,0.5,240,"preference"
"ssfOUT_240_2_1_VULTURE.30",0.189462634414692,0.0123054422293693,0.366619826600014,"ssf","mf.ss","gamma","unif",500,"ssfOUT_240_2_1_VULTURE","VULTURE",1,0.5,240,"preference"
"ssfOUT_240_2_1_VULTURE.31",0.250893529695312,0.0567667151495323,0.445020344241091,"ssf","mf.ss","exp","vonmises",5,"ssfOUT_240_2_1_VULTURE","VULTURE",1,0.5,240,"preference"
"ssfOUT_240_2_1_VULTURE.32",0.196873585050114,0.013512545389145,0.380234624711082,"ssf","mf.ss","exp","vonmises",15,"ssfOUT_240_2_1_VULTURE","VULTURE",1,0.5,240,"preference"
"ssfOUT_240_2_1_VULTURE.33",0.244109003090913,0.0640197589305394,0.424198247251287,"ssf","mf.ss","exp","vonmises",50,"ssfOUT_240_2_1_VULTURE","VULTURE",1,0.5,240,"preference"
"ssfOUT_240_2_1_VULTURE.34",0.245808444247863,0.0671110944541341,0.424505794041591,"ssf","mf.ss","exp","vonmises",158,"ssfOUT_240_2_1_VULTURE","VULTURE",1,0.5,240,"preference"
"ssfOUT_240_2_1_VULTURE.35",0.246606467046943,0.0681058207731058,0.425107113320779,"ssf","mf.ss","exp","vonmises",500,"ssfOUT_240_2_1_VULTURE","VULTURE",1,0.5,240,"preference"
"ssfOUT_240_2_1_VULTURE.36",0.251716770832549,0.0600162069605656,0.443417334704532,"ssf","mf.ss","exp","unif",5,"ssfOUT_240_2_1_VULTURE","VULTURE",1,0.5,240,"preference"
"ssfOUT_240_2_1_VULTURE.37",0.188468776057903,0.00567596153361483,0.371261590582192,"ssf","mf.ss","exp","unif",15,"ssfOUT_240_2_1_VULTURE","VULTURE",1,0.5,240,"preference"
"ssfOUT_240_2_1_VULTURE.38",0.24861194917689,0.0693514111066336,0.427872487247147,"ssf","mf.ss","exp","unif",50,"ssfOUT_240_2_1_VULTURE","VULTURE",1,0.5,240,"preference"
"ssfOUT_240_2_1_VULTURE.39",0.258729681914778,0.0800740148709929,0.437385348958562,"ssf","mf.ss","exp","unif",158,"ssfOUT_240_2_1_VULTURE","VULTURE",1,0.5,240,"preference"
"ssfOUT_240_2_1_VULTURE.40",0.26581903405435,0.0874574967216486,0.444180571387051,"ssf","mf.ss","exp","unif",500,"ssfOUT_240_2_1_VULTURE","VULTURE",1,0.5,240,"preference"
"ssfOUT_240_2_1_KINGCOBRA.1",0.360841456207275,0.1300291550587,0.591653757355851,"ssf","mf.is","gamma","vonmises",5,"ssfOUT_240_2_1_KINGCOBRA","KINGCOBRA",1,0.5,240,"preference"
"ssfOUT_240_2_1_KINGCOBRA.2",0.433993722161954,0.206335955278962,0.661651489044946,"ssf","mf.is","gamma","vonmises",15,"ssfOUT_240_2_1_KINGCOBRA","KINGCOBRA",1,0.5,240,"preference"
"ssfOUT_240_2_1_KINGCOBRA.3",0.3593284712661,0.136659267700847,0.581997674831352,"ssf","mf.is","gamma","vonmises",50,"ssfOUT_240_2_1_KINGCOBRA","KINGCOBRA",1,0.5,240,"preference"
"ssfOUT_240_2_1_KINGCOBRA.4",0.381143412721194,0.161099312533646,0.601187512908742,"ssf","mf.is","gamma","vonmises",158,"ssfOUT_240_2_1_KINGCOBRA","KINGCOBRA",1,0.5,240,"preference"
"ssfOUT_240_2_1_KINGCOBRA.5",0.409006047449017,0.188200116440742,0.629811978457291,"ssf","mf.is","gamma","vonmises",500,"ssfOUT_240_2_1_KINGCOBRA","KINGCOBRA",1,0.5,240,"preference"
"ssfOUT_240_2_1_KINGCOBRA.6",0.523822774719005,0.291459394797099,0.75618615464091,"ssf","mf.is","gamma","unif",5,"ssfOUT_240_2_1_KINGCOBRA","KINGCOBRA",1,0.5,240,"preference"
"ssfOUT_240_2_1_KINGCOBRA.7",0.320601711673957,0.0971687062035313,0.544034717144382,"ssf","mf.is","gamma","unif",15,"ssfOUT_240_2_1_KINGCOBRA","KINGCOBRA",1,0.5,240,"preference"
"ssfOUT_240_2_1_KINGCOBRA.8",0.426717627899458,0.204020906719284,0.649414349079631,"ssf","mf.is","gamma","unif",50,"ssfOUT_240_2_1_KINGCOBRA","KINGCOBRA",1,0.5,240,"preference"
"ssfOUT_240_2_1_KINGCOBRA.9",0.407650025651241,0.185730910565708,0.629569140736773,"ssf","mf.is","gamma","unif",158,"ssfOUT_240_2_1_KINGCOBRA","KINGCOBRA",1,0.5,240,"preference"
"ssfOUT_240_2_1_KINGCOBRA.10",0.37921962989135,0.158292041294865,0.600147218487835,"ssf","mf.is","gamma","unif",500,"ssfOUT_240_2_1_KINGCOBRA","KINGCOBRA",1,0.5,240,"preference"
"ssfOUT_240_2_1_KINGCOBRA.11",-0.0119246574657303,-0.25241039387015,0.228561078938689,"ssf","mf.is","exp","vonmises",5,"ssfOUT_240_2_1_KINGCOBRA","KINGCOBRA",1,0.5,240,"no effect"
"ssfOUT_240_2_1_KINGCOBRA.12",0.306928952199841,0.0824095520487657,0.531448352350916,"ssf","mf.is","exp","vonmises",15,"ssfOUT_240_2_1_KINGCOBRA","KINGCOBRA",1,0.5,240,"preference"
"ssfOUT_240_2_1_KINGCOBRA.13",0.289632555355227,0.0642344840685925,0.515030626641862,"ssf","mf.is","exp","vonmises",50,"ssfOUT_240_2_1_KINGCOBRA","KINGCOBRA",1,0.5,240,"preference"
"ssfOUT_240_2_1_KINGCOBRA.14",0.357534916033906,0.136552781027321,0.57851705104049,"ssf","mf.is","exp","vonmises",158,"ssfOUT_240_2_1_KINGCOBRA","KINGCOBRA",1,0.5,240,"preference"
"ssfOUT_240_2_1_KINGCOBRA.15",0.395057801270605,0.173651628431638,0.616463974109571,"ssf","mf.is","exp","vonmises",500,"ssfOUT_240_2_1_KINGCOBRA","KINGCOBRA",1,0.5,240,"preference"
"ssfOUT_240_2_1_KINGCOBRA.16",0.308175402319405,0.0707987555925371,0.545552049046273,"ssf","mf.is","exp","unif",5,"ssfOUT_240_2_1_KINGCOBRA","KINGCOBRA",1,0.5,240,"preference"
"ssfOUT_240_2_1_KINGCOBRA.17",0.178204537617005,-0.0485991466181233,0.405008221852134,"ssf","mf.is","exp","unif",15,"ssfOUT_240_2_1_KINGCOBRA","KINGCOBRA",1,0.5,240,"no effect"
"ssfOUT_240_2_1_KINGCOBRA.18",0.383858507618835,0.160926109828595,0.606790905409074,"ssf","mf.is","exp","unif",50,"ssfOUT_240_2_1_KINGCOBRA","KINGCOBRA",1,0.5,240,"preference"
"ssfOUT_240_2_1_KINGCOBRA.19",0.456810543376324,0.232265491044723,0.681355595707926,"ssf","mf.is","exp","unif",158,"ssfOUT_240_2_1_KINGCOBRA","KINGCOBRA",1,0.5,240,"preference"
"ssfOUT_240_2_1_KINGCOBRA.20",0.391088319657981,0.167881821839769,0.614294817476193,"ssf","mf.is","exp","unif",500,"ssfOUT_240_2_1_KINGCOBRA","KINGCOBRA",1,0.5,240,"preference"
"ssfOUT_240_2_1_KINGCOBRA.21",0.394647990669876,0.164187504165963,0.62510847717379,"ssf","mf.ss","gamma","vonmises",5,"ssfOUT_240_2_1_KINGCOBRA","KINGCOBRA",1,0.5,240,"preference"
"ssfOUT_240_2_1_KINGCOBRA.22",0.484573813432727,0.255962374473106,0.713185252392349,"ssf","mf.ss","gamma","vonmises",15,"ssfOUT_240_2_1_KINGCOBRA","KINGCOBRA",1,0.5,240,"preference"
"ssfOUT_240_2_1_KINGCOBRA.23",0.381744654758281,0.158120101089224,0.605369208427338,"ssf","mf.ss","gamma","vonmises",50,"ssfOUT_240_2_1_KINGCOBRA","KINGCOBRA",1,0.5,240,"preference"
"ssfOUT_240_2_1_KINGCOBRA.24",0.415279812849376,0.194334248211517,0.636225377487236,"ssf","mf.ss","gamma","vonmises",158,"ssfOUT_240_2_1_KINGCOBRA","KINGCOBRA",1,0.5,240,"preference"
"ssfOUT_240_2_1_KINGCOBRA.25",0.437820227520786,0.216558582449937,0.659081872591636,"ssf","mf.ss","gamma","vonmises",500,"ssfOUT_240_2_1_KINGCOBRA","KINGCOBRA",1,0.5,240,"preference"
"ssfOUT_240_2_1_KINGCOBRA.26",0.572376393412694,0.340410899664927,0.804341887160461,"ssf","mf.ss","gamma","unif",5,"ssfOUT_240_2_1_KINGCOBRA","KINGCOBRA",1,0.5,240,"preference"
"ssfOUT_240_2_1_KINGCOBRA.27",0.350998428774612,0.12815789950387,0.573838958045353,"ssf","mf.ss","gamma","unif",15,"ssfOUT_240_2_1_KINGCOBRA","KINGCOBRA",1,0.5,240,"preference"
"ssfOUT_240_2_1_KINGCOBRA.28",0.457914474163011,0.234707273559541,0.681121674766481,"ssf","mf.ss","gamma","unif",50,"ssfOUT_240_2_1_KINGCOBRA","KINGCOBRA",1,0.5,240,"preference"
"ssfOUT_240_2_1_KINGCOBRA.29",0.437809409064898,0.215185029379919,0.660433788749877,"ssf","mf.ss","gamma","unif",158,"ssfOUT_240_2_1_KINGCOBRA","KINGCOBRA",1,0.5,240,"preference"
"ssfOUT_240_2_1_KINGCOBRA.30",0.406544642801772,0.185156155925233,0.627933129678312,"ssf","mf.ss","gamma","unif",500,"ssfOUT_240_2_1_KINGCOBRA","KINGCOBRA",1,0.5,240,"preference"
"ssfOUT_240_2_1_KINGCOBRA.31",0.202773777139109,-0.0325310643323705,0.438078618610588,"ssf","mf.ss","exp","vonmises",5,"ssfOUT_240_2_1_KINGCOBRA","KINGCOBRA",1,0.5,240,"no effect"
"ssfOUT_240_2_1_KINGCOBRA.32",0.358481601670443,0.138700719652541,0.578262483688344,"ssf","mf.ss","exp","vonmises",15,"ssfOUT_240_2_1_KINGCOBRA","KINGCOBRA",1,0.5,240,"preference"
"ssfOUT_240_2_1_KINGCOBRA.33",0.282905586491657,0.0661460839842236,0.49966508899909,"ssf","mf.ss","exp","vonmises",50,"ssfOUT_240_2_1_KINGCOBRA","KINGCOBRA",1,0.5,240,"preference"
"ssfOUT_240_2_1_KINGCOBRA.34",0.327617515606974,0.113084535494035,0.542150495719914,"ssf","mf.ss","exp","vonmises",158,"ssfOUT_240_2_1_KINGCOBRA","KINGCOBRA",1,0.5,240,"preference"
"ssfOUT_240_2_1_KINGCOBRA.35",0.34162665429001,0.127536542740646,0.555716765839374,"ssf","mf.ss","exp","vonmises",500,"ssfOUT_240_2_1_KINGCOBRA","KINGCOBRA",1,0.5,240,"preference"
"ssfOUT_240_2_1_KINGCOBRA.36",0.480664073046867,0.251213251440691,0.710114894653044,"ssf","mf.ss","exp","unif",5,"ssfOUT_240_2_1_KINGCOBRA","KINGCOBRA",1,0.5,240,"preference"
"ssfOUT_240_2_1_KINGCOBRA.37",0.327770158328848,0.105254243024953,0.550286073632744,"ssf","mf.ss","exp","unif",15,"ssfOUT_240_2_1_KINGCOBRA","KINGCOBRA",1,0.5,240,"preference"
"ssfOUT_240_2_1_KINGCOBRA.38",0.309738556458546,0.0952532075790098,0.524223905338082,"ssf","mf.ss","exp","unif",50,"ssfOUT_240_2_1_KINGCOBRA","KINGCOBRA",1,0.5,240,"preference"
"ssfOUT_240_2_1_KINGCOBRA.39",0.369777945745369,0.155240322867493,0.584315568623245,"ssf","mf.ss","exp","unif",158,"ssfOUT_240_2_1_KINGCOBRA","KINGCOBRA",1,0.5,240,"preference"
"ssfOUT_240_2_1_KINGCOBRA.40",0.330527492520636,0.116451855801244,0.544603129240027,"ssf","mf.ss","exp","unif",500,"ssfOUT_240_2_1_KINGCOBRA","KINGCOBRA",1,0.5,240,"preference"
"ssfOUT_240_2_2_BADGER.1",0.514129787514081,0.354416312305705,0.673843262722458,"ssf","mf.is","gamma","vonmises",5,"ssfOUT_240_2_2_BADGER","BADGER",2,0.5,240,"preference"
"ssfOUT_240_2_2_BADGER.2",0.627170674983753,0.474583428345524,0.779757921621983,"ssf","mf.is","gamma","vonmises",15,"ssfOUT_240_2_2_BADGER","BADGER",2,0.5,240,"preference"
"ssfOUT_240_2_2_BADGER.3",0.622379564769194,0.47293511102619,0.771824018512197,"ssf","mf.is","gamma","vonmises",50,"ssfOUT_240_2_2_BADGER","BADGER",2,0.5,240,"preference"
"ssfOUT_240_2_2_BADGER.4",0.613001611559105,0.464016362903955,0.761986860214255,"ssf","mf.is","gamma","vonmises",158,"ssfOUT_240_2_2_BADGER","BADGER",2,0.5,240,"preference"
"ssfOUT_240_2_2_BADGER.5",0.610289447897994,0.461388411018285,0.759190484777702,"ssf","mf.is","gamma","vonmises",500,"ssfOUT_240_2_2_BADGER","BADGER",2,0.5,240,"preference"
"ssfOUT_240_2_2_BADGER.6",0.570535615288603,0.412074642467835,0.72899658810937,"ssf","mf.is","gamma","unif",5,"ssfOUT_240_2_2_BADGER","BADGER",2,0.5,240,"preference"
"ssfOUT_240_2_2_BADGER.7",0.588471026204678,0.436356888527572,0.740585163881783,"ssf","mf.is","gamma","unif",15,"ssfOUT_240_2_2_BADGER","BADGER",2,0.5,240,"preference"
"ssfOUT_240_2_2_BADGER.8",0.638822972876557,0.489022503101481,0.788623442651633,"ssf","mf.is","gamma","unif",50,"ssfOUT_240_2_2_BADGER","BADGER",2,0.5,240,"preference"
"ssfOUT_240_2_2_BADGER.9",0.599629221103157,0.450569936353455,0.748688505852859,"ssf","mf.is","gamma","unif",158,"ssfOUT_240_2_2_BADGER","BADGER",2,0.5,240,"preference"
"ssfOUT_240_2_2_BADGER.10",0.601097034900481,0.45232362354687,0.749870446254092,"ssf","mf.is","gamma","unif",500,"ssfOUT_240_2_2_BADGER","BADGER",2,0.5,240,"preference"
"ssfOUT_240_2_2_BADGER.11",0.604583156089576,0.44532095664006,0.763845355539093,"ssf","mf.is","exp","vonmises",5,"ssfOUT_240_2_2_BADGER","BADGER",2,0.5,240,"preference"
"ssfOUT_240_2_2_BADGER.12",0.626584907755379,0.474321761269782,0.778848054240976,"ssf","mf.is","exp","vonmises",15,"ssfOUT_240_2_2_BADGER","BADGER",2,0.5,240,"preference"
"ssfOUT_240_2_2_BADGER.13",0.559399231331755,0.409987474640562,0.708810988022949,"ssf","mf.is","exp","vonmises",50,"ssfOUT_240_2_2_BADGER","BADGER",2,0.5,240,"preference"
"ssfOUT_240_2_2_BADGER.14",0.577119644224981,0.428264206084236,0.725975082365725,"ssf","mf.is","exp","vonmises",158,"ssfOUT_240_2_2_BADGER","BADGER",2,0.5,240,"preference"
"ssfOUT_240_2_2_BADGER.15",0.602140413529557,0.453409222178153,0.750871604880961,"ssf","mf.is","exp","vonmises",500,"ssfOUT_240_2_2_BADGER","BADGER",2,0.5,240,"preference"
"ssfOUT_240_2_2_BADGER.16",0.649541753885619,0.489605763063762,0.809477744707476,"ssf","mf.is","exp","unif",5,"ssfOUT_240_2_2_BADGER","BADGER",2,0.5,240,"preference"
"ssfOUT_240_2_2_BADGER.17",0.566001170451369,0.413439189763998,0.718563151138741,"ssf","mf.is","exp","unif",15,"ssfOUT_240_2_2_BADGER","BADGER",2,0.5,240,"preference"
"ssfOUT_240_2_2_BADGER.18",0.585483450067325,0.43574368550229,0.735223214632361,"ssf","mf.is","exp","unif",50,"ssfOUT_240_2_2_BADGER","BADGER",2,0.5,240,"preference"
"ssfOUT_240_2_2_BADGER.19",0.598750521857088,0.449512097139002,0.747988946575175,"ssf","mf.is","exp","unif",158,"ssfOUT_240_2_2_BADGER","BADGER",2,0.5,240,"preference"
"ssfOUT_240_2_2_BADGER.20",0.612630018821256,0.46377126550515,0.761488772137362,"ssf","mf.is","exp","unif",500,"ssfOUT_240_2_2_BADGER","BADGER",2,0.5,240,"preference"
"ssfOUT_240_2_2_BADGER.21",0.504677585171458,0.344815325404625,0.664539844938292,"ssf","mf.ss","gamma","vonmises",5,"ssfOUT_240_2_2_BADGER","BADGER",2,0.5,240,"preference"
"ssfOUT_240_2_2_BADGER.22",0.616186254616376,0.463384757067144,0.768987752165609,"ssf","mf.ss","gamma","vonmises",15,"ssfOUT_240_2_2_BADGER","BADGER",2,0.5,240,"preference"
"ssfOUT_240_2_2_BADGER.23",0.613905398671757,0.464192879276685,0.763617918066828,"ssf","mf.ss","gamma","vonmises",50,"ssfOUT_240_2_2_BADGER","BADGER",2,0.5,240,"preference"
"ssfOUT_240_2_2_BADGER.24",0.606272314521195,0.457033026882367,0.755511602160022,"ssf","mf.ss","gamma","vonmises",158,"ssfOUT_240_2_2_BADGER","BADGER",2,0.5,240,"preference"
"ssfOUT_240_2_2_BADGER.25",0.603277701514947,0.454102554486952,0.752452848542943,"ssf","mf.ss","gamma","vonmises",500,"ssfOUT_240_2_2_BADGER","BADGER",2,0.5,240,"preference"
"ssfOUT_240_2_2_BADGER.26",0.566888184750969,0.408524208088017,0.725252161413922,"ssf","mf.ss","gamma","unif",5,"ssfOUT_240_2_2_BADGER","BADGER",2,0.5,240,"preference"
"ssfOUT_240_2_2_BADGER.27",0.583825005395423,0.431570063508976,0.73607994728187,"ssf","mf.ss","gamma","unif",15,"ssfOUT_240_2_2_BADGER","BADGER",2,0.5,240,"preference"
"ssfOUT_240_2_2_BADGER.28",0.632511880450294,0.482485090823134,0.782538670077454,"ssf","mf.ss","gamma","unif",50,"ssfOUT_240_2_2_BADGER","BADGER",2,0.5,240,"preference"
"ssfOUT_240_2_2_BADGER.29",0.592569714752785,0.443260695105996,0.741878734399575,"ssf","mf.ss","gamma","unif",158,"ssfOUT_240_2_2_BADGER","BADGER",2,0.5,240,"preference"
"ssfOUT_240_2_2_BADGER.30",0.594411369728861,0.445372046874278,0.743450692583444,"ssf","mf.ss","gamma","unif",500,"ssfOUT_240_2_2_BADGER","BADGER",2,0.5,240,"preference"
"ssfOUT_240_2_2_BADGER.31",0.600127517296991,0.440650527845907,0.759604506748076,"ssf","mf.ss","exp","vonmises",5,"ssfOUT_240_2_2_BADGER","BADGER",2,0.5,240,"preference"
"ssfOUT_240_2_2_BADGER.32",0.616471415714949,0.463900590043177,0.769042241386722,"ssf","mf.ss","exp","vonmises",15,"ssfOUT_240_2_2_BADGER","BADGER",2,0.5,240,"preference"
"ssfOUT_240_2_2_BADGER.33",0.549766320225952,0.400100576935928,0.699432063515975,"ssf","mf.ss","exp","vonmises",50,"ssfOUT_240_2_2_BADGER","BADGER",2,0.5,240,"preference"
"ssfOUT_240_2_2_BADGER.34",0.569526126315502,0.420395723199479,0.718656529431525,"ssf","mf.ss","exp","vonmises",158,"ssfOUT_240_2_2_BADGER","BADGER",2,0.5,240,"preference"
"ssfOUT_240_2_2_BADGER.35",0.594696079422438,0.445673028003979,0.743719130840897,"ssf","mf.ss","exp","vonmises",500,"ssfOUT_240_2_2_BADGER","BADGER",2,0.5,240,"preference"
"ssfOUT_240_2_2_BADGER.36",0.634876326756405,0.474663126703923,0.795089526808888,"ssf","mf.ss","exp","unif",5,"ssfOUT_240_2_2_BADGER","BADGER",2,0.5,240,"preference"
"ssfOUT_240_2_2_BADGER.37",0.556750177166646,0.403964893892822,0.709535460440471,"ssf","mf.ss","exp","unif",15,"ssfOUT_240_2_2_BADGER","BADGER",2,0.5,240,"preference"
"ssfOUT_240_2_2_BADGER.38",0.577642251138478,0.427656156138963,0.727628346137993,"ssf","mf.ss","exp","unif",50,"ssfOUT_240_2_2_BADGER","BADGER",2,0.5,240,"preference"
"ssfOUT_240_2_2_BADGER.39",0.592361833758081,0.442813397572036,0.741910269944127,"ssf","mf.ss","exp","unif",158,"ssfOUT_240_2_2_BADGER","BADGER",2,0.5,240,"preference"
"ssfOUT_240_2_2_BADGER.40",0.605634722067473,0.456476457445833,0.754792986689113,"ssf","mf.ss","exp","unif",500,"ssfOUT_240_2_2_BADGER","BADGER",2,0.5,240,"preference"
"ssfOUT_240_2_2_VULTURE.1",0.651485984390531,0.45463456055559,0.848337408225472,"ssf","mf.is","gamma","vonmises",5,"ssfOUT_240_2_2_VULTURE","VULTURE",2,0.5,240,"preference"
"ssfOUT_240_2_2_VULTURE.2",0.640570130441758,0.450942698586508,0.830197562297009,"ssf","mf.is","gamma","vonmises",15,"ssfOUT_240_2_2_VULTURE","VULTURE",2,0.5,240,"preference"
"ssfOUT_240_2_2_VULTURE.3",0.686489320016492,0.499512770290455,0.873465869742528,"ssf","mf.is","gamma","vonmises",50,"ssfOUT_240_2_2_VULTURE","VULTURE",2,0.5,240,"preference"
"ssfOUT_240_2_2_VULTURE.4",0.679462786568186,0.493061462127113,0.865864111009259,"ssf","mf.is","gamma","vonmises",158,"ssfOUT_240_2_2_VULTURE","VULTURE",2,0.5,240,"preference"
"ssfOUT_240_2_2_VULTURE.5",0.67795649386676,0.491860060518247,0.864052927215273,"ssf","mf.is","gamma","vonmises",500,"ssfOUT_240_2_2_VULTURE","VULTURE",2,0.5,240,"preference"
"ssfOUT_240_2_2_VULTURE.6",0.639172835932708,0.44215963877249,0.836186033092926,"ssf","mf.is","gamma","unif",5,"ssfOUT_240_2_2_VULTURE","VULTURE",2,0.5,240,"preference"
"ssfOUT_240_2_2_VULTURE.7",0.755744481080735,0.56594482640667,0.945544135754799,"ssf","mf.is","gamma","unif",15,"ssfOUT_240_2_2_VULTURE","VULTURE",2,0.5,240,"preference"
"ssfOUT_240_2_2_VULTURE.8",0.6881743175527,0.501176203882049,0.875172431223351,"ssf","mf.is","gamma","unif",50,"ssfOUT_240_2_2_VULTURE","VULTURE",2,0.5,240,"preference"
"ssfOUT_240_2_2_VULTURE.9",0.669767288063333,0.483422029884512,0.856112546242154,"ssf","mf.is","gamma","unif",158,"ssfOUT_240_2_2_VULTURE","VULTURE",2,0.5,240,"preference"
"ssfOUT_240_2_2_VULTURE.10",0.662422885886966,0.476303358499008,0.848542413274923,"ssf","mf.is","gamma","unif",500,"ssfOUT_240_2_2_VULTURE","VULTURE",2,0.5,240,"preference"
"ssfOUT_240_2_2_VULTURE.11",0.708309383922269,0.507103141008398,0.90951562683614,"ssf","mf.is","exp","vonmises",5,"ssfOUT_240_2_2_VULTURE","VULTURE",2,0.5,240,"preference"
"ssfOUT_240_2_2_VULTURE.12",0.672223304666495,0.481930783533782,0.862515825799208,"ssf","mf.is","exp","vonmises",15,"ssfOUT_240_2_2_VULTURE","VULTURE",2,0.5,240,"preference"
"ssfOUT_240_2_2_VULTURE.13",0.6847410893391,0.49755501862123,0.871927160056971,"ssf","mf.is","exp","vonmises",50,"ssfOUT_240_2_2_VULTURE","VULTURE",2,0.5,240,"preference"
"ssfOUT_240_2_2_VULTURE.14",0.68264886945172,0.496125068756033,0.869172670147408,"ssf","mf.is","exp","vonmises",158,"ssfOUT_240_2_2_VULTURE","VULTURE",2,0.5,240,"preference"
"ssfOUT_240_2_2_VULTURE.15",0.683110953017705,0.496935628123115,0.869286277912295,"ssf","mf.is","exp","vonmises",500,"ssfOUT_240_2_2_VULTURE","VULTURE",2,0.5,240,"preference"
"ssfOUT_240_2_2_VULTURE.16",0.716658975646139,0.518439444774606,0.914878506517671,"ssf","mf.is","exp","unif",5,"ssfOUT_240_2_2_VULTURE","VULTURE",2,0.5,240,"preference"
"ssfOUT_240_2_2_VULTURE.17",0.620214996591488,0.429702379863774,0.810727613319203,"ssf","mf.is","exp","unif",15,"ssfOUT_240_2_2_VULTURE","VULTURE",2,0.5,240,"preference"
"ssfOUT_240_2_2_VULTURE.18",0.657920016697815,0.470420214430299,0.84541981896533,"ssf","mf.is","exp","unif",50,"ssfOUT_240_2_2_VULTURE","VULTURE",2,0.5,240,"preference"
"ssfOUT_240_2_2_VULTURE.19",0.676302472197716,0.489889907425921,0.862715036969511,"ssf","mf.is","exp","unif",158,"ssfOUT_240_2_2_VULTURE","VULTURE",2,0.5,240,"preference"
"ssfOUT_240_2_2_VULTURE.20",0.6811323350303,0.495001763105823,0.867262906954778,"ssf","mf.is","exp","unif",500,"ssfOUT_240_2_2_VULTURE","VULTURE",2,0.5,240,"preference"
"ssfOUT_240_2_2_VULTURE.21",0.649523433022792,0.452690820181048,0.846356045864535,"ssf","mf.ss","gamma","vonmises",5,"ssfOUT_240_2_2_VULTURE","VULTURE",2,0.5,240,"preference"
"ssfOUT_240_2_2_VULTURE.22",0.640852424024649,0.451291863396314,0.830412984652984,"ssf","mf.ss","gamma","vonmises",15,"ssfOUT_240_2_2_VULTURE","VULTURE",2,0.5,240,"preference"
"ssfOUT_240_2_2_VULTURE.23",0.685525172155032,0.498579094708944,0.87247124960112,"ssf","mf.ss","gamma","vonmises",50,"ssfOUT_240_2_2_VULTURE","VULTURE",2,0.5,240,"preference"
"ssfOUT_240_2_2_VULTURE.24",0.678243381421038,0.491878099202864,0.864608663639212,"ssf","mf.ss","gamma","vonmises",158,"ssfOUT_240_2_2_VULTURE","VULTURE",2,0.5,240,"preference"
"ssfOUT_240_2_2_VULTURE.25",0.676581604924233,0.490519844106193,0.862643365742273,"ssf","mf.ss","gamma","vonmises",500,"ssfOUT_240_2_2_VULTURE","VULTURE",2,0.5,240,"preference"
"ssfOUT_240_2_2_VULTURE.26",0.649617353469666,0.452784919036859,0.846449787902473,"ssf","mf.ss","gamma","unif",5,"ssfOUT_240_2_2_VULTURE","VULTURE",2,0.5,240,"preference"
"ssfOUT_240_2_2_VULTURE.27",0.763381486648692,0.573665355919246,0.953097617378138,"ssf","mf.ss","gamma","unif",15,"ssfOUT_240_2_2_VULTURE","VULTURE",2,0.5,240,"preference"
"ssfOUT_240_2_2_VULTURE.28",0.695780313149336,0.508808995951558,0.882751630347115,"ssf","mf.ss","gamma","unif",50,"ssfOUT_240_2_2_VULTURE","VULTURE",2,0.5,240,"preference"
"ssfOUT_240_2_2_VULTURE.29",0.675170397415965,0.488854985958867,0.861485808873063,"ssf","mf.ss","gamma","unif",158,"ssfOUT_240_2_2_VULTURE","VULTURE",2,0.5,240,"preference"
"ssfOUT_240_2_2_VULTURE.30",0.669515503839451,0.483417807437037,0.855613200241864,"ssf","mf.ss","gamma","unif",500,"ssfOUT_240_2_2_VULTURE","VULTURE",2,0.5,240,"preference"
"ssfOUT_240_2_2_VULTURE.31",0.729976491104104,0.532447637305247,0.92750534490296,"ssf","mf.ss","exp","vonmises",5,"ssfOUT_240_2_2_VULTURE","VULTURE",2,0.5,240,"preference"
"ssfOUT_240_2_2_VULTURE.32",0.629392414950318,0.439266827491269,0.819518002409368,"ssf","mf.ss","exp","vonmises",15,"ssfOUT_240_2_2_VULTURE","VULTURE",2,0.5,240,"preference"
"ssfOUT_240_2_2_VULTURE.33",0.653009952152792,0.46525367184553,0.840766232460054,"ssf","mf.ss","exp","vonmises",50,"ssfOUT_240_2_2_VULTURE","VULTURE",2,0.5,240,"preference"
"ssfOUT_240_2_2_VULTURE.34",0.651229188505967,0.464117137103114,0.83834123990882,"ssf","mf.ss","exp","vonmises",158,"ssfOUT_240_2_2_VULTURE","VULTURE",2,0.5,240,"preference"
"ssfOUT_240_2_2_VULTURE.35",0.648837493045586,0.462005127084847,0.835669859006325,"ssf","mf.ss","exp","vonmises",500,"ssfOUT_240_2_2_VULTURE","VULTURE",2,0.5,240,"preference"
"ssfOUT_240_2_2_VULTURE.36",0.677430167733784,0.480747635655558,0.874112699812009,"ssf","mf.ss","exp","unif",5,"ssfOUT_240_2_2_VULTURE","VULTURE",2,0.5,240,"preference"
"ssfOUT_240_2_2_VULTURE.37",0.594997413184036,0.404264985917142,0.785729840450929,"ssf","mf.ss","exp","unif",15,"ssfOUT_240_2_2_VULTURE","VULTURE",2,0.5,240,"preference"
"ssfOUT_240_2_2_VULTURE.38",0.632377147956807,0.444356842418396,0.820397453495218,"ssf","mf.ss","exp","unif",50,"ssfOUT_240_2_2_VULTURE","VULTURE",2,0.5,240,"preference"
"ssfOUT_240_2_2_VULTURE.39",0.650414657837989,0.463486600654066,0.837342715021912,"ssf","mf.ss","exp","unif",158,"ssfOUT_240_2_2_VULTURE","VULTURE",2,0.5,240,"preference"
"ssfOUT_240_2_2_VULTURE.40",0.658585186712169,0.471831875355413,0.845338498068924,"ssf","mf.ss","exp","unif",500,"ssfOUT_240_2_2_VULTURE","VULTURE",2,0.5,240,"preference"
"ssfOUT_240_2_2_KINGCOBRA.1",0.508869582795378,0.310218150200828,0.707521015389927,"ssf","mf.is","gamma","vonmises",5,"ssfOUT_240_2_2_KINGCOBRA","KINGCOBRA",2,0.5,240,"preference"
"ssfOUT_240_2_2_KINGCOBRA.2",0.592552155253702,0.399077362416816,0.786026948090589,"ssf","mf.is","gamma","vonmises",15,"ssfOUT_240_2_2_KINGCOBRA","KINGCOBRA",2,0.5,240,"preference"
"ssfOUT_240_2_2_KINGCOBRA.3",0.519821311670605,0.329983822909901,0.709658800431309,"ssf","mf.is","gamma","vonmises",50,"ssfOUT_240_2_2_KINGCOBRA","KINGCOBRA",2,0.5,240,"preference"
"ssfOUT_240_2_2_KINGCOBRA.4",0.55810642566285,0.368639317834296,0.747573533491405,"ssf","mf.is","gamma","vonmises",158,"ssfOUT_240_2_2_KINGCOBRA","KINGCOBRA",2,0.5,240,"preference"
"ssfOUT_240_2_2_KINGCOBRA.5",0.541998823942518,0.353184074439767,0.730813573445269,"ssf","mf.is","gamma","vonmises",500,"ssfOUT_240_2_2_KINGCOBRA","KINGCOBRA",2,0.5,240,"preference"
"ssfOUT_240_2_2_KINGCOBRA.6",0.565126814220992,0.366847230210003,0.76340639823198,"ssf","mf.is","gamma","unif",5,"ssfOUT_240_2_2_KINGCOBRA","KINGCOBRA",2,0.5,240,"preference"
"ssfOUT_240_2_2_KINGCOBRA.7",0.485618557022946,0.293118595234382,0.678118518811511,"ssf","mf.is","gamma","unif",15,"ssfOUT_240_2_2_KINGCOBRA","KINGCOBRA",2,0.5,240,"preference"
"ssfOUT_240_2_2_KINGCOBRA.8",0.585764574680188,0.396397946350473,0.775131203009903,"ssf","mf.is","gamma","unif",50,"ssfOUT_240_2_2_KINGCOBRA","KINGCOBRA",2,0.5,240,"preference"
"ssfOUT_240_2_2_KINGCOBRA.9",0.557261299831834,0.367875171823716,0.746647427839952,"ssf","mf.is","gamma","unif",158,"ssfOUT_240_2_2_KINGCOBRA","KINGCOBRA",2,0.5,240,"preference"
"ssfOUT_240_2_2_KINGCOBRA.10",0.567524631595445,0.378522150409887,0.756527112781002,"ssf","mf.is","gamma","unif",500,"ssfOUT_240_2_2_KINGCOBRA","KINGCOBRA",2,0.5,240,"preference"
"ssfOUT_240_2_2_KINGCOBRA.11",0.452774988425082,0.251432316754378,0.654117660095787,"ssf","mf.is","exp","vonmises",5,"ssfOUT_240_2_2_KINGCOBRA","KINGCOBRA",2,0.5,240,"preference"
"ssfOUT_240_2_2_KINGCOBRA.12",0.509348782274999,0.313390615040183,0.705306949509815,"ssf","mf.is","exp","vonmises",15,"ssfOUT_240_2_2_KINGCOBRA","KINGCOBRA",2,0.5,240,"preference"
"ssfOUT_240_2_2_KINGCOBRA.13",0.591385138423149,0.399212402975561,0.783557873870738,"ssf","mf.is","exp","vonmises",50,"ssfOUT_240_2_2_KINGCOBRA","KINGCOBRA",2,0.5,240,"preference"
"ssfOUT_240_2_2_KINGCOBRA.14",0.537343226638355,0.347930665025969,0.72675578825074,"ssf","mf.is","exp","vonmises",158,"ssfOUT_240_2_2_KINGCOBRA","KINGCOBRA",2,0.5,240,"preference"
"ssfOUT_240_2_2_KINGCOBRA.15",0.564188516163235,0.372992851591049,0.755384180735421,"ssf","mf.is","exp","vonmises",500,"ssfOUT_240_2_2_KINGCOBRA","KINGCOBRA",2,0.5,240,"preference"
"ssfOUT_240_2_2_KINGCOBRA.16",0.376644252148484,0.175082980352029,0.57820552394494,"ssf","mf.is","exp","unif",5,"ssfOUT_240_2_2_KINGCOBRA","KINGCOBRA",2,0.5,240,"preference"
"ssfOUT_240_2_2_KINGCOBRA.17",0.492195785919419,0.295461862635688,0.68892970920315,"ssf","mf.is","exp","unif",15,"ssfOUT_240_2_2_KINGCOBRA","KINGCOBRA",2,0.5,240,"preference"
"ssfOUT_240_2_2_KINGCOBRA.18",0.488600882261497,0.298868667243078,0.678333097279915,"ssf","mf.is","exp","unif",50,"ssfOUT_240_2_2_KINGCOBRA","KINGCOBRA",2,0.5,240,"preference"
"ssfOUT_240_2_2_KINGCOBRA.19",0.529866710429253,0.339906142734994,0.719827278123512,"ssf","mf.is","exp","unif",158,"ssfOUT_240_2_2_KINGCOBRA","KINGCOBRA",2,0.5,240,"preference"
"ssfOUT_240_2_2_KINGCOBRA.20",0.545372999533577,0.355489288968164,0.735256710098991,"ssf","mf.is","exp","unif",500,"ssfOUT_240_2_2_KINGCOBRA","KINGCOBRA",2,0.5,240,"preference"
"ssfOUT_240_2_2_KINGCOBRA.21",0.495051732440209,0.29682957764475,0.693273887235667,"ssf","mf.ss","gamma","vonmises",5,"ssfOUT_240_2_2_KINGCOBRA","KINGCOBRA",2,0.5,240,"preference"
"ssfOUT_240_2_2_KINGCOBRA.22",0.585142749566802,0.391065070139115,0.779220428994489,"ssf","mf.ss","gamma","vonmises",15,"ssfOUT_240_2_2_KINGCOBRA","KINGCOBRA",2,0.5,240,"preference"
"ssfOUT_240_2_2_KINGCOBRA.23",0.526506838207872,0.336217908572541,0.716795767843202,"ssf","mf.ss","gamma","vonmises",50,"ssfOUT_240_2_2_KINGCOBRA","KINGCOBRA",2,0.5,240,"preference"
"ssfOUT_240_2_2_KINGCOBRA.24",0.554003086801649,0.364030220051703,0.743975953551594,"ssf","mf.ss","gamma","vonmises",158,"ssfOUT_240_2_2_KINGCOBRA","KINGCOBRA",2,0.5,240,"preference"
"ssfOUT_240_2_2_KINGCOBRA.25",0.541241999811122,0.352025190246275,0.73045880937597,"ssf","mf.ss","gamma","vonmises",500,"ssfOUT_240_2_2_KINGCOBRA","KINGCOBRA",2,0.5,240,"preference"
"ssfOUT_240_2_2_KINGCOBRA.26",0.552332817212438,0.353992694571751,0.750672939853125,"ssf","mf.ss","gamma","unif",5,"ssfOUT_240_2_2_KINGCOBRA","KINGCOBRA",2,0.5,240,"preference"
"ssfOUT_240_2_2_KINGCOBRA.27",0.49224066121727,0.299546233685331,0.68493508874921,"ssf","mf.ss","gamma","unif",15,"ssfOUT_240_2_2_KINGCOBRA","KINGCOBRA",2,0.5,240,"preference"
"ssfOUT_240_2_2_KINGCOBRA.28",0.585962142668855,0.396317828769068,0.775606456568643,"ssf","mf.ss","gamma","unif",50,"ssfOUT_240_2_2_KINGCOBRA","KINGCOBRA",2,0.5,240,"preference"
"ssfOUT_240_2_2_KINGCOBRA.29",0.552533831194733,0.362950342124005,0.742117320265461,"ssf","mf.ss","gamma","unif",158,"ssfOUT_240_2_2_KINGCOBRA","KINGCOBRA",2,0.5,240,"preference"
"ssfOUT_240_2_2_KINGCOBRA.30",0.566100287334376,0.376873756367968,0.755326818300784,"ssf","mf.ss","gamma","unif",500,"ssfOUT_240_2_2_KINGCOBRA","KINGCOBRA",2,0.5,240,"preference"
"ssfOUT_240_2_2_KINGCOBRA.31",0.575542908261521,0.381560482865849,0.769525333657192,"ssf","mf.ss","exp","vonmises",5,"ssfOUT_240_2_2_KINGCOBRA","KINGCOBRA",2,0.5,240,"preference"
"ssfOUT_240_2_2_KINGCOBRA.32",0.637164174128875,0.449374564644656,0.824953783613093,"ssf","mf.ss","exp","vonmises",15,"ssfOUT_240_2_2_KINGCOBRA","KINGCOBRA",2,0.5,240,"preference"
"ssfOUT_240_2_2_KINGCOBRA.33",0.646581589639313,0.462866493420567,0.830296685858059,"ssf","mf.ss","exp","vonmises",50,"ssfOUT_240_2_2_KINGCOBRA","KINGCOBRA",2,0.5,240,"preference"
"ssfOUT_240_2_2_KINGCOBRA.34",0.636667369927746,0.45415557757982,0.819179162275672,"ssf","mf.ss","exp","vonmises",158,"ssfOUT_240_2_2_KINGCOBRA","KINGCOBRA",2,0.5,240,"preference"
"ssfOUT_240_2_2_KINGCOBRA.35",0.609611349105027,0.427188449326063,0.792034248883991,"ssf","mf.ss","exp","vonmises",500,"ssfOUT_240_2_2_KINGCOBRA","KINGCOBRA",2,0.5,240,"preference"
"ssfOUT_240_2_2_KINGCOBRA.36",0.613573328991441,0.418979591585001,0.808167066397881,"ssf","mf.ss","exp","unif",5,"ssfOUT_240_2_2_KINGCOBRA","KINGCOBRA",2,0.5,240,"preference"
"ssfOUT_240_2_2_KINGCOBRA.37",0.595210424452048,0.408163209718492,0.782257639185604,"ssf","mf.ss","exp","unif",15,"ssfOUT_240_2_2_KINGCOBRA","KINGCOBRA",2,0.5,240,"preference"
"ssfOUT_240_2_2_KINGCOBRA.38",0.624313993168894,0.440972409579746,0.807655576758041,"ssf","mf.ss","exp","unif",50,"ssfOUT_240_2_2_KINGCOBRA","KINGCOBRA",2,0.5,240,"preference"
"ssfOUT_240_2_2_KINGCOBRA.39",0.640471834002785,0.457758260790506,0.823185407215063,"ssf","mf.ss","exp","unif",158,"ssfOUT_240_2_2_KINGCOBRA","KINGCOBRA",2,0.5,240,"preference"
"ssfOUT_240_2_2_KINGCOBRA.40",0.626464548225671,0.444342878579603,0.808586217871738,"ssf","mf.ss","exp","unif",500,"ssfOUT_240_2_2_KINGCOBRA","KINGCOBRA",2,0.5,240,"preference"
"ssfOUT_240_2_3_BADGER.1",0.214879387040643,0.0616366248383825,0.368122149242904,"ssf","mf.is","gamma","vonmises",5,"ssfOUT_240_2_3_BADGER","BADGER",3,0.5,240,"preference"
"ssfOUT_240_2_3_BADGER.2",0.173494997765257,0.0276503592666978,0.319339636263816,"ssf","mf.is","gamma","vonmises",15,"ssfOUT_240_2_3_BADGER","BADGER",3,0.5,240,"preference"
"ssfOUT_240_2_3_BADGER.3",0.211371327685868,0.069517805499909,0.353224849871827,"ssf","mf.is","gamma","vonmises",50,"ssfOUT_240_2_3_BADGER","BADGER",3,0.5,240,"preference"
"ssfOUT_240_2_3_BADGER.4",0.203472550421643,0.0625913480216315,0.344353752821654,"ssf","mf.is","gamma","vonmises",158,"ssfOUT_240_2_3_BADGER","BADGER",3,0.5,240,"preference"
"ssfOUT_240_2_3_BADGER.5",0.204207834103513,0.0636978750350206,0.344717793172006,"ssf","mf.is","gamma","vonmises",500,"ssfOUT_240_2_3_BADGER","BADGER",3,0.5,240,"preference"
"ssfOUT_240_2_3_BADGER.6",0.196747406738013,0.0435696946478523,0.349925118828173,"ssf","mf.is","gamma","unif",5,"ssfOUT_240_2_3_BADGER","BADGER",3,0.5,240,"preference"
"ssfOUT_240_2_3_BADGER.7",0.217514068621984,0.0725686104478659,0.362459526796102,"ssf","mf.is","gamma","unif",15,"ssfOUT_240_2_3_BADGER","BADGER",3,0.5,240,"preference"
"ssfOUT_240_2_3_BADGER.8",0.200003551220933,0.0583052751363943,0.341701827305472,"ssf","mf.is","gamma","unif",50,"ssfOUT_240_2_3_BADGER","BADGER",3,0.5,240,"preference"
"ssfOUT_240_2_3_BADGER.9",0.201517812536266,0.0607020157027059,0.342333609369827,"ssf","mf.is","gamma","unif",158,"ssfOUT_240_2_3_BADGER","BADGER",3,0.5,240,"preference"
"ssfOUT_240_2_3_BADGER.10",0.204812781454231,0.0640688585809419,0.345556704327521,"ssf","mf.is","gamma","unif",500,"ssfOUT_240_2_3_BADGER","BADGER",3,0.5,240,"preference"
"ssfOUT_240_2_3_BADGER.11",0.351609476014944,0.198967697692629,0.50425125433726,"ssf","mf.is","exp","vonmises",5,"ssfOUT_240_2_3_BADGER","BADGER",3,0.5,240,"preference"
"ssfOUT_240_2_3_BADGER.12",0.228752792587144,0.0842386186244374,0.37326696654985,"ssf","mf.is","exp","vonmises",15,"ssfOUT_240_2_3_BADGER","BADGER",3,0.5,240,"preference"
"ssfOUT_240_2_3_BADGER.13",0.220885753187323,0.0790136336074762,0.362757872767169,"ssf","mf.is","exp","vonmises",50,"ssfOUT_240_2_3_BADGER","BADGER",3,0.5,240,"preference"
"ssfOUT_240_2_3_BADGER.14",0.201857970415199,0.0608741533263957,0.342841787504002,"ssf","mf.is","exp","vonmises",158,"ssfOUT_240_2_3_BADGER","BADGER",3,0.5,240,"preference"
"ssfOUT_240_2_3_BADGER.15",0.196298138201596,0.0556216895570064,0.336974586846185,"ssf","mf.is","exp","vonmises",500,"ssfOUT_240_2_3_BADGER","BADGER",3,0.5,240,"preference"
"ssfOUT_240_2_3_BADGER.16",0.232490270274516,0.0793266190587726,0.38565392149026,"ssf","mf.is","exp","unif",5,"ssfOUT_240_2_3_BADGER","BADGER",3,0.5,240,"preference"
"ssfOUT_240_2_3_BADGER.17",0.216592437254532,0.0717724027051081,0.361412471803956,"ssf","mf.is","exp","unif",15,"ssfOUT_240_2_3_BADGER","BADGER",3,0.5,240,"preference"
"ssfOUT_240_2_3_BADGER.18",0.229718428615633,0.0872996131149371,0.37213724411633,"ssf","mf.is","exp","unif",50,"ssfOUT_240_2_3_BADGER","BADGER",3,0.5,240,"preference"
"ssfOUT_240_2_3_BADGER.19",0.204005961406993,0.0630037788615903,0.345008143952395,"ssf","mf.is","exp","unif",158,"ssfOUT_240_2_3_BADGER","BADGER",3,0.5,240,"preference"
"ssfOUT_240_2_3_BADGER.20",0.205671844283278,0.064965262548544,0.346378426018013,"ssf","mf.is","exp","unif",500,"ssfOUT_240_2_3_BADGER","BADGER",3,0.5,240,"preference"
"ssfOUT_240_2_3_BADGER.21",0.216095802763732,0.0628585538929068,0.369333051634558,"ssf","mf.ss","gamma","vonmises",5,"ssfOUT_240_2_3_BADGER","BADGER",3,0.5,240,"preference"
"ssfOUT_240_2_3_BADGER.22",0.172898734332991,0.0270163596248166,0.318781109041165,"ssf","mf.ss","gamma","vonmises",15,"ssfOUT_240_2_3_BADGER","BADGER",3,0.5,240,"preference"
"ssfOUT_240_2_3_BADGER.23",0.210410681690204,0.068508664954305,0.352312698426102,"ssf","mf.ss","gamma","vonmises",50,"ssfOUT_240_2_3_BADGER","BADGER",3,0.5,240,"preference"
"ssfOUT_240_2_3_BADGER.24",0.203020380697577,0.0621005221419046,0.34394023925325,"ssf","mf.ss","gamma","vonmises",158,"ssfOUT_240_2_3_BADGER","BADGER",3,0.5,240,"preference"
"ssfOUT_240_2_3_BADGER.25",0.203765873726844,0.0632214370082348,0.344310310445453,"ssf","mf.ss","gamma","vonmises",500,"ssfOUT_240_2_3_BADGER","BADGER",3,0.5,240,"preference"
"ssfOUT_240_2_3_BADGER.26",0.197240627766754,0.0442537513198836,0.350227504213625,"ssf","mf.ss","gamma","unif",5,"ssfOUT_240_2_3_BADGER","BADGER",3,0.5,240,"preference"
"ssfOUT_240_2_3_BADGER.27",0.216380968583255,0.0715641707031043,0.361197766463405,"ssf","mf.ss","gamma","unif",15,"ssfOUT_240_2_3_BADGER","BADGER",3,0.5,240,"preference"
"ssfOUT_240_2_3_BADGER.28",0.201132085755973,0.0594347996963474,0.342829371815599,"ssf","mf.ss","gamma","unif",50,"ssfOUT_240_2_3_BADGER","BADGER",3,0.5,240,"preference"
"ssfOUT_240_2_3_BADGER.29",0.20300324876266,0.0621477670737811,0.343858730451538,"ssf","mf.ss","gamma","unif",158,"ssfOUT_240_2_3_BADGER","BADGER",3,0.5,240,"preference"
"ssfOUT_240_2_3_BADGER.30",0.205448076076843,0.0646758249648911,0.346220327188795,"ssf","mf.ss","gamma","unif",500,"ssfOUT_240_2_3_BADGER","BADGER",3,0.5,240,"preference"
"ssfOUT_240_2_3_BADGER.31",0.345868389615975,0.193699303408528,0.498037475823421,"ssf","mf.ss","exp","vonmises",5,"ssfOUT_240_2_3_BADGER","BADGER",3,0.5,240,"preference"
"ssfOUT_240_2_3_BADGER.32",0.247691595491935,0.102357318882323,0.393025872101547,"ssf","mf.ss","exp","vonmises",15,"ssfOUT_240_2_3_BADGER","BADGER",3,0.5,240,"preference"
"ssfOUT_240_2_3_BADGER.33",0.239205318041815,0.0965167829400526,0.381893853143578,"ssf","mf.ss","exp","vonmises",50,"ssfOUT_240_2_3_BADGER","BADGER",3,0.5,240,"preference"
"ssfOUT_240_2_3_BADGER.34",0.221287283741854,0.0794911184772485,0.36308344900646,"ssf","mf.ss","exp","vonmises",158,"ssfOUT_240_2_3_BADGER","BADGER",3,0.5,240,"preference"
"ssfOUT_240_2_3_BADGER.35",0.217965111941347,0.0764345114141402,0.359495712468553,"ssf","mf.ss","exp","vonmises",500,"ssfOUT_240_2_3_BADGER","BADGER",3,0.5,240,"preference"
"ssfOUT_240_2_3_BADGER.36",0.251363868538854,0.0978855900785312,0.404842146999177,"ssf","mf.ss","exp","unif",5,"ssfOUT_240_2_3_BADGER","BADGER",3,0.5,240,"preference"
"ssfOUT_240_2_3_BADGER.37",0.246139038441194,0.100879640301072,0.391398436581316,"ssf","mf.ss","exp","unif",15,"ssfOUT_240_2_3_BADGER","BADGER",3,0.5,240,"preference"
"ssfOUT_240_2_3_BADGER.38",0.250412806537102,0.107147584606615,0.393678028467589,"ssf","mf.ss","exp","unif",50,"ssfOUT_240_2_3_BADGER","BADGER",3,0.5,240,"preference"
"ssfOUT_240_2_3_BADGER.39",0.22309035834896,0.0812269102730924,0.364953806424827,"ssf","mf.ss","exp","unif",158,"ssfOUT_240_2_3_BADGER","BADGER",3,0.5,240,"preference"
"ssfOUT_240_2_3_BADGER.40",0.225414165657091,0.0838758228069115,0.36695250850727,"ssf","mf.ss","exp","unif",500,"ssfOUT_240_2_3_BADGER","BADGER",3,0.5,240,"preference"
"ssfOUT_240_2_3_VULTURE.1",0.31535277953425,0.13423114461773,0.496474414450769,"ssf","mf.is","gamma","vonmises",5,"ssfOUT_240_2_3_VULTURE","VULTURE",3,0.5,240,"preference"
"ssfOUT_240_2_3_VULTURE.2",0.2974958800315,0.127368926839462,0.467622833223538,"ssf","mf.is","gamma","vonmises",15,"ssfOUT_240_2_3_VULTURE","VULTURE",3,0.5,240,"preference"
"ssfOUT_240_2_3_VULTURE.3",0.325302086497354,0.158458934414396,0.492145238580311,"ssf","mf.is","gamma","vonmises",50,"ssfOUT_240_2_3_VULTURE","VULTURE",3,0.5,240,"preference"
"ssfOUT_240_2_3_VULTURE.4",0.323217707545473,0.157268336060782,0.489167079030164,"ssf","mf.is","gamma","vonmises",158,"ssfOUT_240_2_3_VULTURE","VULTURE",3,0.5,240,"preference"
"ssfOUT_240_2_3_VULTURE.5",0.310513084428901,0.144936996684533,0.476089172173269,"ssf","mf.is","gamma","vonmises",500,"ssfOUT_240_2_3_VULTURE","VULTURE",3,0.5,240,"preference"
"ssfOUT_240_2_3_VULTURE.6",0.22177368082853,0.0412324230168179,0.402314938640241,"ssf","mf.is","gamma","unif",5,"ssfOUT_240_2_3_VULTURE","VULTURE",3,0.5,240,"preference"
"ssfOUT_240_2_3_VULTURE.7",0.372352912164697,0.202075044888227,0.542630779441168,"ssf","mf.is","gamma","unif",15,"ssfOUT_240_2_3_VULTURE","VULTURE",3,0.5,240,"preference"
"ssfOUT_240_2_3_VULTURE.8",0.31572810761093,0.148936444247254,0.482519770974606,"ssf","mf.is","gamma","unif",50,"ssfOUT_240_2_3_VULTURE","VULTURE",3,0.5,240,"preference"
"ssfOUT_240_2_3_VULTURE.9",0.309797055618788,0.144100320907026,0.47549379033055,"ssf","mf.is","gamma","unif",158,"ssfOUT_240_2_3_VULTURE","VULTURE",3,0.5,240,"preference"
"ssfOUT_240_2_3_VULTURE.10",0.317644804418484,0.152134489458305,0.483155119378662,"ssf","mf.is","gamma","unif",500,"ssfOUT_240_2_3_VULTURE","VULTURE",3,0.5,240,"preference"
"ssfOUT_240_2_3_VULTURE.11",0.373010710154846,0.187227789508492,0.5587936308012,"ssf","mf.is","exp","vonmises",5,"ssfOUT_240_2_3_VULTURE","VULTURE",3,0.5,240,"preference"
"ssfOUT_240_2_3_VULTURE.12",0.334330566557641,0.162324613094447,0.506336520020836,"ssf","mf.is","exp","vonmises",15,"ssfOUT_240_2_3_VULTURE","VULTURE",3,0.5,240,"preference"
"ssfOUT_240_2_3_VULTURE.13",0.307743323193301,0.140276507291594,0.475210139095008,"ssf","mf.is","exp","vonmises",50,"ssfOUT_240_2_3_VULTURE","VULTURE",3,0.5,240,"preference"
"ssfOUT_240_2_3_VULTURE.14",0.327069883261451,0.161160695042302,0.4929790714806,"ssf","mf.is","exp","vonmises",158,"ssfOUT_240_2_3_VULTURE","VULTURE",3,0.5,240,"preference"
"ssfOUT_240_2_3_VULTURE.15",0.32677713708501,0.161243270401934,0.492311003768087,"ssf","mf.is","exp","vonmises",500,"ssfOUT_240_2_3_VULTURE","VULTURE",3,0.5,240,"preference"
"ssfOUT_240_2_3_VULTURE.16",0.35184112976426,0.167074852514392,0.536607407014127,"ssf","mf.is","exp","unif",5,"ssfOUT_240_2_3_VULTURE","VULTURE",3,0.5,240,"preference"
"ssfOUT_240_2_3_VULTURE.17",0.341707370608201,0.170113808505859,0.513300932710542,"ssf","mf.is","exp","unif",15,"ssfOUT_240_2_3_VULTURE","VULTURE",3,0.5,240,"preference"
"ssfOUT_240_2_3_VULTURE.18",0.274413310985318,0.107279861893453,0.441546760077184,"ssf","mf.is","exp","unif",50,"ssfOUT_240_2_3_VULTURE","VULTURE",3,0.5,240,"preference"
"ssfOUT_240_2_3_VULTURE.19",0.316388358471732,0.150441565685509,0.482335151257955,"ssf","mf.is","exp","unif",158,"ssfOUT_240_2_3_VULTURE","VULTURE",3,0.5,240,"preference"
"ssfOUT_240_2_3_VULTURE.20",0.31749120477666,0.151949413514218,0.483032996039102,"ssf","mf.is","exp","unif",500,"ssfOUT_240_2_3_VULTURE","VULTURE",3,0.5,240,"preference"
"ssfOUT_240_2_3_VULTURE.21",0.309736323508528,0.128529726571811,0.490942920445246,"ssf","mf.ss","gamma","vonmises",5,"ssfOUT_240_2_3_VULTURE","VULTURE",3,0.5,240,"preference"
"ssfOUT_240_2_3_VULTURE.22",0.290953205099538,0.120875009646144,0.461031400552931,"ssf","mf.ss","gamma","vonmises",15,"ssfOUT_240_2_3_VULTURE","VULTURE",3,0.5,240,"preference"
"ssfOUT_240_2_3_VULTURE.23",0.316161085337038,0.149411173390963,0.482910997283113,"ssf","mf.ss","gamma","vonmises",50,"ssfOUT_240_2_3_VULTURE","VULTURE",3,0.5,240,"preference"
"ssfOUT_240_2_3_VULTURE.24",0.315946228372962,0.150007503036334,0.48188495370959,"ssf","mf.ss","gamma","vonmises",158,"ssfOUT_240_2_3_VULTURE","VULTURE",3,0.5,240,"preference"
"ssfOUT_240_2_3_VULTURE.25",0.302518351826499,0.136956873769483,0.468079829883515,"ssf","mf.ss","gamma","vonmises",500,"ssfOUT_240_2_3_VULTURE","VULTURE",3,0.5,240,"preference"
"ssfOUT_240_2_3_VULTURE.26",0.222152672701169,0.0418895840972391,0.402415761305099,"ssf","mf.ss","gamma","unif",5,"ssfOUT_240_2_3_VULTURE","VULTURE",3,0.5,240,"preference"
"ssfOUT_240_2_3_VULTURE.27",0.369065268084551,0.198864527935565,0.539266008233537,"ssf","mf.ss","gamma","unif",15,"ssfOUT_240_2_3_VULTURE","VULTURE",3,0.5,240,"preference"
"ssfOUT_240_2_3_VULTURE.28",0.313792443298256,0.147020144160143,0.48056474243637,"ssf","mf.ss","gamma","unif",50,"ssfOUT_240_2_3_VULTURE","VULTURE",3,0.5,240,"preference"
"ssfOUT_240_2_3_VULTURE.29",0.307437348204882,0.141774044419792,0.473100651989972,"ssf","mf.ss","gamma","unif",158,"ssfOUT_240_2_3_VULTURE","VULTURE",3,0.5,240,"preference"
"ssfOUT_240_2_3_VULTURE.30",0.314458299080203,0.148974564548132,0.479942033612273,"ssf","mf.ss","gamma","unif",500,"ssfOUT_240_2_3_VULTURE","VULTURE",3,0.5,240,"preference"
"ssfOUT_240_2_3_VULTURE.31",0.389230773661385,0.209123758486028,0.569337788836742,"ssf","mf.ss","exp","vonmises",5,"ssfOUT_240_2_3_VULTURE","VULTURE",3,0.5,240,"preference"
"ssfOUT_240_2_3_VULTURE.32",0.356615356777747,0.185685691350487,0.527545022205007,"ssf","mf.ss","exp","vonmises",15,"ssfOUT_240_2_3_VULTURE","VULTURE",3,0.5,240,"preference"
"ssfOUT_240_2_3_VULTURE.33",0.326831326243047,0.158970698371569,0.494691954114524,"ssf","mf.ss","exp","vonmises",50,"ssfOUT_240_2_3_VULTURE","VULTURE",3,0.5,240,"preference"
"ssfOUT_240_2_3_VULTURE.34",0.348695749656572,0.182040069152934,0.515351430160209,"ssf","mf.ss","exp","vonmises",158,"ssfOUT_240_2_3_VULTURE","VULTURE",3,0.5,240,"preference"
"ssfOUT_240_2_3_VULTURE.35",0.355553434701606,0.189050035662193,0.52205683374102,"ssf","mf.ss","exp","vonmises",500,"ssfOUT_240_2_3_VULTURE","VULTURE",3,0.5,240,"preference"
"ssfOUT_240_2_3_VULTURE.36",0.332743855596455,0.152119988715141,0.513367722477768,"ssf","mf.ss","exp","unif",5,"ssfOUT_240_2_3_VULTURE","VULTURE",3,0.5,240,"preference"
"ssfOUT_240_2_3_VULTURE.37",0.361041883273961,0.19011740240436,0.531966364143562,"ssf","mf.ss","exp","unif",15,"ssfOUT_240_2_3_VULTURE","VULTURE",3,0.5,240,"preference"
"ssfOUT_240_2_3_VULTURE.38",0.328807517216338,0.16114652355864,0.496468510874036,"ssf","mf.ss","exp","unif",50,"ssfOUT_240_2_3_VULTURE","VULTURE",3,0.5,240,"preference"
"ssfOUT_240_2_3_VULTURE.39",0.36328157533833,0.196447117099476,0.530116033577185,"ssf","mf.ss","exp","unif",158,"ssfOUT_240_2_3_VULTURE","VULTURE",3,0.5,240,"preference"
"ssfOUT_240_2_3_VULTURE.40",0.351769976086277,0.185278650992456,0.518261301180098,"ssf","mf.ss","exp","unif",500,"ssfOUT_240_2_3_VULTURE","VULTURE",3,0.5,240,"preference"
"ssfOUT_240_2_3_KINGCOBRA.1",0.596854580337024,0.247438648009454,0.946270512664593,"ssf","mf.is","gamma","vonmises",5,"ssfOUT_240_2_3_KINGCOBRA","KINGCOBRA",3,0.5,240,"preference"
"ssfOUT_240_2_3_KINGCOBRA.2",0.412844016591482,0.0794855129603819,0.746202520222583,"ssf","mf.is","gamma","vonmises",15,"ssfOUT_240_2_3_KINGCOBRA","KINGCOBRA",3,0.5,240,"preference"
"ssfOUT_240_2_3_KINGCOBRA.3",0.516758693042325,0.19094948838876,0.842567897695891,"ssf","mf.is","gamma","vonmises",50,"ssfOUT_240_2_3_KINGCOBRA","KINGCOBRA",3,0.5,240,"preference"
"ssfOUT_240_2_3_KINGCOBRA.4",0.470485965601477,0.144026037258675,0.79694589394428,"ssf","mf.is","gamma","vonmises",158,"ssfOUT_240_2_3_KINGCOBRA","KINGCOBRA",3,0.5,240,"preference"
"ssfOUT_240_2_3_KINGCOBRA.5",0.457605773750564,0.134506545291782,0.780705002209347,"ssf","mf.is","gamma","vonmises",500,"ssfOUT_240_2_3_KINGCOBRA","KINGCOBRA",3,0.5,240,"preference"
"ssfOUT_240_2_3_KINGCOBRA.6",0.40492778007947,0.0594464120046276,0.750409148154312,"ssf","mf.is","gamma","unif",5,"ssfOUT_240_2_3_KINGCOBRA","KINGCOBRA",3,0.5,240,"preference"
"ssfOUT_240_2_3_KINGCOBRA.7",0.414653132194456,0.0856941852116637,0.743612079177247,"ssf","mf.is","gamma","unif",15,"ssfOUT_240_2_3_KINGCOBRA","KINGCOBRA",3,0.5,240,"preference"
"ssfOUT_240_2_3_KINGCOBRA.8",0.389370525553478,0.0637719783677226,0.714969072739234,"ssf","mf.is","gamma","unif",50,"ssfOUT_240_2_3_KINGCOBRA","KINGCOBRA",3,0.5,240,"preference"
"ssfOUT_240_2_3_KINGCOBRA.9",0.471754743500902,0.149225227407858,0.794284259593945,"ssf","mf.is","gamma","unif",158,"ssfOUT_240_2_3_KINGCOBRA","KINGCOBRA",3,0.5,240,"preference"
"ssfOUT_240_2_3_KINGCOBRA.10",0.462134603112148,0.139644298787081,0.784624907437215,"ssf","mf.is","gamma","unif",500,"ssfOUT_240_2_3_KINGCOBRA","KINGCOBRA",3,0.5,240,"preference"
"ssfOUT_240_2_3_KINGCOBRA.11",0.56090137590799,0.195061051812292,0.926741700003688,"ssf","mf.is","exp","vonmises",5,"ssfOUT_240_2_3_KINGCOBRA","KINGCOBRA",3,0.5,240,"preference"
"ssfOUT_240_2_3_KINGCOBRA.12",0.370649993340765,0.0288206575385871,0.712479329142943,"ssf","mf.is","exp","vonmises",15,"ssfOUT_240_2_3_KINGCOBRA","KINGCOBRA",3,0.5,240,"preference"
"ssfOUT_240_2_3_KINGCOBRA.13",0.399336764003106,0.0705166174101999,0.728156910596011,"ssf","mf.is","exp","vonmises",50,"ssfOUT_240_2_3_KINGCOBRA","KINGCOBRA",3,0.5,240,"preference"
"ssfOUT_240_2_3_KINGCOBRA.14",0.647286958588313,0.30785484968578,0.986719067490846,"ssf","mf.is","exp","vonmises",158,"ssfOUT_240_2_3_KINGCOBRA","KINGCOBRA",3,0.5,240,"preference"
"ssfOUT_240_2_3_KINGCOBRA.15",0.486466258335238,0.161568092817752,0.811364423852724,"ssf","mf.is","exp","vonmises",500,"ssfOUT_240_2_3_KINGCOBRA","KINGCOBRA",3,0.5,240,"preference"
"ssfOUT_240_2_3_KINGCOBRA.16",0.199329417744176,-0.179859150378813,0.578517985867165,"ssf","mf.is","exp","unif",5,"ssfOUT_240_2_3_KINGCOBRA","KINGCOBRA",3,0.5,240,"no effect"
"ssfOUT_240_2_3_KINGCOBRA.17",0.60676417062929,0.265861705332385,0.947666635926194,"ssf","mf.is","exp","unif",15,"ssfOUT_240_2_3_KINGCOBRA","KINGCOBRA",3,0.5,240,"preference"
"ssfOUT_240_2_3_KINGCOBRA.18",0.38651081215086,0.0552423219386384,0.717779302363081,"ssf","mf.is","exp","unif",50,"ssfOUT_240_2_3_KINGCOBRA","KINGCOBRA",3,0.5,240,"preference"
"ssfOUT_240_2_3_KINGCOBRA.19",0.520971350469109,0.191017251555502,0.850925449382716,"ssf","mf.is","exp","unif",158,"ssfOUT_240_2_3_KINGCOBRA","KINGCOBRA",3,0.5,240,"preference"
"ssfOUT_240_2_3_KINGCOBRA.20",0.545295004775458,0.215697358823886,0.87489265072703,"ssf","mf.is","exp","unif",500,"ssfOUT_240_2_3_KINGCOBRA","KINGCOBRA",3,0.5,240,"preference"
"ssfOUT_240_2_3_KINGCOBRA.21",0.593151362173013,0.244329706913586,0.94197301743244,"ssf","mf.ss","gamma","vonmises",5,"ssfOUT_240_2_3_KINGCOBRA","KINGCOBRA",3,0.5,240,"preference"
"ssfOUT_240_2_3_KINGCOBRA.22",0.376667961828014,0.04202251296132,0.711313410694708,"ssf","mf.ss","gamma","vonmises",15,"ssfOUT_240_2_3_KINGCOBRA","KINGCOBRA",3,0.5,240,"preference"
"ssfOUT_240_2_3_KINGCOBRA.23",0.468602574976328,0.140932472604871,0.796272677347784,"ssf","mf.ss","gamma","vonmises",50,"ssfOUT_240_2_3_KINGCOBRA","KINGCOBRA",3,0.5,240,"preference"
"ssfOUT_240_2_3_KINGCOBRA.24",0.417026365845987,0.0887905006351231,0.745262231056851,"ssf","mf.ss","gamma","vonmises",158,"ssfOUT_240_2_3_KINGCOBRA","KINGCOBRA",3,0.5,240,"preference"
"ssfOUT_240_2_3_KINGCOBRA.25",0.409379460631246,0.0844323685684844,0.734326552694008,"ssf","mf.ss","gamma","vonmises",500,"ssfOUT_240_2_3_KINGCOBRA","KINGCOBRA",3,0.5,240,"preference"
"ssfOUT_240_2_3_KINGCOBRA.26",0.386519450402913,0.0399696240486717,0.733069276757155,"ssf","mf.ss","gamma","unif",5,"ssfOUT_240_2_3_KINGCOBRA","KINGCOBRA",3,0.5,240,"preference"
"ssfOUT_240_2_3_KINGCOBRA.27",0.381047096251461,0.0514562350600212,0.710637957442902,"ssf","mf.ss","gamma","unif",15,"ssfOUT_240_2_3_KINGCOBRA","KINGCOBRA",3,0.5,240,"preference"
"ssfOUT_240_2_3_KINGCOBRA.28",0.341120866122138,0.0142620433747676,0.667979688869509,"ssf","mf.ss","gamma","unif",50,"ssfOUT_240_2_3_KINGCOBRA","KINGCOBRA",3,0.5,240,"preference"
"ssfOUT_240_2_3_KINGCOBRA.29",0.435984324144425,0.112057309036708,0.759911339252143,"ssf","mf.ss","gamma","unif",158,"ssfOUT_240_2_3_KINGCOBRA","KINGCOBRA",3,0.5,240,"preference"
"ssfOUT_240_2_3_KINGCOBRA.30",0.424799122688867,0.100769418228283,0.748828827149451,"ssf","mf.ss","gamma","unif",500,"ssfOUT_240_2_3_KINGCOBRA","KINGCOBRA",3,0.5,240,"preference"
"ssfOUT_240_2_3_KINGCOBRA.31",0.380431305922634,0.0358314788379429,0.725031133007324,"ssf","mf.ss","exp","vonmises",5,"ssfOUT_240_2_3_KINGCOBRA","KINGCOBRA",3,0.5,240,"preference"
"ssfOUT_240_2_3_KINGCOBRA.32",0.201010377329243,-0.127062879313508,0.529083633971995,"ssf","mf.ss","exp","vonmises",15,"ssfOUT_240_2_3_KINGCOBRA","KINGCOBRA",3,0.5,240,"no effect"
"ssfOUT_240_2_3_KINGCOBRA.33",0.259895131550216,-0.0615207056149429,0.581310968715375,"ssf","mf.ss","exp","vonmises",50,"ssfOUT_240_2_3_KINGCOBRA","KINGCOBRA",3,0.5,240,"no effect"
"ssfOUT_240_2_3_KINGCOBRA.34",0.175937721561617,-0.144112728355117,0.495988171478352,"ssf","mf.ss","exp","vonmises",158,"ssfOUT_240_2_3_KINGCOBRA","KINGCOBRA",3,0.5,240,"no effect"
"ssfOUT_240_2_3_KINGCOBRA.35",0.1822614168467,-0.136668955415414,0.501191789108813,"ssf","mf.ss","exp","vonmises",500,"ssfOUT_240_2_3_KINGCOBRA","KINGCOBRA",3,0.5,240,"no effect"
"ssfOUT_240_2_3_KINGCOBRA.36",0.0832272494814775,-0.265515005773253,0.431969504736207,"ssf","mf.ss","exp","unif",5,"ssfOUT_240_2_3_KINGCOBRA","KINGCOBRA",3,0.5,240,"no effect"
"ssfOUT_240_2_3_KINGCOBRA.37",0.336175338138704,0.0063104555860044,0.666040220691403,"ssf","mf.ss","exp","unif",15,"ssfOUT_240_2_3_KINGCOBRA","KINGCOBRA",3,0.5,240,"preference"
"ssfOUT_240_2_3_KINGCOBRA.38",0.194665733537172,-0.126634416547046,0.51596588362139,"ssf","mf.ss","exp","unif",50,"ssfOUT_240_2_3_KINGCOBRA","KINGCOBRA",3,0.5,240,"no effect"
"ssfOUT_240_2_3_KINGCOBRA.39",0.24293591314916,-0.0777704206133076,0.563642246911628,"ssf","mf.ss","exp","unif",158,"ssfOUT_240_2_3_KINGCOBRA","KINGCOBRA",3,0.5,240,"no effect"
"ssfOUT_240_2_3_KINGCOBRA.40",0.245075053291259,-0.0730032452647055,0.563153351847223,"ssf","mf.ss","exp","unif",500,"ssfOUT_240_2_3_KINGCOBRA","KINGCOBRA",3,0.5,240,"no effect"
"ssfOUT_240_2_4_BADGER.1",0.411819579806359,0.254671017235645,0.568968142377073,"ssf","mf.is","gamma","vonmises",5,"ssfOUT_240_2_4_BADGER","BADGER",4,0.5,240,"preference"
"ssfOUT_240_2_4_BADGER.2",0.466064545758744,0.315747340099879,0.616381751417608,"ssf","mf.is","gamma","vonmises",15,"ssfOUT_240_2_4_BADGER","BADGER",4,0.5,240,"preference"
"ssfOUT_240_2_4_BADGER.3",0.457439577026256,0.309965548480454,0.604913605572059,"ssf","mf.is","gamma","vonmises",50,"ssfOUT_240_2_4_BADGER","BADGER",4,0.5,240,"preference"
"ssfOUT_240_2_4_BADGER.4",0.481108031231403,0.334653850660816,0.62756221180199,"ssf","mf.is","gamma","vonmises",158,"ssfOUT_240_2_4_BADGER","BADGER",4,0.5,240,"preference"
"ssfOUT_240_2_4_BADGER.5",0.48011164573465,0.334076436115075,0.626146855354225,"ssf","mf.is","gamma","vonmises",500,"ssfOUT_240_2_4_BADGER","BADGER",4,0.5,240,"preference"
"ssfOUT_240_2_4_BADGER.6",0.439316239933434,0.282636086029163,0.595996393837705,"ssf","mf.is","gamma","unif",5,"ssfOUT_240_2_4_BADGER","BADGER",4,0.5,240,"preference"
"ssfOUT_240_2_4_BADGER.7",0.492578610424886,0.34305611017243,0.642101110677342,"ssf","mf.is","gamma","unif",15,"ssfOUT_240_2_4_BADGER","BADGER",4,0.5,240,"preference"
"ssfOUT_240_2_4_BADGER.8",0.477040970325641,0.33010634740048,0.623975593250803,"ssf","mf.is","gamma","unif",50,"ssfOUT_240_2_4_BADGER","BADGER",4,0.5,240,"preference"
"ssfOUT_240_2_4_BADGER.9",0.481647391615,0.335272822017308,0.628021961212692,"ssf","mf.is","gamma","unif",158,"ssfOUT_240_2_4_BADGER","BADGER",4,0.5,240,"preference"
"ssfOUT_240_2_4_BADGER.10",0.480694588428948,0.334674722087022,0.626714454770875,"ssf","mf.is","gamma","unif",500,"ssfOUT_240_2_4_BADGER","BADGER",4,0.5,240,"preference"
"ssfOUT_240_2_4_BADGER.11",0.551467253067047,0.395075912341448,0.707858593792646,"ssf","mf.is","exp","vonmises",5,"ssfOUT_240_2_4_BADGER","BADGER",4,0.5,240,"preference"
"ssfOUT_240_2_4_BADGER.12",0.458243249530968,0.308482064486829,0.608004434575108,"ssf","mf.is","exp","vonmises",15,"ssfOUT_240_2_4_BADGER","BADGER",4,0.5,240,"preference"
"ssfOUT_240_2_4_BADGER.13",0.498822055932413,0.351932406163514,0.645711705701312,"ssf","mf.is","exp","vonmises",50,"ssfOUT_240_2_4_BADGER","BADGER",4,0.5,240,"preference"
"ssfOUT_240_2_4_BADGER.14",0.488632519907518,0.342157758634947,0.635107281180089,"ssf","mf.is","exp","vonmises",158,"ssfOUT_240_2_4_BADGER","BADGER",4,0.5,240,"preference"
"ssfOUT_240_2_4_BADGER.15",0.472462347691038,0.326350025093869,0.618574670288208,"ssf","mf.is","exp","vonmises",500,"ssfOUT_240_2_4_BADGER","BADGER",4,0.5,240,"preference"
"ssfOUT_240_2_4_BADGER.16",0.520516600479575,0.363500134424603,0.677533066534548,"ssf","mf.is","exp","unif",5,"ssfOUT_240_2_4_BADGER","BADGER",4,0.5,240,"preference"
"ssfOUT_240_2_4_BADGER.17",0.526240028918731,0.375372020409883,0.67710803742758,"ssf","mf.is","exp","unif",15,"ssfOUT_240_2_4_BADGER","BADGER",4,0.5,240,"preference"
"ssfOUT_240_2_4_BADGER.18",0.483861014763391,0.336496062620641,0.631225966906141,"ssf","mf.is","exp","unif",50,"ssfOUT_240_2_4_BADGER","BADGER",4,0.5,240,"preference"
"ssfOUT_240_2_4_BADGER.19",0.463535130792357,0.317172811609029,0.609897449975686,"ssf","mf.is","exp","unif",158,"ssfOUT_240_2_4_BADGER","BADGER",4,0.5,240,"preference"
"ssfOUT_240_2_4_BADGER.20",0.463929997764217,0.317789426074486,0.610070569453948,"ssf","mf.is","exp","unif",500,"ssfOUT_240_2_4_BADGER","BADGER",4,0.5,240,"preference"
"ssfOUT_240_2_4_BADGER.21",0.408264236379993,0.251156330974351,0.565372141785636,"ssf","mf.ss","gamma","vonmises",5,"ssfOUT_240_2_4_BADGER","BADGER",4,0.5,240,"preference"
"ssfOUT_240_2_4_BADGER.22",0.463024702044181,0.312610089475787,0.613439314612574,"ssf","mf.ss","gamma","vonmises",15,"ssfOUT_240_2_4_BADGER","BADGER",4,0.5,240,"preference"
"ssfOUT_240_2_4_BADGER.23",0.455597358434067,0.308035685026572,0.603159031841562,"ssf","mf.ss","gamma","vonmises",50,"ssfOUT_240_2_4_BADGER","BADGER",4,0.5,240,"preference"
"ssfOUT_240_2_4_BADGER.24",0.479144246942453,0.332614781433814,0.625673712451091,"ssf","mf.ss","gamma","vonmises",158,"ssfOUT_240_2_4_BADGER","BADGER",4,0.5,240,"preference"
"ssfOUT_240_2_4_BADGER.25",0.477823667834495,0.331706253926176,0.623941081742815,"ssf","mf.ss","gamma","vonmises",500,"ssfOUT_240_2_4_BADGER","BADGER",4,0.5,240,"preference"
"ssfOUT_240_2_4_BADGER.26",0.439070547303481,0.282404506375398,0.595736588231565,"ssf","mf.ss","gamma","unif",5,"ssfOUT_240_2_4_BADGER","BADGER",4,0.5,240,"preference"
"ssfOUT_240_2_4_BADGER.27",0.492141341119361,0.342529080068503,0.64175360217022,"ssf","mf.ss","gamma","unif",15,"ssfOUT_240_2_4_BADGER","BADGER",4,0.5,240,"preference"
"ssfOUT_240_2_4_BADGER.28",0.476928469636431,0.329908411233955,0.623948528038906,"ssf","mf.ss","gamma","unif",50,"ssfOUT_240_2_4_BADGER","BADGER",4,0.5,240,"preference"
"ssfOUT_240_2_4_BADGER.29",0.481787066212554,0.335318365860597,0.628255766564512,"ssf","mf.ss","gamma","unif",158,"ssfOUT_240_2_4_BADGER","BADGER",4,0.5,240,"preference"
"ssfOUT_240_2_4_BADGER.30",0.481046174181986,0.334937293512203,0.627155054851769,"ssf","mf.ss","gamma","unif",500,"ssfOUT_240_2_4_BADGER","BADGER",4,0.5,240,"preference"
"ssfOUT_240_2_4_BADGER.31",0.519271679370288,0.362903657969381,0.675639700771194,"ssf","mf.ss","exp","vonmises",5,"ssfOUT_240_2_4_BADGER","BADGER",4,0.5,240,"preference"
"ssfOUT_240_2_4_BADGER.32",0.433288690561697,0.282939650847924,0.58363773027547,"ssf","mf.ss","exp","vonmises",15,"ssfOUT_240_2_4_BADGER","BADGER",4,0.5,240,"preference"
"ssfOUT_240_2_4_BADGER.33",0.475497443861568,0.327857553857971,0.623137333865166,"ssf","mf.ss","exp","vonmises",50,"ssfOUT_240_2_4_BADGER","BADGER",4,0.5,240,"preference"
"ssfOUT_240_2_4_BADGER.34",0.474994266529183,0.327581079207788,0.622407453850578,"ssf","mf.ss","exp","vonmises",158,"ssfOUT_240_2_4_BADGER","BADGER",4,0.5,240,"preference"
"ssfOUT_240_2_4_BADGER.35",0.453238930132394,0.306238683776939,0.600239176487849,"ssf","mf.ss","exp","vonmises",500,"ssfOUT_240_2_4_BADGER","BADGER",4,0.5,240,"preference"
"ssfOUT_240_2_4_BADGER.36",0.487854265773428,0.330649836090439,0.645058695456418,"ssf","mf.ss","exp","unif",5,"ssfOUT_240_2_4_BADGER","BADGER",4,0.5,240,"preference"
"ssfOUT_240_2_4_BADGER.37",0.498995899335865,0.34723239389333,0.650759404778399,"ssf","mf.ss","exp","unif",15,"ssfOUT_240_2_4_BADGER","BADGER",4,0.5,240,"preference"
"ssfOUT_240_2_4_BADGER.38",0.462698662989434,0.314516681935625,0.610880644043243,"ssf","mf.ss","exp","unif",50,"ssfOUT_240_2_4_BADGER","BADGER",4,0.5,240,"preference"
"ssfOUT_240_2_4_BADGER.39",0.448818885292713,0.301498655172922,0.596139115412504,"ssf","mf.ss","exp","unif",158,"ssfOUT_240_2_4_BADGER","BADGER",4,0.5,240,"preference"
"ssfOUT_240_2_4_BADGER.40",0.445339869106402,0.298294335903026,0.592385402309779,"ssf","mf.ss","exp","unif",500,"ssfOUT_240_2_4_BADGER","BADGER",4,0.5,240,"preference"
"ssfOUT_240_2_4_VULTURE.1",0.534224522338112,0.367239209380448,0.701209835295776,"ssf","mf.is","gamma","vonmises",5,"ssfOUT_240_2_4_VULTURE","VULTURE",4,0.5,240,"preference"
"ssfOUT_240_2_4_VULTURE.2",0.578892294650804,0.418971403544785,0.738813185756824,"ssf","mf.is","gamma","vonmises",15,"ssfOUT_240_2_4_VULTURE","VULTURE",4,0.5,240,"preference"
"ssfOUT_240_2_4_VULTURE.3",0.585081273198632,0.427412189181918,0.742750357215347,"ssf","mf.is","gamma","vonmises",50,"ssfOUT_240_2_4_VULTURE","VULTURE",4,0.5,240,"preference"
"ssfOUT_240_2_4_VULTURE.4",0.542271430676226,0.385363636418162,0.699179224934289,"ssf","mf.is","gamma","vonmises",158,"ssfOUT_240_2_4_VULTURE","VULTURE",4,0.5,240,"preference"
"ssfOUT_240_2_4_VULTURE.5",0.555067430835121,0.398431530871229,0.711703330799012,"ssf","mf.is","gamma","vonmises",500,"ssfOUT_240_2_4_VULTURE","VULTURE",4,0.5,240,"preference"
"ssfOUT_240_2_4_VULTURE.6",0.57789351999223,0.411483110676821,0.74430392930764,"ssf","mf.is","gamma","unif",5,"ssfOUT_240_2_4_VULTURE","VULTURE",4,0.5,240,"preference"
"ssfOUT_240_2_4_VULTURE.7",0.55129551563073,0.391376571597307,0.711214459664153,"ssf","mf.is","gamma","unif",15,"ssfOUT_240_2_4_VULTURE","VULTURE",4,0.5,240,"preference"
"ssfOUT_240_2_4_VULTURE.8",0.548273195007213,0.390571254577517,0.705975135436909,"ssf","mf.is","gamma","unif",50,"ssfOUT_240_2_4_VULTURE","VULTURE",4,0.5,240,"preference"
"ssfOUT_240_2_4_VULTURE.9",0.550851828695189,0.393970897256613,0.707732760133765,"ssf","mf.is","gamma","unif",158,"ssfOUT_240_2_4_VULTURE","VULTURE",4,0.5,240,"preference"
"ssfOUT_240_2_4_VULTURE.10",0.543063809294203,0.386411124610474,0.699716493977933,"ssf","mf.is","gamma","unif",500,"ssfOUT_240_2_4_VULTURE","VULTURE",4,0.5,240,"preference"
"ssfOUT_240_2_4_VULTURE.11",0.546145833709442,0.375599641372691,0.716692026046194,"ssf","mf.is","exp","vonmises",5,"ssfOUT_240_2_4_VULTURE","VULTURE",4,0.5,240,"preference"
"ssfOUT_240_2_4_VULTURE.12",0.462221854968626,0.300736690712252,0.623707019225001,"ssf","mf.is","exp","vonmises",15,"ssfOUT_240_2_4_VULTURE","VULTURE",4,0.5,240,"preference"
"ssfOUT_240_2_4_VULTURE.13",0.577771015488061,0.419866936632796,0.735675094343327,"ssf","mf.is","exp","vonmises",50,"ssfOUT_240_2_4_VULTURE","VULTURE",4,0.5,240,"preference"
"ssfOUT_240_2_4_VULTURE.14",0.554445758616544,0.397318362621323,0.711573154611765,"ssf","mf.is","exp","vonmises",158,"ssfOUT_240_2_4_VULTURE","VULTURE",4,0.5,240,"preference"
"ssfOUT_240_2_4_VULTURE.15",0.56500840847739,0.408314892662016,0.721701924292764,"ssf","mf.is","exp","vonmises",500,"ssfOUT_240_2_4_VULTURE","VULTURE",4,0.5,240,"preference"
"ssfOUT_240_2_4_VULTURE.16",0.55858422539007,0.388724784445969,0.72844366633417,"ssf","mf.is","exp","unif",5,"ssfOUT_240_2_4_VULTURE","VULTURE",4,0.5,240,"preference"
"ssfOUT_240_2_4_VULTURE.17",0.559258266423369,0.398086142658935,0.720430390187802,"ssf","mf.is","exp","unif",15,"ssfOUT_240_2_4_VULTURE","VULTURE",4,0.5,240,"preference"
"ssfOUT_240_2_4_VULTURE.18",0.577261792415407,0.419259164618422,0.735264420212391,"ssf","mf.is","exp","unif",50,"ssfOUT_240_2_4_VULTURE","VULTURE",4,0.5,240,"preference"
"ssfOUT_240_2_4_VULTURE.19",0.545209306355755,0.388209007831694,0.702209604879816,"ssf","mf.is","exp","unif",158,"ssfOUT_240_2_4_VULTURE","VULTURE",4,0.5,240,"preference"
"ssfOUT_240_2_4_VULTURE.20",0.556508447238165,0.399772808037703,0.713244086438627,"ssf","mf.is","exp","unif",500,"ssfOUT_240_2_4_VULTURE","VULTURE",4,0.5,240,"preference"
"ssfOUT_240_2_4_VULTURE.21",0.534734629227543,0.367875161717044,0.701594096738041,"ssf","mf.ss","gamma","vonmises",5,"ssfOUT_240_2_4_VULTURE","VULTURE",4,0.5,240,"preference"
"ssfOUT_240_2_4_VULTURE.22",0.576585269303719,0.416719874471664,0.736450664135774,"ssf","mf.ss","gamma","vonmises",15,"ssfOUT_240_2_4_VULTURE","VULTURE",4,0.5,240,"preference"
"ssfOUT_240_2_4_VULTURE.23",0.583110618799786,0.425474897335323,0.740746340264249,"ssf","mf.ss","gamma","vonmises",50,"ssfOUT_240_2_4_VULTURE","VULTURE",4,0.5,240,"preference"
"ssfOUT_240_2_4_VULTURE.24",0.540622957729494,0.383737034132387,0.697508881326601,"ssf","mf.ss","gamma","vonmises",158,"ssfOUT_240_2_4_VULTURE","VULTURE",4,0.5,240,"preference"
"ssfOUT_240_2_4_VULTURE.25",0.553606205918311,0.396997491457218,0.710214920379404,"ssf","mf.ss","gamma","vonmises",500,"ssfOUT_240_2_4_VULTURE","VULTURE",4,0.5,240,"preference"
"ssfOUT_240_2_4_VULTURE.26",0.58075087613587,0.414564831868011,0.74693692040373,"ssf","mf.ss","gamma","unif",5,"ssfOUT_240_2_4_VULTURE","VULTURE",4,0.5,240,"preference"
"ssfOUT_240_2_4_VULTURE.27",0.553633080600585,0.393858534761931,0.713407626439239,"ssf","mf.ss","gamma","unif",15,"ssfOUT_240_2_4_VULTURE","VULTURE",4,0.5,240,"preference"
"ssfOUT_240_2_4_VULTURE.28",0.549039613585942,0.391427664142136,0.706651563029748,"ssf","mf.ss","gamma","unif",50,"ssfOUT_240_2_4_VULTURE","VULTURE",4,0.5,240,"preference"
"ssfOUT_240_2_4_VULTURE.29",0.554356308632177,0.397525040467734,0.711187576796619,"ssf","mf.ss","gamma","unif",158,"ssfOUT_240_2_4_VULTURE","VULTURE",4,0.5,240,"preference"
"ssfOUT_240_2_4_VULTURE.30",0.55038025662958,0.393779394249625,0.706981119009534,"ssf","mf.ss","gamma","unif",500,"ssfOUT_240_2_4_VULTURE","VULTURE",4,0.5,240,"preference"
"ssfOUT_240_2_4_VULTURE.31",0.523286016482167,0.355662772411416,0.690909260552918,"ssf","mf.ss","exp","vonmises",5,"ssfOUT_240_2_4_VULTURE","VULTURE",4,0.5,240,"preference"
"ssfOUT_240_2_4_VULTURE.32",0.487655536407621,0.326831383325488,0.648479689489753,"ssf","mf.ss","exp","vonmises",15,"ssfOUT_240_2_4_VULTURE","VULTURE",4,0.5,240,"preference"
"ssfOUT_240_2_4_VULTURE.33",0.572292148672823,0.414006247169547,0.730578050176099,"ssf","mf.ss","exp","vonmises",50,"ssfOUT_240_2_4_VULTURE","VULTURE",4,0.5,240,"preference"
"ssfOUT_240_2_4_VULTURE.34",0.554272824842388,0.396375511013414,0.712170138671362,"ssf","mf.ss","exp","vonmises",158,"ssfOUT_240_2_4_VULTURE","VULTURE",4,0.5,240,"preference"
"ssfOUT_240_2_4_VULTURE.35",0.570535702142172,0.413069608187157,0.728001796097187,"ssf","mf.ss","exp","vonmises",500,"ssfOUT_240_2_4_VULTURE","VULTURE",4,0.5,240,"preference"
"ssfOUT_240_2_4_VULTURE.36",0.572546573618124,0.405458165129388,0.73963498210686,"ssf","mf.ss","exp","unif",5,"ssfOUT_240_2_4_VULTURE","VULTURE",4,0.5,240,"preference"
"ssfOUT_240_2_4_VULTURE.37",0.57241775099288,0.411667631138624,0.733167870847137,"ssf","mf.ss","exp","unif",15,"ssfOUT_240_2_4_VULTURE","VULTURE",4,0.5,240,"preference"
"ssfOUT_240_2_4_VULTURE.38",0.571892247886023,0.413479625949669,0.730304869822377,"ssf","mf.ss","exp","unif",50,"ssfOUT_240_2_4_VULTURE","VULTURE",4,0.5,240,"preference"
"ssfOUT_240_2_4_VULTURE.39",0.553382721979503,0.395659345975877,0.711106097983129,"ssf","mf.ss","exp","unif",158,"ssfOUT_240_2_4_VULTURE","VULTURE",4,0.5,240,"preference"
"ssfOUT_240_2_4_VULTURE.40",0.572885068860575,0.415293849436202,0.730476288284948,"ssf","mf.ss","exp","unif",500,"ssfOUT_240_2_4_VULTURE","VULTURE",4,0.5,240,"preference"
"ssfOUT_240_2_4_KINGCOBRA.1",0.752793087333427,0.473827724191978,1.03175845047488,"ssf","mf.is","gamma","vonmises",5,"ssfOUT_240_2_4_KINGCOBRA","KINGCOBRA",4,0.5,240,"preference"
"ssfOUT_240_2_4_KINGCOBRA.2",0.644559616881542,0.375346557023023,0.913772676740062,"ssf","mf.is","gamma","vonmises",15,"ssfOUT_240_2_4_KINGCOBRA","KINGCOBRA",4,0.5,240,"preference"
"ssfOUT_240_2_4_KINGCOBRA.3",0.717007230320481,0.450811142735431,0.983203317905532,"ssf","mf.is","gamma","vonmises",50,"ssfOUT_240_2_4_KINGCOBRA","KINGCOBRA",4,0.5,240,"preference"
"ssfOUT_240_2_4_KINGCOBRA.4",0.736531407054606,0.471497230761788,1.00156558334742,"ssf","mf.is","gamma","vonmises",158,"ssfOUT_240_2_4_KINGCOBRA","KINGCOBRA",4,0.5,240,"preference"
"ssfOUT_240_2_4_KINGCOBRA.5",0.70691150839828,0.441534406235228,0.972288610561333,"ssf","mf.is","gamma","vonmises",500,"ssfOUT_240_2_4_KINGCOBRA","KINGCOBRA",4,0.5,240,"preference"
"ssfOUT_240_2_4_KINGCOBRA.6",0.674426925974416,0.400008251234134,0.948845600714698,"ssf","mf.is","gamma","unif",5,"ssfOUT_240_2_4_KINGCOBRA","KINGCOBRA",4,0.5,240,"preference"
"ssfOUT_240_2_4_KINGCOBRA.7",0.862286239526981,0.594086169823932,1.13048630923003,"ssf","mf.is","gamma","unif",15,"ssfOUT_240_2_4_KINGCOBRA","KINGCOBRA",4,0.5,240,"preference"
"ssfOUT_240_2_4_KINGCOBRA.8",0.678015788967722,0.41188924119849,0.944142336736953,"ssf","mf.is","gamma","unif",50,"ssfOUT_240_2_4_KINGCOBRA","KINGCOBRA",4,0.5,240,"preference"
"ssfOUT_240_2_4_KINGCOBRA.9",0.693030693904993,0.427729933384308,0.958331454425677,"ssf","mf.is","gamma","unif",158,"ssfOUT_240_2_4_KINGCOBRA","KINGCOBRA",4,0.5,240,"preference"
"ssfOUT_240_2_4_KINGCOBRA.10",0.716759413239709,0.451542563074032,0.981976263405386,"ssf","mf.is","gamma","unif",500,"ssfOUT_240_2_4_KINGCOBRA","KINGCOBRA",4,0.5,240,"preference"
"ssfOUT_240_2_4_KINGCOBRA.11",0.645980781179309,0.363261678011773,0.928699884346845,"ssf","mf.is","exp","vonmises",5,"ssfOUT_240_2_4_KINGCOBRA","KINGCOBRA",4,0.5,240,"preference"
"ssfOUT_240_2_4_KINGCOBRA.12",0.760984559349411,0.488990328599064,1.03297879009976,"ssf","mf.is","exp","vonmises",15,"ssfOUT_240_2_4_KINGCOBRA","KINGCOBRA",4,0.5,240,"preference"
"ssfOUT_240_2_4_KINGCOBRA.13",0.665019711396778,0.39798188020841,0.932057542585146,"ssf","mf.is","exp","vonmises",50,"ssfOUT_240_2_4_KINGCOBRA","KINGCOBRA",4,0.5,240,"preference"
"ssfOUT_240_2_4_KINGCOBRA.14",0.693538869147177,0.427142489146741,0.959935249147614,"ssf","mf.is","exp","vonmises",158,"ssfOUT_240_2_4_KINGCOBRA","KINGCOBRA",4,0.5,240,"preference"
"ssfOUT_240_2_4_KINGCOBRA.15",0.715043486072678,0.447774313890324,0.982312658255032,"ssf","mf.is","exp","vonmises",500,"ssfOUT_240_2_4_KINGCOBRA","KINGCOBRA",4,0.5,240,"preference"
"ssfOUT_240_2_4_KINGCOBRA.16",0.68247334384003,0.403038658578176,0.961908029101884,"ssf","mf.is","exp","unif",5,"ssfOUT_240_2_4_KINGCOBRA","KINGCOBRA",4,0.5,240,"preference"
"ssfOUT_240_2_4_KINGCOBRA.17",0.876600648053688,0.60544186604712,1.14775943006025,"ssf","mf.is","exp","unif",15,"ssfOUT_240_2_4_KINGCOBRA","KINGCOBRA",4,0.5,240,"preference"
"ssfOUT_240_2_4_KINGCOBRA.18",0.756081184691165,0.486694021949889,1.02546834743244,"ssf","mf.is","exp","unif",50,"ssfOUT_240_2_4_KINGCOBRA","KINGCOBRA",4,0.5,240,"preference"
"ssfOUT_240_2_4_KINGCOBRA.19",0.686125555009875,0.419032569386395,0.953218540633356,"ssf","mf.is","exp","unif",158,"ssfOUT_240_2_4_KINGCOBRA","KINGCOBRA",4,0.5,240,"preference"
"ssfOUT_240_2_4_KINGCOBRA.20",0.772566652630176,0.504015060989551,1.0411182442708,"ssf","mf.is","exp","unif",500,"ssfOUT_240_2_4_KINGCOBRA","KINGCOBRA",4,0.5,240,"preference"
"ssfOUT_240_2_4_KINGCOBRA.21",0.746120934711352,0.466899433194771,1.02534243622793,"ssf","mf.ss","gamma","vonmises",5,"ssfOUT_240_2_4_KINGCOBRA","KINGCOBRA",4,0.5,240,"preference"
"ssfOUT_240_2_4_KINGCOBRA.22",0.632219205579462,0.36358150446885,0.900856906690074,"ssf","mf.ss","gamma","vonmises",15,"ssfOUT_240_2_4_KINGCOBRA","KINGCOBRA",4,0.5,240,"preference"
"ssfOUT_240_2_4_KINGCOBRA.23",0.722775176949365,0.456917991566363,0.988632362332367,"ssf","mf.ss","gamma","vonmises",50,"ssfOUT_240_2_4_KINGCOBRA","KINGCOBRA",4,0.5,240,"preference"
"ssfOUT_240_2_4_KINGCOBRA.24",0.725308269874492,0.460478143296727,0.990138396452256,"ssf","mf.ss","gamma","vonmises",158,"ssfOUT_240_2_4_KINGCOBRA","KINGCOBRA",4,0.5,240,"preference"
"ssfOUT_240_2_4_KINGCOBRA.25",0.696304106417018,0.431188501179841,0.961419711654195,"ssf","mf.ss","gamma","vonmises",500,"ssfOUT_240_2_4_KINGCOBRA","KINGCOBRA",4,0.5,240,"preference"
"ssfOUT_240_2_4_KINGCOBRA.26",0.684022270179468,0.41006552049523,0.957979019863706,"ssf","mf.ss","gamma","unif",5,"ssfOUT_240_2_4_KINGCOBRA","KINGCOBRA",4,0.5,240,"preference"
"ssfOUT_240_2_4_KINGCOBRA.27",0.855377485583319,0.587470578046134,1.1232843931205,"ssf","mf.ss","gamma","unif",15,"ssfOUT_240_2_4_KINGCOBRA","KINGCOBRA",4,0.5,240,"preference"
"ssfOUT_240_2_4_KINGCOBRA.28",0.667980031452198,0.402072796017149,0.933887266887246,"ssf","mf.ss","gamma","unif",50,"ssfOUT_240_2_4_KINGCOBRA","KINGCOBRA",4,0.5,240,"preference"
"ssfOUT_240_2_4_KINGCOBRA.29",0.690168893246669,0.425110189716696,0.955227596776641,"ssf","mf.ss","gamma","unif",158,"ssfOUT_240_2_4_KINGCOBRA","KINGCOBRA",4,0.5,240,"preference"
"ssfOUT_240_2_4_KINGCOBRA.30",0.712549182845993,0.447560020542663,0.977538345149323,"ssf","mf.ss","gamma","unif",500,"ssfOUT_240_2_4_KINGCOBRA","KINGCOBRA",4,0.5,240,"preference"
"ssfOUT_240_2_4_KINGCOBRA.31",0.750546087923972,0.475955893375083,1.02513628247286,"ssf","mf.ss","exp","vonmises",5,"ssfOUT_240_2_4_KINGCOBRA","KINGCOBRA",4,0.5,240,"preference"
"ssfOUT_240_2_4_KINGCOBRA.32",0.776421836335932,0.51110886100834,1.04173481166352,"ssf","mf.ss","exp","vonmises",15,"ssfOUT_240_2_4_KINGCOBRA","KINGCOBRA",4,0.5,240,"preference"
"ssfOUT_240_2_4_KINGCOBRA.33",0.770643072546067,0.507605569816176,1.03368057527596,"ssf","mf.ss","exp","vonmises",50,"ssfOUT_240_2_4_KINGCOBRA","KINGCOBRA",4,0.5,240,"preference"
"ssfOUT_240_2_4_KINGCOBRA.34",0.754844829009601,0.492969240133177,1.01672041788602,"ssf","mf.ss","exp","vonmises",158,"ssfOUT_240_2_4_KINGCOBRA","KINGCOBRA",4,0.5,240,"preference"
"ssfOUT_240_2_4_KINGCOBRA.35",0.740564180859203,0.478772613097488,1.00235574862092,"ssf","mf.ss","exp","vonmises",500,"ssfOUT_240_2_4_KINGCOBRA","KINGCOBRA",4,0.5,240,"preference"
"ssfOUT_240_2_4_KINGCOBRA.36",0.764351122540066,0.488270824210497,1.04043142086964,"ssf","mf.ss","exp","unif",5,"ssfOUT_240_2_4_KINGCOBRA","KINGCOBRA",4,0.5,240,"preference"
"ssfOUT_240_2_4_KINGCOBRA.37",0.855666430238879,0.590244440611164,1.1210884198666,"ssf","mf.ss","exp","unif",15,"ssfOUT_240_2_4_KINGCOBRA","KINGCOBRA",4,0.5,240,"preference"
"ssfOUT_240_2_4_KINGCOBRA.38",0.753173611264002,0.49020356068257,1.01614366184543,"ssf","mf.ss","exp","unif",50,"ssfOUT_240_2_4_KINGCOBRA","KINGCOBRA",4,0.5,240,"preference"
"ssfOUT_240_2_4_KINGCOBRA.39",0.758763962368768,0.496663485343932,1.0208644393936,"ssf","mf.ss","exp","unif",158,"ssfOUT_240_2_4_KINGCOBRA","KINGCOBRA",4,0.5,240,"preference"
"ssfOUT_240_2_4_KINGCOBRA.40",0.765347315485375,0.5036125439125,1.02708208705825,"ssf","mf.ss","exp","unif",500,"ssfOUT_240_2_4_KINGCOBRA","KINGCOBRA",4,0.5,240,"preference"
"ssfOUT_240_6_1_BADGER.1",1.00413499500587,0.625676300368107,1.38259368964364,"ssf","mf.is","gamma","vonmises",5,"ssfOUT_240_6_1_BADGER","BADGER",1,0.166666666666667,240,"preference"
"ssfOUT_240_6_1_BADGER.2",0.887435862841544,0.51994580968509,1.254925915998,"ssf","mf.is","gamma","vonmises",15,"ssfOUT_240_6_1_BADGER","BADGER",1,0.166666666666667,240,"preference"
"ssfOUT_240_6_1_BADGER.3",0.935296706919112,0.573129220525364,1.29746419331286,"ssf","mf.is","gamma","vonmises",50,"ssfOUT_240_6_1_BADGER","BADGER",1,0.166666666666667,240,"preference"
"ssfOUT_240_6_1_BADGER.4",0.927715914360534,0.567129518121843,1.28830231059923,"ssf","mf.is","gamma","vonmises",158,"ssfOUT_240_6_1_BADGER","BADGER",1,0.166666666666667,240,"preference"
"ssfOUT_240_6_1_BADGER.5",0.930634624966642,0.5704020731225,1.29086717681078,"ssf","mf.is","gamma","vonmises",500,"ssfOUT_240_6_1_BADGER","BADGER",1,0.166666666666667,240,"preference"
"ssfOUT_240_6_1_BADGER.6",0.945522611069652,0.566449973567213,1.32459524857209,"ssf","mf.is","gamma","unif",5,"ssfOUT_240_6_1_BADGER","BADGER",1,0.166666666666667,240,"preference"
"ssfOUT_240_6_1_BADGER.7",0.966166478688582,0.601280740887932,1.33105221648923,"ssf","mf.is","gamma","unif",15,"ssfOUT_240_6_1_BADGER","BADGER",1,0.166666666666667,240,"preference"
"ssfOUT_240_6_1_BADGER.8",0.886160588089961,0.524513657826745,1.24780751835318,"ssf","mf.is","gamma","unif",50,"ssfOUT_240_6_1_BADGER","BADGER",1,0.166666666666667,240,"preference"
"ssfOUT_240_6_1_BADGER.9",0.932720642388678,0.572241244782494,1.29320003999486,"ssf","mf.is","gamma","unif",158,"ssfOUT_240_6_1_BADGER","BADGER",1,0.166666666666667,240,"preference"
"ssfOUT_240_6_1_BADGER.10",0.943450557320854,0.583339469651725,1.30356164498998,"ssf","mf.is","gamma","unif",500,"ssfOUT_240_6_1_BADGER","BADGER",1,0.166666666666667,240,"preference"
"ssfOUT_240_6_1_BADGER.11",0.999389422322615,0.602502004954884,1.39627683969035,"ssf","mf.is","exp","vonmises",5,"ssfOUT_240_6_1_BADGER","BADGER",1,0.166666666666667,240,"preference"
"ssfOUT_240_6_1_BADGER.12",0.865846151267148,0.499490021114257,1.23220228142004,"ssf","mf.is","exp","vonmises",15,"ssfOUT_240_6_1_BADGER","BADGER",1,0.166666666666667,240,"preference"
"ssfOUT_240_6_1_BADGER.13",0.903544375176425,0.541712902331595,1.26537584802126,"ssf","mf.is","exp","vonmises",50,"ssfOUT_240_6_1_BADGER","BADGER",1,0.166666666666667,240,"preference"
"ssfOUT_240_6_1_BADGER.14",0.952171889539748,0.591155535724505,1.31318824335499,"ssf","mf.is","exp","vonmises",158,"ssfOUT_240_6_1_BADGER","BADGER",1,0.166666666666667,240,"preference"
"ssfOUT_240_6_1_BADGER.15",0.934603620010428,0.574502906327963,1.29470433369289,"ssf","mf.is","exp","vonmises",500,"ssfOUT_240_6_1_BADGER","BADGER",1,0.166666666666667,240,"preference"
"ssfOUT_240_6_1_BADGER.16",0.885301197292684,0.505223303638394,1.26537909094697,"ssf","mf.is","exp","unif",5,"ssfOUT_240_6_1_BADGER","BADGER",1,0.166666666666667,240,"preference"
"ssfOUT_240_6_1_BADGER.17",0.934239890067735,0.569356799863972,1.2991229802715,"ssf","mf.is","exp","unif",15,"ssfOUT_240_6_1_BADGER","BADGER",1,0.166666666666667,240,"preference"
"ssfOUT_240_6_1_BADGER.18",0.949547963245142,0.588078566534335,1.31101735995595,"ssf","mf.is","exp","unif",50,"ssfOUT_240_6_1_BADGER","BADGER",1,0.166666666666667,240,"preference"
"ssfOUT_240_6_1_BADGER.19",0.877343220276663,0.516388842491223,1.2382975980621,"ssf","mf.is","exp","unif",158,"ssfOUT_240_6_1_BADGER","BADGER",1,0.166666666666667,240,"preference"
"ssfOUT_240_6_1_BADGER.20",0.941372307590723,0.581206903834611,1.30153771134684,"ssf","mf.is","exp","unif",500,"ssfOUT_240_6_1_BADGER","BADGER",1,0.166666666666667,240,"preference"
"ssfOUT_240_6_1_BADGER.21",0.96497639319116,0.589560754308854,1.34039203207346,"ssf","mf.ss","gamma","vonmises",5,"ssfOUT_240_6_1_BADGER","BADGER",1,0.166666666666667,240,"preference"
"ssfOUT_240_6_1_BADGER.22",0.888351363873801,0.521615656294411,1.25508707145319,"ssf","mf.ss","gamma","vonmises",15,"ssfOUT_240_6_1_BADGER","BADGER",1,0.166666666666667,240,"preference"
"ssfOUT_240_6_1_BADGER.23",0.8792913003201,0.517838997964269,1.24074360267593,"ssf","mf.ss","gamma","vonmises",50,"ssfOUT_240_6_1_BADGER","BADGER",1,0.166666666666667,240,"preference"
"ssfOUT_240_6_1_BADGER.24",0.897593702937923,0.537375032279388,1.25781237359646,"ssf","mf.ss","gamma","vonmises",158,"ssfOUT_240_6_1_BADGER","BADGER",1,0.166666666666667,240,"preference"
"ssfOUT_240_6_1_BADGER.25",0.887955773040044,0.528037618710054,1.24787392737003,"ssf","mf.ss","gamma","vonmises",500,"ssfOUT_240_6_1_BADGER","BADGER",1,0.166666666666667,240,"preference"
"ssfOUT_240_6_1_BADGER.26",0.916754231343397,0.537357598520597,1.2961508641662,"ssf","mf.ss","gamma","unif",5,"ssfOUT_240_6_1_BADGER","BADGER",1,0.166666666666667,240,"preference"
"ssfOUT_240_6_1_BADGER.27",0.968341270979745,0.603409645675962,1.33327289628353,"ssf","mf.ss","gamma","unif",15,"ssfOUT_240_6_1_BADGER","BADGER",1,0.166666666666667,240,"preference"
"ssfOUT_240_6_1_BADGER.28",0.864707767186061,0.503418779795142,1.22599675457698,"ssf","mf.ss","gamma","unif",50,"ssfOUT_240_6_1_BADGER","BADGER",1,0.166666666666667,240,"preference"
"ssfOUT_240_6_1_BADGER.29",0.911097233697015,0.550868471982302,1.27132599541173,"ssf","mf.ss","gamma","unif",158,"ssfOUT_240_6_1_BADGER","BADGER",1,0.166666666666667,240,"preference"
"ssfOUT_240_6_1_BADGER.30",0.920586705532587,0.560673087627203,1.28050032343797,"ssf","mf.ss","gamma","unif",500,"ssfOUT_240_6_1_BADGER","BADGER",1,0.166666666666667,240,"preference"
"ssfOUT_240_6_1_BADGER.31",0.84040390516102,0.453274155218965,1.22753365510308,"ssf","mf.ss","exp","vonmises",5,"ssfOUT_240_6_1_BADGER","BADGER",1,0.166666666666667,240,"preference"
"ssfOUT_240_6_1_BADGER.32",0.839465955117136,0.472910629746969,1.2060212804873,"ssf","mf.ss","exp","vonmises",15,"ssfOUT_240_6_1_BADGER","BADGER",1,0.166666666666667,240,"preference"
"ssfOUT_240_6_1_BADGER.33",0.838064050041509,0.475865879834261,1.20026222024876,"ssf","mf.ss","exp","vonmises",50,"ssfOUT_240_6_1_BADGER","BADGER",1,0.166666666666667,240,"preference"
"ssfOUT_240_6_1_BADGER.34",0.886209535767026,0.524833366826539,1.24758570470751,"ssf","mf.ss","exp","vonmises",158,"ssfOUT_240_6_1_BADGER","BADGER",1,0.166666666666667,240,"preference"
"ssfOUT_240_6_1_BADGER.35",0.881022368953392,0.52042544538648,1.2416192925203,"ssf","mf.ss","exp","vonmises",500,"ssfOUT_240_6_1_BADGER","BADGER",1,0.166666666666667,240,"preference"
"ssfOUT_240_6_1_BADGER.36",0.816620132429535,0.434913933052902,1.19832633180617,"ssf","mf.ss","exp","unif",5,"ssfOUT_240_6_1_BADGER","BADGER",1,0.166666666666667,240,"preference"
"ssfOUT_240_6_1_BADGER.37",0.909531703031348,0.544561490383239,1.27450191567946,"ssf","mf.ss","exp","unif",15,"ssfOUT_240_6_1_BADGER","BADGER",1,0.166666666666667,240,"preference"
"ssfOUT_240_6_1_BADGER.38",0.918129808386514,0.556225208569734,1.2800344082033,"ssf","mf.ss","exp","unif",50,"ssfOUT_240_6_1_BADGER","BADGER",1,0.166666666666667,240,"preference"
"ssfOUT_240_6_1_BADGER.39",0.83443005372731,0.472965746992597,1.19589436046202,"ssf","mf.ss","exp","unif",158,"ssfOUT_240_6_1_BADGER","BADGER",1,0.166666666666667,240,"preference"
"ssfOUT_240_6_1_BADGER.40",0.894772457348566,0.534120814813839,1.25542409988329,"ssf","mf.ss","exp","unif",500,"ssfOUT_240_6_1_BADGER","BADGER",1,0.166666666666667,240,"preference"
"ssfOUT_240_6_1_VULTURE.1",1.15364658765934,0.752957105304799,1.55433607001388,"ssf","mf.is","gamma","vonmises",5,"ssfOUT_240_6_1_VULTURE","VULTURE",1,0.166666666666667,240,"preference"
"ssfOUT_240_6_1_VULTURE.2",0.875965886146853,0.486333576979792,1.26559819531391,"ssf","mf.is","gamma","vonmises",15,"ssfOUT_240_6_1_VULTURE","VULTURE",1,0.166666666666667,240,"preference"
"ssfOUT_240_6_1_VULTURE.3",1.00788302274585,0.623825580377448,1.39194046511425,"ssf","mf.is","gamma","vonmises",50,"ssfOUT_240_6_1_VULTURE","VULTURE",1,0.166666666666667,240,"preference"
"ssfOUT_240_6_1_VULTURE.4",1.05689849532717,0.674352837901047,1.43944415275329,"ssf","mf.is","gamma","vonmises",158,"ssfOUT_240_6_1_VULTURE","VULTURE",1,0.166666666666667,240,"preference"
"ssfOUT_240_6_1_VULTURE.5",1.05028973995628,0.668254431312745,1.43232504859981,"ssf","mf.is","gamma","vonmises",500,"ssfOUT_240_6_1_VULTURE","VULTURE",1,0.166666666666667,240,"preference"
"ssfOUT_240_6_1_VULTURE.6",1.02424720922089,0.625513856524006,1.42298056191778,"ssf","mf.is","gamma","unif",5,"ssfOUT_240_6_1_VULTURE","VULTURE",1,0.166666666666667,240,"preference"
"ssfOUT_240_6_1_VULTURE.7",0.876332085802659,0.488301011417663,1.26436316018766,"ssf","mf.is","gamma","unif",15,"ssfOUT_240_6_1_VULTURE","VULTURE",1,0.166666666666667,240,"preference"
"ssfOUT_240_6_1_VULTURE.8",1.0493862008524,0.665769806618989,1.43300259508581,"ssf","mf.is","gamma","unif",50,"ssfOUT_240_6_1_VULTURE","VULTURE",1,0.166666666666667,240,"preference"
"ssfOUT_240_6_1_VULTURE.9",1.07953506411916,0.697224255711312,1.46184587252701,"ssf","mf.is","gamma","unif",158,"ssfOUT_240_6_1_VULTURE","VULTURE",1,0.166666666666667,240,"preference"
"ssfOUT_240_6_1_VULTURE.10",1.04375642612749,0.661807925540739,1.42570492671424,"ssf","mf.is","gamma","unif",500,"ssfOUT_240_6_1_VULTURE","VULTURE",1,0.166666666666667,240,"preference"
"ssfOUT_240_6_1_VULTURE.11",1.20412053728161,0.795244952071044,1.61299612249218,"ssf","mf.is","exp","vonmises",5,"ssfOUT_240_6_1_VULTURE","VULTURE",1,0.166666666666667,240,"preference"
"ssfOUT_240_6_1_VULTURE.12",0.900325169314159,0.508960893597483,1.29168944503084,"ssf","mf.is","exp","vonmises",15,"ssfOUT_240_6_1_VULTURE","VULTURE",1,0.166666666666667,240,"preference"
"ssfOUT_240_6_1_VULTURE.13",1.03373743378866,0.649564735417658,1.41791013215966,"ssf","mf.is","exp","vonmises",50,"ssfOUT_240_6_1_VULTURE","VULTURE",1,0.166666666666667,240,"preference"
"ssfOUT_240_6_1_VULTURE.14",1.05034694918116,0.667743577808748,1.43295032055356,"ssf","mf.is","exp","vonmises",158,"ssfOUT_240_6_1_VULTURE","VULTURE",1,0.166666666666667,240,"preference"
"ssfOUT_240_6_1_VULTURE.15",1.05325337844044,0.671126273489966,1.43538048339092,"ssf","mf.is","exp","vonmises",500,"ssfOUT_240_6_1_VULTURE","VULTURE",1,0.166666666666667,240,"preference"
"ssfOUT_240_6_1_VULTURE.16",0.968449464675176,0.559989906032562,1.37690902331779,"ssf","mf.is","exp","unif",5,"ssfOUT_240_6_1_VULTURE","VULTURE",1,0.166666666666667,240,"preference"
"ssfOUT_240_6_1_VULTURE.17",1.03269888918294,0.644011283139853,1.42138649522602,"ssf","mf.is","exp","unif",15,"ssfOUT_240_6_1_VULTURE","VULTURE",1,0.166666666666667,240,"preference"
"ssfOUT_240_6_1_VULTURE.18",1.10697925256973,0.723019262757745,1.49093924238171,"ssf","mf.is","exp","unif",50,"ssfOUT_240_6_1_VULTURE","VULTURE",1,0.166666666666667,240,"preference"
"ssfOUT_240_6_1_VULTURE.19",0.993643741289221,0.611096003366164,1.37619147921228,"ssf","mf.is","exp","unif",158,"ssfOUT_240_6_1_VULTURE","VULTURE",1,0.166666666666667,240,"preference"
"ssfOUT_240_6_1_VULTURE.20",1.03397903412706,0.651922167370043,1.41603590088408,"ssf","mf.is","exp","unif",500,"ssfOUT_240_6_1_VULTURE","VULTURE",1,0.166666666666667,240,"preference"
"ssfOUT_240_6_1_VULTURE.21",1.02961848943722,0.630609981193248,1.42862699768119,"ssf","mf.ss","gamma","vonmises",5,"ssfOUT_240_6_1_VULTURE","VULTURE",1,0.166666666666667,240,"preference"
"ssfOUT_240_6_1_VULTURE.22",0.815410254641609,0.427478936650684,1.20334157263253,"ssf","mf.ss","gamma","vonmises",15,"ssfOUT_240_6_1_VULTURE","VULTURE",1,0.166666666666667,240,"preference"
"ssfOUT_240_6_1_VULTURE.23",0.954615602772566,0.571368698271981,1.33786250727315,"ssf","mf.ss","gamma","vonmises",50,"ssfOUT_240_6_1_VULTURE","VULTURE",1,0.166666666666667,240,"preference"
"ssfOUT_240_6_1_VULTURE.24",0.971147292655514,0.58909344280976,1.35320114250127,"ssf","mf.ss","gamma","vonmises",158,"ssfOUT_240_6_1_VULTURE","VULTURE",1,0.166666666666667,240,"preference"
"ssfOUT_240_6_1_VULTURE.25",0.964480254869373,0.582797918899394,1.34616259083935,"ssf","mf.ss","gamma","vonmises",500,"ssfOUT_240_6_1_VULTURE","VULTURE",1,0.166666666666667,240,"preference"
"ssfOUT_240_6_1_VULTURE.26",1.00268040760609,0.605394566714702,1.39996624849749,"ssf","mf.ss","gamma","unif",5,"ssfOUT_240_6_1_VULTURE","VULTURE",1,0.166666666666667,240,"preference"
"ssfOUT_240_6_1_VULTURE.27",0.863082112268909,0.475786420669609,1.25037780386821,"ssf","mf.ss","gamma","unif",15,"ssfOUT_240_6_1_VULTURE","VULTURE",1,0.166666666666667,240,"preference"
"ssfOUT_240_6_1_VULTURE.28",1.01256341565912,0.629342360199211,1.39578447111904,"ssf","mf.ss","gamma","unif",50,"ssfOUT_240_6_1_VULTURE","VULTURE",1,0.166666666666667,240,"preference"
"ssfOUT_240_6_1_VULTURE.29",1.03302243133485,0.651035841532203,1.41500902113749,"ssf","mf.ss","gamma","unif",158,"ssfOUT_240_6_1_VULTURE","VULTURE",1,0.166666666666667,240,"preference"
"ssfOUT_240_6_1_VULTURE.30",0.997853740006222,0.616302563420509,1.37940491659193,"ssf","mf.ss","gamma","unif",500,"ssfOUT_240_6_1_VULTURE","VULTURE",1,0.166666666666667,240,"preference"
"ssfOUT_240_6_1_VULTURE.31",1.15184446203643,0.750009319103513,1.55367960496936,"ssf","mf.ss","exp","vonmises",5,"ssfOUT_240_6_1_VULTURE","VULTURE",1,0.166666666666667,240,"preference"
"ssfOUT_240_6_1_VULTURE.32",0.857354313166835,0.469380463085241,1.24532816324843,"ssf","mf.ss","exp","vonmises",15,"ssfOUT_240_6_1_VULTURE","VULTURE",1,0.166666666666667,240,"preference"
"ssfOUT_240_6_1_VULTURE.33",0.984747540637305,0.601009218174116,1.36848586310049,"ssf","mf.ss","exp","vonmises",50,"ssfOUT_240_6_1_VULTURE","VULTURE",1,0.166666666666667,240,"preference"
"ssfOUT_240_6_1_VULTURE.34",0.99691711870028,0.614247474492173,1.37958676290839,"ssf","mf.ss","exp","vonmises",158,"ssfOUT_240_6_1_VULTURE","VULTURE",1,0.166666666666667,240,"preference"
"ssfOUT_240_6_1_VULTURE.35",0.994027493596201,0.611792385441096,1.37626260175131,"ssf","mf.ss","exp","vonmises",500,"ssfOUT_240_6_1_VULTURE","VULTURE",1,0.166666666666667,240,"preference"
"ssfOUT_240_6_1_VULTURE.36",0.89741467403701,0.497183290987137,1.29764605708688,"ssf","mf.ss","exp","unif",5,"ssfOUT_240_6_1_VULTURE","VULTURE",1,0.166666666666667,240,"preference"
"ssfOUT_240_6_1_VULTURE.37",1.03776638175764,0.651144169840902,1.42438859367438,"ssf","mf.ss","exp","unif",15,"ssfOUT_240_6_1_VULTURE","VULTURE",1,0.166666666666667,240,"preference"
"ssfOUT_240_6_1_VULTURE.38",1.05933560006469,0.675778075092524,1.44289312503686,"ssf","mf.ss","exp","unif",50,"ssfOUT_240_6_1_VULTURE","VULTURE",1,0.166666666666667,240,"preference"
"ssfOUT_240_6_1_VULTURE.39",0.974097608990083,0.591363955079719,1.35683126290045,"ssf","mf.ss","exp","unif",158,"ssfOUT_240_6_1_VULTURE","VULTURE",1,0.166666666666667,240,"preference"
"ssfOUT_240_6_1_VULTURE.40",0.994674485880105,0.612360596189817,1.37698837557039,"ssf","mf.ss","exp","unif",500,"ssfOUT_240_6_1_VULTURE","VULTURE",1,0.166666666666667,240,"preference"
"ssfOUT_240_6_1_KINGCOBRA.1",0.120345829476019,-0.22135791339965,0.462049572351689,"ssf","mf.is","gamma","vonmises",5,"ssfOUT_240_6_1_KINGCOBRA","KINGCOBRA",1,0.166666666666667,240,"no effect"
"ssfOUT_240_6_1_KINGCOBRA.2",0.345687270824139,0.0303986784446483,0.660975863203629,"ssf","mf.is","gamma","vonmises",15,"ssfOUT_240_6_1_KINGCOBRA","KINGCOBRA",1,0.166666666666667,240,"preference"
"ssfOUT_240_6_1_KINGCOBRA.3",0.354869662055436,0.040854483491418,0.668884840619455,"ssf","mf.is","gamma","vonmises",50,"ssfOUT_240_6_1_KINGCOBRA","KINGCOBRA",1,0.166666666666667,240,"preference"
"ssfOUT_240_6_1_KINGCOBRA.4",0.264709139567984,-0.0479658530692499,0.577384132205217,"ssf","mf.is","gamma","vonmises",158,"ssfOUT_240_6_1_KINGCOBRA","KINGCOBRA",1,0.166666666666667,240,"no effect"
"ssfOUT_240_6_1_KINGCOBRA.5",0.284283793599393,-0.027592079544078,0.596159666742864,"ssf","mf.is","gamma","vonmises",500,"ssfOUT_240_6_1_KINGCOBRA","KINGCOBRA",1,0.166666666666667,240,"no effect"
"ssfOUT_240_6_1_KINGCOBRA.6",0.214597975194628,-0.117032096948809,0.546228047338064,"ssf","mf.is","gamma","unif",5,"ssfOUT_240_6_1_KINGCOBRA","KINGCOBRA",1,0.166666666666667,240,"no effect"
"ssfOUT_240_6_1_KINGCOBRA.7",0.354053806252645,0.0289160615346848,0.679191550970606,"ssf","mf.is","gamma","unif",15,"ssfOUT_240_6_1_KINGCOBRA","KINGCOBRA",1,0.166666666666667,240,"preference"
"ssfOUT_240_6_1_KINGCOBRA.8",0.273727037230216,-0.0405694654607837,0.588023539921217,"ssf","mf.is","gamma","unif",50,"ssfOUT_240_6_1_KINGCOBRA","KINGCOBRA",1,0.166666666666667,240,"no effect"
"ssfOUT_240_6_1_KINGCOBRA.9",0.301060696311625,-0.0110096672868356,0.613131059910085,"ssf","mf.is","gamma","unif",158,"ssfOUT_240_6_1_KINGCOBRA","KINGCOBRA",1,0.166666666666667,240,"no effect"
"ssfOUT_240_6_1_KINGCOBRA.10",0.289978862138584,-0.0218985823503764,0.601856306627545,"ssf","mf.is","gamma","unif",500,"ssfOUT_240_6_1_KINGCOBRA","KINGCOBRA",1,0.166666666666667,240,"no effect"
"ssfOUT_240_6_1_KINGCOBRA.11",0.148552117102585,-0.19551745776743,0.4926216919726,"ssf","mf.is","exp","vonmises",5,"ssfOUT_240_6_1_KINGCOBRA","KINGCOBRA",1,0.166666666666667,240,"no effect"
"ssfOUT_240_6_1_KINGCOBRA.12",0.213255911175198,-0.110465658423898,0.536977480774294,"ssf","mf.is","exp","vonmises",15,"ssfOUT_240_6_1_KINGCOBRA","KINGCOBRA",1,0.166666666666667,240,"no effect"
"ssfOUT_240_6_1_KINGCOBRA.13",0.193380203689067,-0.122986474949543,0.509746882327677,"ssf","mf.is","exp","vonmises",50,"ssfOUT_240_6_1_KINGCOBRA","KINGCOBRA",1,0.166666666666667,240,"no effect"
"ssfOUT_240_6_1_KINGCOBRA.14",0.280745349607904,-0.0325752703623105,0.594065969578119,"ssf","mf.is","exp","vonmises",158,"ssfOUT_240_6_1_KINGCOBRA","KINGCOBRA",1,0.166666666666667,240,"no effect"
"ssfOUT_240_6_1_KINGCOBRA.15",0.255916977178005,-0.0559826985026605,0.56781665285867,"ssf","mf.is","exp","vonmises",500,"ssfOUT_240_6_1_KINGCOBRA","KINGCOBRA",1,0.166666666666667,240,"no effect"
"ssfOUT_240_6_1_KINGCOBRA.16",-0.185897957844403,-0.531394073488867,0.15959815780006,"ssf","mf.is","exp","unif",5,"ssfOUT_240_6_1_KINGCOBRA","KINGCOBRA",1,0.166666666666667,240,"no effect"
"ssfOUT_240_6_1_KINGCOBRA.17",0.3280049630977,-0.00172422491827728,0.657734151113678,"ssf","mf.is","exp","unif",15,"ssfOUT_240_6_1_KINGCOBRA","KINGCOBRA",1,0.166666666666667,240,"no effect"
"ssfOUT_240_6_1_KINGCOBRA.18",0.150063277130139,-0.164237490826023,0.464364045086302,"ssf","mf.is","exp","unif",50,"ssfOUT_240_6_1_KINGCOBRA","KINGCOBRA",1,0.166666666666667,240,"no effect"
"ssfOUT_240_6_1_KINGCOBRA.19",0.326074389526725,0.0120304642392792,0.640118314814171,"ssf","mf.is","exp","unif",158,"ssfOUT_240_6_1_KINGCOBRA","KINGCOBRA",1,0.166666666666667,240,"preference"
"ssfOUT_240_6_1_KINGCOBRA.20",0.292999056297911,-0.0211289272921701,0.607127039887992,"ssf","mf.is","exp","unif",500,"ssfOUT_240_6_1_KINGCOBRA","KINGCOBRA",1,0.166666666666667,240,"no effect"
"ssfOUT_240_6_1_KINGCOBRA.21",0.187309398253237,-0.150780654475779,0.525399450982254,"ssf","mf.ss","gamma","vonmises",5,"ssfOUT_240_6_1_KINGCOBRA","KINGCOBRA",1,0.166666666666667,240,"no effect"
"ssfOUT_240_6_1_KINGCOBRA.22",0.357391653797475,0.038888720404564,0.675894587190386,"ssf","mf.ss","gamma","vonmises",15,"ssfOUT_240_6_1_KINGCOBRA","KINGCOBRA",1,0.166666666666667,240,"preference"
"ssfOUT_240_6_1_KINGCOBRA.23",0.355469068498216,0.0408817118956123,0.670056425100819,"ssf","mf.ss","gamma","vonmises",50,"ssfOUT_240_6_1_KINGCOBRA","KINGCOBRA",1,0.166666666666667,240,"preference"
"ssfOUT_240_6_1_KINGCOBRA.24",0.294402387416134,-0.0205534310914957,0.609358205923764,"ssf","mf.ss","gamma","vonmises",158,"ssfOUT_240_6_1_KINGCOBRA","KINGCOBRA",1,0.166666666666667,240,"no effect"
"ssfOUT_240_6_1_KINGCOBRA.25",0.300279406234676,-0.0143544129773616,0.614913225446714,"ssf","mf.ss","gamma","vonmises",500,"ssfOUT_240_6_1_KINGCOBRA","KINGCOBRA",1,0.166666666666667,240,"no effect"
"ssfOUT_240_6_1_KINGCOBRA.26",0.292673424044745,-0.0405312190997202,0.625878067189209,"ssf","mf.ss","gamma","unif",5,"ssfOUT_240_6_1_KINGCOBRA","KINGCOBRA",1,0.166666666666667,240,"no effect"
"ssfOUT_240_6_1_KINGCOBRA.27",0.390031634506159,0.0656055474693775,0.714457721542941,"ssf","mf.ss","gamma","unif",15,"ssfOUT_240_6_1_KINGCOBRA","KINGCOBRA",1,0.166666666666667,240,"preference"
"ssfOUT_240_6_1_KINGCOBRA.28",0.300238533366851,-0.0151183032335604,0.615595369967263,"ssf","mf.ss","gamma","unif",50,"ssfOUT_240_6_1_KINGCOBRA","KINGCOBRA",1,0.166666666666667,240,"no effect"
"ssfOUT_240_6_1_KINGCOBRA.29",0.328024550777883,0.014533082082629,0.641516019473137,"ssf","mf.ss","gamma","unif",158,"ssfOUT_240_6_1_KINGCOBRA","KINGCOBRA",1,0.166666666666667,240,"preference"
"ssfOUT_240_6_1_KINGCOBRA.30",0.31284485666455,-0.000213732532154842,0.625903445861255,"ssf","mf.ss","gamma","unif",500,"ssfOUT_240_6_1_KINGCOBRA","KINGCOBRA",1,0.166666666666667,240,"no effect"
"ssfOUT_240_6_1_KINGCOBRA.31",0.149009954916388,-0.17648879751042,0.474508707343196,"ssf","mf.ss","exp","vonmises",5,"ssfOUT_240_6_1_KINGCOBRA","KINGCOBRA",1,0.166666666666667,240,"no effect"
"ssfOUT_240_6_1_KINGCOBRA.32",0.21290614564684,-0.0986975972904104,0.52450988858409,"ssf","mf.ss","exp","vonmises",15,"ssfOUT_240_6_1_KINGCOBRA","KINGCOBRA",1,0.166666666666667,240,"no effect"
"ssfOUT_240_6_1_KINGCOBRA.33",0.12142955459786,-0.186164779297515,0.429023888493234,"ssf","mf.ss","exp","vonmises",50,"ssfOUT_240_6_1_KINGCOBRA","KINGCOBRA",1,0.166666666666667,240,"no effect"
"ssfOUT_240_6_1_KINGCOBRA.34",0.180658184694464,-0.123020212920986,0.484336582309914,"ssf","mf.ss","exp","vonmises",158,"ssfOUT_240_6_1_KINGCOBRA","KINGCOBRA",1,0.166666666666667,240,"no effect"
"ssfOUT_240_6_1_KINGCOBRA.35",0.168319701744907,-0.135687939802513,0.472327343292326,"ssf","mf.ss","exp","vonmises",500,"ssfOUT_240_6_1_KINGCOBRA","KINGCOBRA",1,0.166666666666667,240,"no effect"
"ssfOUT_240_6_1_KINGCOBRA.36",-0.144162173555165,-0.480835402517202,0.192511055406872,"ssf","mf.ss","exp","unif",5,"ssfOUT_240_6_1_KINGCOBRA","KINGCOBRA",1,0.166666666666667,240,"no effect"
"ssfOUT_240_6_1_KINGCOBRA.37",0.21972799048119,-0.0907076061198377,0.530163587082217,"ssf","mf.ss","exp","unif",15,"ssfOUT_240_6_1_KINGCOBRA","KINGCOBRA",1,0.166666666666667,240,"no effect"
"ssfOUT_240_6_1_KINGCOBRA.38",0.0750250953254922,-0.229074016153398,0.379124206804383,"ssf","mf.ss","exp","unif",50,"ssfOUT_240_6_1_KINGCOBRA","KINGCOBRA",1,0.166666666666667,240,"no effect"
"ssfOUT_240_6_1_KINGCOBRA.39",0.22440360341969,-0.0798961500054679,0.528703356844847,"ssf","mf.ss","exp","unif",158,"ssfOUT_240_6_1_KINGCOBRA","KINGCOBRA",1,0.166666666666667,240,"no effect"
"ssfOUT_240_6_1_KINGCOBRA.40",0.162586536191817,-0.141046043872655,0.466219116256289,"ssf","mf.ss","exp","unif",500,"ssfOUT_240_6_1_KINGCOBRA","KINGCOBRA",1,0.166666666666667,240,"no effect"
"ssfOUT_240_6_2_BADGER.1",1.01066395487273,0.733816978325729,1.28751093141972,"ssf","mf.is","gamma","vonmises",5,"ssfOUT_240_6_2_BADGER","BADGER",2,0.166666666666667,240,"preference"
"ssfOUT_240_6_2_BADGER.2",0.945263506506344,0.676016076750269,1.21451093626242,"ssf","mf.is","gamma","vonmises",15,"ssfOUT_240_6_2_BADGER","BADGER",2,0.166666666666667,240,"preference"
"ssfOUT_240_6_2_BADGER.3",0.891995755579793,0.62664699016259,1.157344520997,"ssf","mf.is","gamma","vonmises",50,"ssfOUT_240_6_2_BADGER","BADGER",2,0.166666666666667,240,"preference"
"ssfOUT_240_6_2_BADGER.4",0.85900225512412,0.594558530954854,1.12344597929339,"ssf","mf.is","gamma","vonmises",158,"ssfOUT_240_6_2_BADGER","BADGER",2,0.166666666666667,240,"preference"
"ssfOUT_240_6_2_BADGER.5",0.890870579552163,0.62672613444565,1.15501502465867,"ssf","mf.is","gamma","vonmises",500,"ssfOUT_240_6_2_BADGER","BADGER",2,0.166666666666667,240,"preference"
"ssfOUT_240_6_2_BADGER.6",0.647471206905451,0.366151432959572,0.928790980851331,"ssf","mf.is","gamma","unif",5,"ssfOUT_240_6_2_BADGER","BADGER",2,0.166666666666667,240,"preference"
"ssfOUT_240_6_2_BADGER.7",0.829612587502011,0.560591510101144,1.09863366490288,"ssf","mf.is","gamma","unif",15,"ssfOUT_240_6_2_BADGER","BADGER",2,0.166666666666667,240,"preference"
"ssfOUT_240_6_2_BADGER.8",0.880966481447998,0.615474347297991,1.146458615598,"ssf","mf.is","gamma","unif",50,"ssfOUT_240_6_2_BADGER","BADGER",2,0.166666666666667,240,"preference"
"ssfOUT_240_6_2_BADGER.9",0.876658877348651,0.612108210128384,1.14120954456892,"ssf","mf.is","gamma","unif",158,"ssfOUT_240_6_2_BADGER","BADGER",2,0.166666666666667,240,"preference"
"ssfOUT_240_6_2_BADGER.10",0.910919903695393,0.646721688208121,1.17511811918267,"ssf","mf.is","gamma","unif",500,"ssfOUT_240_6_2_BADGER","BADGER",2,0.166666666666667,240,"preference"
"ssfOUT_240_6_2_BADGER.11",0.952812942435435,0.671427391164899,1.23419849370597,"ssf","mf.is","exp","vonmises",5,"ssfOUT_240_6_2_BADGER","BADGER",2,0.166666666666667,240,"preference"
"ssfOUT_240_6_2_BADGER.12",0.822359770024038,0.552276884648219,1.09244265539986,"ssf","mf.is","exp","vonmises",15,"ssfOUT_240_6_2_BADGER","BADGER",2,0.166666666666667,240,"preference"
"ssfOUT_240_6_2_BADGER.13",0.899265930233686,0.633146729338457,1.16538513112892,"ssf","mf.is","exp","vonmises",50,"ssfOUT_240_6_2_BADGER","BADGER",2,0.166666666666667,240,"preference"
"ssfOUT_240_6_2_BADGER.14",0.872715649318118,0.608024381725773,1.13740691691046,"ssf","mf.is","exp","vonmises",158,"ssfOUT_240_6_2_BADGER","BADGER",2,0.166666666666667,240,"preference"
"ssfOUT_240_6_2_BADGER.15",0.898819845118807,0.634623482687948,1.16301620754967,"ssf","mf.is","exp","vonmises",500,"ssfOUT_240_6_2_BADGER","BADGER",2,0.166666666666667,240,"preference"
"ssfOUT_240_6_2_BADGER.16",0.933297982599629,0.653078608406855,1.2135173567924,"ssf","mf.is","exp","unif",5,"ssfOUT_240_6_2_BADGER","BADGER",2,0.166666666666667,240,"preference"
"ssfOUT_240_6_2_BADGER.17",0.835100568291944,0.565768649792308,1.10443248679158,"ssf","mf.is","exp","unif",15,"ssfOUT_240_6_2_BADGER","BADGER",2,0.166666666666667,240,"preference"
"ssfOUT_240_6_2_BADGER.18",0.923840663110116,0.658466116742326,1.18921520947791,"ssf","mf.is","exp","unif",50,"ssfOUT_240_6_2_BADGER","BADGER",2,0.166666666666667,240,"preference"
"ssfOUT_240_6_2_BADGER.19",0.870886556923947,0.606593046325282,1.13518006752261,"ssf","mf.is","exp","unif",158,"ssfOUT_240_6_2_BADGER","BADGER",2,0.166666666666667,240,"preference"
"ssfOUT_240_6_2_BADGER.20",0.885452355429333,0.621248075677401,1.14965663518126,"ssf","mf.is","exp","unif",500,"ssfOUT_240_6_2_BADGER","BADGER",2,0.166666666666667,240,"preference"
"ssfOUT_240_6_2_BADGER.21",0.991902568065884,0.716591343161424,1.26721379297034,"ssf","mf.ss","gamma","vonmises",5,"ssfOUT_240_6_2_BADGER","BADGER",2,0.166666666666667,240,"preference"
"ssfOUT_240_6_2_BADGER.22",0.919630499183316,0.650802720067494,1.18845827829914,"ssf","mf.ss","gamma","vonmises",15,"ssfOUT_240_6_2_BADGER","BADGER",2,0.166666666666667,240,"preference"
"ssfOUT_240_6_2_BADGER.23",0.857484218788755,0.592491372710884,1.12247706486663,"ssf","mf.ss","gamma","vonmises",50,"ssfOUT_240_6_2_BADGER","BADGER",2,0.166666666666667,240,"preference"
"ssfOUT_240_6_2_BADGER.24",0.834859121430697,0.570631125732477,1.09908711712892,"ssf","mf.ss","gamma","vonmises",158,"ssfOUT_240_6_2_BADGER","BADGER",2,0.166666666666667,240,"preference"
"ssfOUT_240_6_2_BADGER.25",0.856492337629713,0.592625799810597,1.12035887544883,"ssf","mf.ss","gamma","vonmises",500,"ssfOUT_240_6_2_BADGER","BADGER",2,0.166666666666667,240,"preference"
"ssfOUT_240_6_2_BADGER.26",0.670157799140876,0.389059291970825,0.951256306310928,"ssf","mf.ss","gamma","unif",5,"ssfOUT_240_6_2_BADGER","BADGER",2,0.166666666666667,240,"preference"
"ssfOUT_240_6_2_BADGER.27",0.83040896207362,0.561770761426465,1.09904716272078,"ssf","mf.ss","gamma","unif",15,"ssfOUT_240_6_2_BADGER","BADGER",2,0.166666666666667,240,"preference"
"ssfOUT_240_6_2_BADGER.28",0.864198852246185,0.598873677541523,1.12952402695085,"ssf","mf.ss","gamma","unif",50,"ssfOUT_240_6_2_BADGER","BADGER",2,0.166666666666667,240,"preference"
"ssfOUT_240_6_2_BADGER.29",0.856601170710127,0.59226070393482,1.12094163748543,"ssf","mf.ss","gamma","unif",158,"ssfOUT_240_6_2_BADGER","BADGER",2,0.166666666666667,240,"preference"
"ssfOUT_240_6_2_BADGER.30",0.891948402456477,0.627947615145311,1.15594918976764,"ssf","mf.ss","gamma","unif",500,"ssfOUT_240_6_2_BADGER","BADGER",2,0.166666666666667,240,"preference"
"ssfOUT_240_6_2_BADGER.31",0.899414552246649,0.619713479716353,1.17911562477694,"ssf","mf.ss","exp","vonmises",5,"ssfOUT_240_6_2_BADGER","BADGER",2,0.166666666666667,240,"preference"
"ssfOUT_240_6_2_BADGER.32",0.779781352664993,0.509447785897323,1.05011491943266,"ssf","mf.ss","exp","vonmises",15,"ssfOUT_240_6_2_BADGER","BADGER",2,0.166666666666667,240,"preference"
"ssfOUT_240_6_2_BADGER.33",0.815247198479519,0.548976671104154,1.08151772585488,"ssf","mf.ss","exp","vonmises",50,"ssfOUT_240_6_2_BADGER","BADGER",2,0.166666666666667,240,"preference"
"ssfOUT_240_6_2_BADGER.34",0.797470587735002,0.532111639477004,1.062829535993,"ssf","mf.ss","exp","vonmises",158,"ssfOUT_240_6_2_BADGER","BADGER",2,0.166666666666667,240,"preference"
"ssfOUT_240_6_2_BADGER.35",0.824698064161129,0.559708737409444,1.08968739091281,"ssf","mf.ss","exp","vonmises",500,"ssfOUT_240_6_2_BADGER","BADGER",2,0.166666666666667,240,"preference"
"ssfOUT_240_6_2_BADGER.36",0.894497256395145,0.615598813048644,1.17339569974165,"ssf","mf.ss","exp","unif",5,"ssfOUT_240_6_2_BADGER","BADGER",2,0.166666666666667,240,"preference"
"ssfOUT_240_6_2_BADGER.37",0.729532532553873,0.460453180336497,0.998611884771248,"ssf","mf.ss","exp","unif",15,"ssfOUT_240_6_2_BADGER","BADGER",2,0.166666666666667,240,"preference"
"ssfOUT_240_6_2_BADGER.38",0.847912710084769,0.582067624980227,1.11375779518931,"ssf","mf.ss","exp","unif",50,"ssfOUT_240_6_2_BADGER","BADGER",2,0.166666666666667,240,"preference"
"ssfOUT_240_6_2_BADGER.39",0.80249923294753,0.537407181971984,1.06759128392308,"ssf","mf.ss","exp","unif",158,"ssfOUT_240_6_2_BADGER","BADGER",2,0.166666666666667,240,"preference"
"ssfOUT_240_6_2_BADGER.40",0.818948058353948,0.553832817743706,1.08406329896419,"ssf","mf.ss","exp","unif",500,"ssfOUT_240_6_2_BADGER","BADGER",2,0.166666666666667,240,"preference"
"ssfOUT_240_6_2_VULTURE.1",1.02740710042382,0.671333938699382,1.38348026214825,"ssf","mf.is","gamma","vonmises",5,"ssfOUT_240_6_2_VULTURE","VULTURE",2,0.166666666666667,240,"preference"
"ssfOUT_240_6_2_VULTURE.2",0.968591242252185,0.626118389839625,1.31106409466474,"ssf","mf.is","gamma","vonmises",15,"ssfOUT_240_6_2_VULTURE","VULTURE",2,0.166666666666667,240,"preference"
"ssfOUT_240_6_2_VULTURE.3",1.00169233494723,0.662781728461744,1.34060294143271,"ssf","mf.is","gamma","vonmises",50,"ssfOUT_240_6_2_VULTURE","VULTURE",2,0.166666666666667,240,"preference"
"ssfOUT_240_6_2_VULTURE.4",1.03369995124191,0.695947346863401,1.37145255562041,"ssf","mf.is","gamma","vonmises",158,"ssfOUT_240_6_2_VULTURE","VULTURE",2,0.166666666666667,240,"preference"
"ssfOUT_240_6_2_VULTURE.5",1.05857296895182,0.721158088570202,1.39598784933344,"ssf","mf.is","gamma","vonmises",500,"ssfOUT_240_6_2_VULTURE","VULTURE",2,0.166666666666667,240,"preference"
"ssfOUT_240_6_2_VULTURE.6",0.898128629523062,0.545009544029453,1.25124771501667,"ssf","mf.is","gamma","unif",5,"ssfOUT_240_6_2_VULTURE","VULTURE",2,0.166666666666667,240,"preference"
"ssfOUT_240_6_2_VULTURE.7",1.07419270058559,0.731829439913217,1.41655596125797,"ssf","mf.is","gamma","unif",15,"ssfOUT_240_6_2_VULTURE","VULTURE",2,0.166666666666667,240,"preference"
"ssfOUT_240_6_2_VULTURE.8",1.05356467629881,0.714685896681785,1.39244345591584,"ssf","mf.is","gamma","unif",50,"ssfOUT_240_6_2_VULTURE","VULTURE",2,0.166666666666667,240,"preference"
"ssfOUT_240_6_2_VULTURE.9",1.03951366614386,0.701848779094445,1.37717855319327,"ssf","mf.is","gamma","unif",158,"ssfOUT_240_6_2_VULTURE","VULTURE",2,0.166666666666667,240,"preference"
"ssfOUT_240_6_2_VULTURE.10",1.04647779861568,0.709117210797254,1.3838383864341,"ssf","mf.is","gamma","unif",500,"ssfOUT_240_6_2_VULTURE","VULTURE",2,0.166666666666667,240,"preference"
"ssfOUT_240_6_2_VULTURE.11",0.996973382945072,0.637835920802501,1.35611084508764,"ssf","mf.is","exp","vonmises",5,"ssfOUT_240_6_2_VULTURE","VULTURE",2,0.166666666666667,240,"preference"
"ssfOUT_240_6_2_VULTURE.12",0.869544265693434,0.524370243430597,1.21471828795627,"ssf","mf.is","exp","vonmises",15,"ssfOUT_240_6_2_VULTURE","VULTURE",2,0.166666666666667,240,"preference"
"ssfOUT_240_6_2_VULTURE.13",1.01532317628786,0.675670278839446,1.35497607373627,"ssf","mf.is","exp","vonmises",50,"ssfOUT_240_6_2_VULTURE","VULTURE",2,0.166666666666667,240,"preference"
"ssfOUT_240_6_2_VULTURE.14",1.01805531289432,0.680161124062455,1.35594950172619,"ssf","mf.is","exp","vonmises",158,"ssfOUT_240_6_2_VULTURE","VULTURE",2,0.166666666666667,240,"preference"
"ssfOUT_240_6_2_VULTURE.15",1.03282502851701,0.695338920622177,1.37031113641184,"ssf","mf.is","exp","vonmises",500,"ssfOUT_240_6_2_VULTURE","VULTURE",2,0.166666666666667,240,"preference"
"ssfOUT_240_6_2_VULTURE.16",0.884168999282803,0.525167508636066,1.24317048992954,"ssf","mf.is","exp","unif",5,"ssfOUT_240_6_2_VULTURE","VULTURE",2,0.166666666666667,240,"preference"
"ssfOUT_240_6_2_VULTURE.17",0.939021236105522,0.593877649304996,1.28416482290605,"ssf","mf.is","exp","unif",15,"ssfOUT_240_6_2_VULTURE","VULTURE",2,0.166666666666667,240,"preference"
"ssfOUT_240_6_2_VULTURE.18",1.04888217202868,0.709821730374888,1.38794261368248,"ssf","mf.is","exp","unif",50,"ssfOUT_240_6_2_VULTURE","VULTURE",2,0.166666666666667,240,"preference"
"ssfOUT_240_6_2_VULTURE.19",1.01921245711392,0.681315132664624,1.35710978156323,"ssf","mf.is","exp","unif",158,"ssfOUT_240_6_2_VULTURE","VULTURE",2,0.166666666666667,240,"preference"
"ssfOUT_240_6_2_VULTURE.20",1.03596211703436,0.698520291578865,1.37340394248984,"ssf","mf.is","exp","unif",500,"ssfOUT_240_6_2_VULTURE","VULTURE",2,0.166666666666667,240,"preference"
"ssfOUT_240_6_2_VULTURE.21",0.958401061462111,0.605518984502146,1.31128313842208,"ssf","mf.ss","gamma","vonmises",5,"ssfOUT_240_6_2_VULTURE","VULTURE",2,0.166666666666667,240,"preference"
"ssfOUT_240_6_2_VULTURE.22",0.922949078975809,0.580928043501044,1.26497011445057,"ssf","mf.ss","gamma","vonmises",15,"ssfOUT_240_6_2_VULTURE","VULTURE",2,0.166666666666667,240,"preference"
"ssfOUT_240_6_2_VULTURE.23",0.900469711679775,0.562049194465496,1.23889022889405,"ssf","mf.ss","gamma","vonmises",50,"ssfOUT_240_6_2_VULTURE","VULTURE",2,0.166666666666667,240,"preference"
"ssfOUT_240_6_2_VULTURE.24",0.966831700963955,0.629360893108276,1.30430250881963,"ssf","mf.ss","gamma","vonmises",158,"ssfOUT_240_6_2_VULTURE","VULTURE",2,0.166666666666667,240,"preference"
"ssfOUT_240_6_2_VULTURE.25",0.979038143668745,0.641884682303364,1.31619160503413,"ssf","mf.ss","gamma","vonmises",500,"ssfOUT_240_6_2_VULTURE","VULTURE",2,0.166666666666667,240,"preference"
"ssfOUT_240_6_2_VULTURE.26",0.879469232374086,0.526818636444348,1.23211982830382,"ssf","mf.ss","gamma","unif",5,"ssfOUT_240_6_2_VULTURE","VULTURE",2,0.166666666666667,240,"preference"
"ssfOUT_240_6_2_VULTURE.27",1.04152797602938,0.699520360414518,1.38353559164423,"ssf","mf.ss","gamma","unif",15,"ssfOUT_240_6_2_VULTURE","VULTURE",2,0.166666666666667,240,"preference"
"ssfOUT_240_6_2_VULTURE.28",1.00683912542441,0.66816137891019,1.34551687193863,"ssf","mf.ss","gamma","unif",50,"ssfOUT_240_6_2_VULTURE","VULTURE",2,0.166666666666667,240,"preference"
"ssfOUT_240_6_2_VULTURE.29",1.00596662081288,0.668512026842549,1.3434212147832,"ssf","mf.ss","gamma","unif",158,"ssfOUT_240_6_2_VULTURE","VULTURE",2,0.166666666666667,240,"preference"
"ssfOUT_240_6_2_VULTURE.30",1.00863297032123,0.671482203521987,1.34578373712048,"ssf","mf.ss","gamma","unif",500,"ssfOUT_240_6_2_VULTURE","VULTURE",2,0.166666666666667,240,"preference"
"ssfOUT_240_6_2_VULTURE.31",0.948666270161789,0.596040693377504,1.30129184694607,"ssf","mf.ss","exp","vonmises",5,"ssfOUT_240_6_2_VULTURE","VULTURE",2,0.166666666666667,240,"preference"
"ssfOUT_240_6_2_VULTURE.32",0.880078194544017,0.536940123750631,1.2232162653374,"ssf","mf.ss","exp","vonmises",15,"ssfOUT_240_6_2_VULTURE","VULTURE",2,0.166666666666667,240,"preference"
"ssfOUT_240_6_2_VULTURE.33",0.927041408740067,0.587845429761432,1.2662373877187,"ssf","mf.ss","exp","vonmises",50,"ssfOUT_240_6_2_VULTURE","VULTURE",2,0.166666666666667,240,"preference"
"ssfOUT_240_6_2_VULTURE.34",0.924218061897239,0.586124003790578,1.2623121200039,"ssf","mf.ss","exp","vonmises",158,"ssfOUT_240_6_2_VULTURE","VULTURE",2,0.166666666666667,240,"preference"
"ssfOUT_240_6_2_VULTURE.35",0.934517266642551,0.596788464449187,1.27224606883592,"ssf","mf.ss","exp","vonmises",500,"ssfOUT_240_6_2_VULTURE","VULTURE",2,0.166666666666667,240,"preference"
"ssfOUT_240_6_2_VULTURE.36",0.832639084590907,0.479845834629431,1.18543233455238,"ssf","mf.ss","exp","unif",5,"ssfOUT_240_6_2_VULTURE","VULTURE",2,0.166666666666667,240,"preference"
"ssfOUT_240_6_2_VULTURE.37",0.840414384226422,0.497481052645822,1.18334771580702,"ssf","mf.ss","exp","unif",15,"ssfOUT_240_6_2_VULTURE","VULTURE",2,0.166666666666667,240,"preference"
"ssfOUT_240_6_2_VULTURE.38",0.989558260685913,0.650662333232443,1.32845418813938,"ssf","mf.ss","exp","unif",50,"ssfOUT_240_6_2_VULTURE","VULTURE",2,0.166666666666667,240,"preference"
"ssfOUT_240_6_2_VULTURE.39",0.96519119603047,0.627235615143352,1.30314677691759,"ssf","mf.ss","exp","unif",158,"ssfOUT_240_6_2_VULTURE","VULTURE",2,0.166666666666667,240,"preference"
"ssfOUT_240_6_2_VULTURE.40",0.972164140040533,0.634463809818396,1.30986447026267,"ssf","mf.ss","exp","unif",500,"ssfOUT_240_6_2_VULTURE","VULTURE",2,0.166666666666667,240,"preference"
"ssfOUT_240_6_2_KINGCOBRA.1",0.896251742528501,0.513587940100082,1.27891554495692,"ssf","mf.is","gamma","vonmises",5,"ssfOUT_240_6_2_KINGCOBRA","KINGCOBRA",2,0.166666666666667,240,"preference"
"ssfOUT_240_6_2_KINGCOBRA.2",0.990796724365121,0.620253966405779,1.36133948232446,"ssf","mf.is","gamma","vonmises",15,"ssfOUT_240_6_2_KINGCOBRA","KINGCOBRA",2,0.166666666666667,240,"preference"
"ssfOUT_240_6_2_KINGCOBRA.3",0.945979775018184,0.580914334890027,1.31104521514634,"ssf","mf.is","gamma","vonmises",50,"ssfOUT_240_6_2_KINGCOBRA","KINGCOBRA",2,0.166666666666667,240,"preference"
"ssfOUT_240_6_2_KINGCOBRA.4",0.953935831175665,0.58980382884432,1.31806783350701,"ssf","mf.is","gamma","vonmises",158,"ssfOUT_240_6_2_KINGCOBRA","KINGCOBRA",2,0.166666666666667,240,"preference"
"ssfOUT_240_6_2_KINGCOBRA.5",0.909616555520502,0.545927330695408,1.2733057803456,"ssf","mf.is","gamma","vonmises",500,"ssfOUT_240_6_2_KINGCOBRA","KINGCOBRA",2,0.166666666666667,240,"preference"
"ssfOUT_240_6_2_KINGCOBRA.6",1.1810103044442,0.800650183233597,1.56137042565481,"ssf","mf.is","gamma","unif",5,"ssfOUT_240_6_2_KINGCOBRA","KINGCOBRA",2,0.166666666666667,240,"preference"
"ssfOUT_240_6_2_KINGCOBRA.7",0.865928777522304,0.492457852251835,1.23939970279277,"ssf","mf.is","gamma","unif",15,"ssfOUT_240_6_2_KINGCOBRA","KINGCOBRA",2,0.166666666666667,240,"preference"
"ssfOUT_240_6_2_KINGCOBRA.8",0.963528457123516,0.597535552403231,1.3295213618438,"ssf","mf.is","gamma","unif",50,"ssfOUT_240_6_2_KINGCOBRA","KINGCOBRA",2,0.166666666666667,240,"preference"
"ssfOUT_240_6_2_KINGCOBRA.9",0.905618944614046,0.541289885900028,1.26994800332806,"ssf","mf.is","gamma","unif",158,"ssfOUT_240_6_2_KINGCOBRA","KINGCOBRA",2,0.166666666666667,240,"preference"
"ssfOUT_240_6_2_KINGCOBRA.10",0.922880654534165,0.558528085639078,1.28723322342925,"ssf","mf.is","gamma","unif",500,"ssfOUT_240_6_2_KINGCOBRA","KINGCOBRA",2,0.166666666666667,240,"preference"
"ssfOUT_240_6_2_KINGCOBRA.11",0.583788816148834,0.194867822746329,0.972709809551339,"ssf","mf.is","exp","vonmises",5,"ssfOUT_240_6_2_KINGCOBRA","KINGCOBRA",2,0.166666666666667,240,"preference"
"ssfOUT_240_6_2_KINGCOBRA.12",0.99221428363622,0.616791030406119,1.36763753686632,"ssf","mf.is","exp","vonmises",15,"ssfOUT_240_6_2_KINGCOBRA","KINGCOBRA",2,0.166666666666667,240,"preference"
"ssfOUT_240_6_2_KINGCOBRA.13",0.832714430410039,0.465751335917361,1.19967752490272,"ssf","mf.is","exp","vonmises",50,"ssfOUT_240_6_2_KINGCOBRA","KINGCOBRA",2,0.166666666666667,240,"preference"
"ssfOUT_240_6_2_KINGCOBRA.14",0.941124145734829,0.576178206029227,1.30607008544043,"ssf","mf.is","exp","vonmises",158,"ssfOUT_240_6_2_KINGCOBRA","KINGCOBRA",2,0.166666666666667,240,"preference"
"ssfOUT_240_6_2_KINGCOBRA.15",0.901383833757631,0.536963139876586,1.26580452763868,"ssf","mf.is","exp","vonmises",500,"ssfOUT_240_6_2_KINGCOBRA","KINGCOBRA",2,0.166666666666667,240,"preference"
"ssfOUT_240_6_2_KINGCOBRA.16",0.699328932166701,0.318216619746744,1.08044124458666,"ssf","mf.is","exp","unif",5,"ssfOUT_240_6_2_KINGCOBRA","KINGCOBRA",2,0.166666666666667,240,"preference"
"ssfOUT_240_6_2_KINGCOBRA.17",0.854833063835997,0.485649726444029,1.22401640122797,"ssf","mf.is","exp","unif",15,"ssfOUT_240_6_2_KINGCOBRA","KINGCOBRA",2,0.166666666666667,240,"preference"
"ssfOUT_240_6_2_KINGCOBRA.18",0.958514801927395,0.592745159123908,1.32428444473088,"ssf","mf.is","exp","unif",50,"ssfOUT_240_6_2_KINGCOBRA","KINGCOBRA",2,0.166666666666667,240,"preference"
"ssfOUT_240_6_2_KINGCOBRA.19",0.891547057455599,0.526377623110639,1.25671649180056,"ssf","mf.is","exp","unif",158,"ssfOUT_240_6_2_KINGCOBRA","KINGCOBRA",2,0.166666666666667,240,"preference"
"ssfOUT_240_6_2_KINGCOBRA.20",0.892063512129726,0.52800878669055,1.2561182375689,"ssf","mf.is","exp","unif",500,"ssfOUT_240_6_2_KINGCOBRA","KINGCOBRA",2,0.166666666666667,240,"preference"
"ssfOUT_240_6_2_KINGCOBRA.21",0.876539303348627,0.495935425406894,1.25714318129036,"ssf","mf.ss","gamma","vonmises",5,"ssfOUT_240_6_2_KINGCOBRA","KINGCOBRA",2,0.166666666666667,240,"preference"
"ssfOUT_240_6_2_KINGCOBRA.22",1.01419237630003,0.645098830109137,1.38328592249092,"ssf","mf.ss","gamma","vonmises",15,"ssfOUT_240_6_2_KINGCOBRA","KINGCOBRA",2,0.166666666666667,240,"preference"
"ssfOUT_240_6_2_KINGCOBRA.23",0.944239455084415,0.579388380327993,1.30909052984084,"ssf","mf.ss","gamma","vonmises",50,"ssfOUT_240_6_2_KINGCOBRA","KINGCOBRA",2,0.166666666666667,240,"preference"
"ssfOUT_240_6_2_KINGCOBRA.24",0.97275765065964,0.608344520230497,1.33717078108878,"ssf","mf.ss","gamma","vonmises",158,"ssfOUT_240_6_2_KINGCOBRA","KINGCOBRA",2,0.166666666666667,240,"preference"
"ssfOUT_240_6_2_KINGCOBRA.25",0.913925585912229,0.550180854600597,1.27767031722386,"ssf","mf.ss","gamma","vonmises",500,"ssfOUT_240_6_2_KINGCOBRA","KINGCOBRA",2,0.166666666666667,240,"preference"
"ssfOUT_240_6_2_KINGCOBRA.26",1.19007550369265,0.808832652597053,1.57131835478824,"ssf","mf.ss","gamma","unif",5,"ssfOUT_240_6_2_KINGCOBRA","KINGCOBRA",2,0.166666666666667,240,"preference"
"ssfOUT_240_6_2_KINGCOBRA.27",0.843450508835692,0.470333412659365,1.21656760501202,"ssf","mf.ss","gamma","unif",15,"ssfOUT_240_6_2_KINGCOBRA","KINGCOBRA",2,0.166666666666667,240,"preference"
"ssfOUT_240_6_2_KINGCOBRA.28",0.964541203172144,0.59845084414507,1.33063156219922,"ssf","mf.ss","gamma","unif",50,"ssfOUT_240_6_2_KINGCOBRA","KINGCOBRA",2,0.166666666666667,240,"preference"
"ssfOUT_240_6_2_KINGCOBRA.29",0.908978947490295,0.544687002075275,1.27327089290531,"ssf","mf.ss","gamma","unif",158,"ssfOUT_240_6_2_KINGCOBRA","KINGCOBRA",2,0.166666666666667,240,"preference"
"ssfOUT_240_6_2_KINGCOBRA.30",0.916175347298153,0.551821137366406,1.2805295572299,"ssf","mf.ss","gamma","unif",500,"ssfOUT_240_6_2_KINGCOBRA","KINGCOBRA",2,0.166666666666667,240,"preference"
"ssfOUT_240_6_2_KINGCOBRA.31",0.694152405674508,0.31690145194336,1.07140335940566,"ssf","mf.ss","exp","vonmises",5,"ssfOUT_240_6_2_KINGCOBRA","KINGCOBRA",2,0.166666666666667,240,"preference"
"ssfOUT_240_6_2_KINGCOBRA.32",0.99072329330746,0.623281265729268,1.35816532088565,"ssf","mf.ss","exp","vonmises",15,"ssfOUT_240_6_2_KINGCOBRA","KINGCOBRA",2,0.166666666666667,240,"preference"
"ssfOUT_240_6_2_KINGCOBRA.33",0.9133729823351,0.551835123993893,1.27491084067631,"ssf","mf.ss","exp","vonmises",50,"ssfOUT_240_6_2_KINGCOBRA","KINGCOBRA",2,0.166666666666667,240,"preference"
"ssfOUT_240_6_2_KINGCOBRA.34",0.991532026844024,0.631974085393822,1.35108996829423,"ssf","mf.ss","exp","vonmises",158,"ssfOUT_240_6_2_KINGCOBRA","KINGCOBRA",2,0.166666666666667,240,"preference"
"ssfOUT_240_6_2_KINGCOBRA.35",0.952267783210192,0.592908184887067,1.31162738153332,"ssf","mf.ss","exp","vonmises",500,"ssfOUT_240_6_2_KINGCOBRA","KINGCOBRA",2,0.166666666666667,240,"preference"
"ssfOUT_240_6_2_KINGCOBRA.36",0.951531787055848,0.576198497161913,1.32686507694978,"ssf","mf.ss","exp","unif",5,"ssfOUT_240_6_2_KINGCOBRA","KINGCOBRA",2,0.166666666666667,240,"preference"
"ssfOUT_240_6_2_KINGCOBRA.37",0.909623186951051,0.54513808490293,1.27410828899917,"ssf","mf.ss","exp","unif",15,"ssfOUT_240_6_2_KINGCOBRA","KINGCOBRA",2,0.166666666666667,240,"preference"
"ssfOUT_240_6_2_KINGCOBRA.38",0.98568963232137,0.624849171116839,1.3465300935259,"ssf","mf.ss","exp","unif",50,"ssfOUT_240_6_2_KINGCOBRA","KINGCOBRA",2,0.166666666666667,240,"preference"
"ssfOUT_240_6_2_KINGCOBRA.39",0.925562513183274,0.565731957055144,1.2853930693114,"ssf","mf.ss","exp","unif",158,"ssfOUT_240_6_2_KINGCOBRA","KINGCOBRA",2,0.166666666666667,240,"preference"
"ssfOUT_240_6_2_KINGCOBRA.40",0.945043080907873,0.585668761863587,1.30441739995216,"ssf","mf.ss","exp","unif",500,"ssfOUT_240_6_2_KINGCOBRA","KINGCOBRA",2,0.166666666666667,240,"preference"
"ssfOUT_240_6_3_BADGER.1",0.163179682880244,-0.0800455562448204,0.406404922005309,"ssf","mf.is","gamma","vonmises",5,"ssfOUT_240_6_3_BADGER","BADGER",3,0.166666666666667,240,"no effect"
"ssfOUT_240_6_3_BADGER.2",0.201135597570678,-0.0316803549332464,0.433951550074602,"ssf","mf.is","gamma","vonmises",15,"ssfOUT_240_6_3_BADGER","BADGER",3,0.166666666666667,240,"no effect"
"ssfOUT_240_6_3_BADGER.3",0.266174515926045,0.0385516507569935,0.493797381095096,"ssf","mf.is","gamma","vonmises",50,"ssfOUT_240_6_3_BADGER","BADGER",3,0.166666666666667,240,"preference"
"ssfOUT_240_6_3_BADGER.4",0.256173002476731,0.0300500051526916,0.482295999800771,"ssf","mf.is","gamma","vonmises",158,"ssfOUT_240_6_3_BADGER","BADGER",3,0.166666666666667,240,"preference"
"ssfOUT_240_6_3_BADGER.5",0.241158081160824,0.0155866898871896,0.466729472434458,"ssf","mf.is","gamma","vonmises",500,"ssfOUT_240_6_3_BADGER","BADGER",3,0.166666666666667,240,"preference"
"ssfOUT_240_6_3_BADGER.6",0.195619439994028,-0.0486157429111923,0.439854622899248,"ssf","mf.is","gamma","unif",5,"ssfOUT_240_6_3_BADGER","BADGER",3,0.166666666666667,240,"no effect"
"ssfOUT_240_6_3_BADGER.7",0.256384700675337,0.0253458489364719,0.487423552414202,"ssf","mf.is","gamma","unif",15,"ssfOUT_240_6_3_BADGER","BADGER",3,0.166666666666667,240,"preference"
"ssfOUT_240_6_3_BADGER.8",0.225375396755657,-0.00200954316884008,0.452760336680155,"ssf","mf.is","gamma","unif",50,"ssfOUT_240_6_3_BADGER","BADGER",3,0.166666666666667,240,"no effect"
"ssfOUT_240_6_3_BADGER.9",0.265506922456886,0.039622716186525,0.491391128727246,"ssf","mf.is","gamma","unif",158,"ssfOUT_240_6_3_BADGER","BADGER",3,0.166666666666667,240,"preference"
"ssfOUT_240_6_3_BADGER.10",0.256171211229504,0.0305627274282631,0.481779695030746,"ssf","mf.is","gamma","unif",500,"ssfOUT_240_6_3_BADGER","BADGER",3,0.166666666666667,240,"preference"
"ssfOUT_240_6_3_BADGER.11",0.289859135266488,0.0432817416039623,0.536436528929015,"ssf","mf.is","exp","vonmises",5,"ssfOUT_240_6_3_BADGER","BADGER",3,0.166666666666667,240,"preference"
"ssfOUT_240_6_3_BADGER.12",0.338650592717685,0.105439862278307,0.571861323157064,"ssf","mf.is","exp","vonmises",15,"ssfOUT_240_6_3_BADGER","BADGER",3,0.166666666666667,240,"preference"
"ssfOUT_240_6_3_BADGER.13",0.234347183199135,0.0063202045089697,0.462374161889301,"ssf","mf.is","exp","vonmises",50,"ssfOUT_240_6_3_BADGER","BADGER",3,0.166666666666667,240,"preference"
"ssfOUT_240_6_3_BADGER.14",0.277593735207614,0.0512918419477098,0.503895628467518,"ssf","mf.is","exp","vonmises",158,"ssfOUT_240_6_3_BADGER","BADGER",3,0.166666666666667,240,"preference"
"ssfOUT_240_6_3_BADGER.15",0.251485655957237,0.0258356654839358,0.477135646430539,"ssf","mf.is","exp","vonmises",500,"ssfOUT_240_6_3_BADGER","BADGER",3,0.166666666666667,240,"preference"
"ssfOUT_240_6_3_BADGER.16",0.254769700688419,0.00839674633517173,0.501142655041666,"ssf","mf.is","exp","unif",5,"ssfOUT_240_6_3_BADGER","BADGER",3,0.166666666666667,240,"preference"
"ssfOUT_240_6_3_BADGER.17",0.207147359191387,-0.0259059415214806,0.440200659904255,"ssf","mf.is","exp","unif",15,"ssfOUT_240_6_3_BADGER","BADGER",3,0.166666666666667,240,"no effect"
"ssfOUT_240_6_3_BADGER.18",0.267194934539214,0.0395273741343444,0.494862494944083,"ssf","mf.is","exp","unif",50,"ssfOUT_240_6_3_BADGER","BADGER",3,0.166666666666667,240,"preference"
"ssfOUT_240_6_3_BADGER.19",0.236947158603568,0.0110377429859872,0.462856574221149,"ssf","mf.is","exp","unif",158,"ssfOUT_240_6_3_BADGER","BADGER",3,0.166666666666667,240,"preference"
"ssfOUT_240_6_3_BADGER.20",0.259752648370611,0.0342926366018124,0.485212660139409,"ssf","mf.is","exp","unif",500,"ssfOUT_240_6_3_BADGER","BADGER",3,0.166666666666667,240,"preference"
"ssfOUT_240_6_3_BADGER.21",0.160687376282318,-0.0820505065949441,0.40342525915958,"ssf","mf.ss","gamma","vonmises",5,"ssfOUT_240_6_3_BADGER","BADGER",3,0.166666666666667,240,"no effect"
"ssfOUT_240_6_3_BADGER.22",0.196499529688211,-0.0358995302191719,0.428898589595594,"ssf","mf.ss","gamma","vonmises",15,"ssfOUT_240_6_3_BADGER","BADGER",3,0.166666666666667,240,"no effect"
"ssfOUT_240_6_3_BADGER.23",0.26506049272576,0.0376652939987664,0.492455691452754,"ssf","mf.ss","gamma","vonmises",50,"ssfOUT_240_6_3_BADGER","BADGER",3,0.166666666666667,240,"preference"
"ssfOUT_240_6_3_BADGER.24",0.250998613011049,0.0251215480504832,0.476875677971615,"ssf","mf.ss","gamma","vonmises",158,"ssfOUT_240_6_3_BADGER","BADGER",3,0.166666666666667,240,"preference"
"ssfOUT_240_6_3_BADGER.25",0.239406199626102,0.0139548525690614,0.464857546683142,"ssf","mf.ss","gamma","vonmises",500,"ssfOUT_240_6_3_BADGER","BADGER",3,0.166666666666667,240,"preference"
"ssfOUT_240_6_3_BADGER.26",0.189838567670559,-0.0540135930597736,0.433690728400892,"ssf","mf.ss","gamma","unif",5,"ssfOUT_240_6_3_BADGER","BADGER",3,0.166666666666667,240,"no effect"
"ssfOUT_240_6_3_BADGER.27",0.262497837324607,0.0316062845478452,0.493389390101368,"ssf","mf.ss","gamma","unif",15,"ssfOUT_240_6_3_BADGER","BADGER",3,0.166666666666667,240,"preference"
"ssfOUT_240_6_3_BADGER.28",0.218423450189892,-0.00884617532186752,0.445693075701651,"ssf","mf.ss","gamma","unif",50,"ssfOUT_240_6_3_BADGER","BADGER",3,0.166666666666667,240,"no effect"
"ssfOUT_240_6_3_BADGER.29",0.263709556509853,0.0379663658734025,0.489452747146304,"ssf","mf.ss","gamma","unif",158,"ssfOUT_240_6_3_BADGER","BADGER",3,0.166666666666667,240,"preference"
"ssfOUT_240_6_3_BADGER.30",0.254849141522858,0.0293392228924311,0.480359060153286,"ssf","mf.ss","gamma","unif",500,"ssfOUT_240_6_3_BADGER","BADGER",3,0.166666666666667,240,"preference"
"ssfOUT_240_6_3_BADGER.31",0.316372537503746,0.0719067890970846,0.560838285910407,"ssf","mf.ss","exp","vonmises",5,"ssfOUT_240_6_3_BADGER","BADGER",3,0.166666666666667,240,"preference"
"ssfOUT_240_6_3_BADGER.32",0.322449453241908,0.0889011814141415,0.555997725069674,"ssf","mf.ss","exp","vonmises",15,"ssfOUT_240_6_3_BADGER","BADGER",3,0.166666666666667,240,"preference"
"ssfOUT_240_6_3_BADGER.33",0.20642629002719,-0.0228964785682302,0.43574905862261,"ssf","mf.ss","exp","vonmises",50,"ssfOUT_240_6_3_BADGER","BADGER",3,0.166666666666667,240,"no effect"
"ssfOUT_240_6_3_BADGER.34",0.238205361843139,0.0107608424122499,0.465649881274028,"ssf","mf.ss","exp","vonmises",158,"ssfOUT_240_6_3_BADGER","BADGER",3,0.166666666666667,240,"preference"
"ssfOUT_240_6_3_BADGER.35",0.228816974972416,0.00192881499951386,0.455705134945318,"ssf","mf.ss","exp","vonmises",500,"ssfOUT_240_6_3_BADGER","BADGER",3,0.166666666666667,240,"preference"
"ssfOUT_240_6_3_BADGER.36",0.168511967341768,-0.074559115065201,0.411583049748737,"ssf","mf.ss","exp","unif",5,"ssfOUT_240_6_3_BADGER","BADGER",3,0.166666666666667,240,"no effect"
"ssfOUT_240_6_3_BADGER.37",0.160038242727172,-0.0734691872795776,0.393545672733922,"ssf","mf.ss","exp","unif",15,"ssfOUT_240_6_3_BADGER","BADGER",3,0.166666666666667,240,"no effect"
"ssfOUT_240_6_3_BADGER.38",0.22164131948597,-0.00688721595090871,0.450169854922849,"ssf","mf.ss","exp","unif",50,"ssfOUT_240_6_3_BADGER","BADGER",3,0.166666666666667,240,"no effect"
"ssfOUT_240_6_3_BADGER.39",0.216525766851848,-0.0105280066854944,0.44357954038919,"ssf","mf.ss","exp","unif",158,"ssfOUT_240_6_3_BADGER","BADGER",3,0.166666666666667,240,"no effect"
"ssfOUT_240_6_3_BADGER.40",0.239647805310629,0.0127688552202032,0.466526755401054,"ssf","mf.ss","exp","unif",500,"ssfOUT_240_6_3_BADGER","BADGER",3,0.166666666666667,240,"preference"
"ssfOUT_240_6_3_VULTURE.1",0.634289816102515,0.334633382829136,0.933946249375893,"ssf","mf.is","gamma","vonmises",5,"ssfOUT_240_6_3_VULTURE","VULTURE",3,0.166666666666667,240,"preference"
"ssfOUT_240_6_3_VULTURE.2",0.693896275915661,0.414239562524563,0.973552989306759,"ssf","mf.is","gamma","vonmises",15,"ssfOUT_240_6_3_VULTURE","VULTURE",3,0.166666666666667,240,"preference"
"ssfOUT_240_6_3_VULTURE.3",0.632959105938007,0.358521915148617,0.907396296727397,"ssf","mf.is","gamma","vonmises",50,"ssfOUT_240_6_3_VULTURE","VULTURE",3,0.166666666666667,240,"preference"
"ssfOUT_240_6_3_VULTURE.4",0.613953404171755,0.340978220729536,0.886928587613973,"ssf","mf.is","gamma","vonmises",158,"ssfOUT_240_6_3_VULTURE","VULTURE",3,0.166666666666667,240,"preference"
"ssfOUT_240_6_3_VULTURE.5",0.644137102138148,0.371651225104402,0.916622979171894,"ssf","mf.is","gamma","vonmises",500,"ssfOUT_240_6_3_VULTURE","VULTURE",3,0.166666666666667,240,"preference"
"ssfOUT_240_6_3_VULTURE.6",0.691572348131739,0.403451469313245,0.979693226950232,"ssf","mf.is","gamma","unif",5,"ssfOUT_240_6_3_VULTURE","VULTURE",3,0.166666666666667,240,"preference"
"ssfOUT_240_6_3_VULTURE.7",0.540715259174005,0.260929852784905,0.820500665563105,"ssf","mf.is","gamma","unif",15,"ssfOUT_240_6_3_VULTURE","VULTURE",3,0.166666666666667,240,"preference"
"ssfOUT_240_6_3_VULTURE.8",0.636646469235038,0.362276699270902,0.911016239199173,"ssf","mf.is","gamma","unif",50,"ssfOUT_240_6_3_VULTURE","VULTURE",3,0.166666666666667,240,"preference"
"ssfOUT_240_6_3_VULTURE.9",0.626920771623857,0.354177475011495,0.899664068236218,"ssf","mf.is","gamma","unif",158,"ssfOUT_240_6_3_VULTURE","VULTURE",3,0.166666666666667,240,"preference"
"ssfOUT_240_6_3_VULTURE.10",0.635870587122453,0.363437367157193,0.908303807087714,"ssf","mf.is","gamma","unif",500,"ssfOUT_240_6_3_VULTURE","VULTURE",3,0.166666666666667,240,"preference"
"ssfOUT_240_6_3_VULTURE.11",0.646657116096176,0.347560170906508,0.945754061285845,"ssf","mf.is","exp","vonmises",5,"ssfOUT_240_6_3_VULTURE","VULTURE",3,0.166666666666667,240,"preference"
"ssfOUT_240_6_3_VULTURE.12",0.696107402363332,0.415031844839614,0.97718295988705,"ssf","mf.is","exp","vonmises",15,"ssfOUT_240_6_3_VULTURE","VULTURE",3,0.166666666666667,240,"preference"
"ssfOUT_240_6_3_VULTURE.13",0.573869476675677,0.29831786367252,0.849421089678834,"ssf","mf.is","exp","vonmises",50,"ssfOUT_240_6_3_VULTURE","VULTURE",3,0.166666666666667,240,"preference"
"ssfOUT_240_6_3_VULTURE.14",0.6385152735856,0.365115826658628,0.911914720512572,"ssf","mf.is","exp","vonmises",158,"ssfOUT_240_6_3_VULTURE","VULTURE",3,0.166666666666667,240,"preference"
"ssfOUT_240_6_3_VULTURE.15",0.637656819546858,0.365066908634048,0.910246730459669,"ssf","mf.is","exp","vonmises",500,"ssfOUT_240_6_3_VULTURE","VULTURE",3,0.166666666666667,240,"preference"
"ssfOUT_240_6_3_VULTURE.16",0.385848787730794,0.0875739116318257,0.684123663829762,"ssf","mf.is","exp","unif",5,"ssfOUT_240_6_3_VULTURE","VULTURE",3,0.166666666666667,240,"preference"
"ssfOUT_240_6_3_VULTURE.17",0.620555996183222,0.340255867869414,0.90085612449703,"ssf","mf.is","exp","unif",15,"ssfOUT_240_6_3_VULTURE","VULTURE",3,0.166666666666667,240,"preference"
"ssfOUT_240_6_3_VULTURE.18",0.640873503182661,0.365766446002094,0.915980560363229,"ssf","mf.is","exp","unif",50,"ssfOUT_240_6_3_VULTURE","VULTURE",3,0.166666666666667,240,"preference"
"ssfOUT_240_6_3_VULTURE.19",0.628483046273989,0.35526933294418,0.901696759603798,"ssf","mf.is","exp","unif",158,"ssfOUT_240_6_3_VULTURE","VULTURE",3,0.166666666666667,240,"preference"
"ssfOUT_240_6_3_VULTURE.20",0.606401220510212,0.333836722467111,0.878965718553313,"ssf","mf.is","exp","unif",500,"ssfOUT_240_6_3_VULTURE","VULTURE",3,0.166666666666667,240,"preference"
"ssfOUT_240_6_3_VULTURE.21",0.591003703761005,0.295921090043321,0.88608631747869,"ssf","mf.ss","gamma","vonmises",5,"ssfOUT_240_6_3_VULTURE","VULTURE",3,0.166666666666667,240,"preference"
"ssfOUT_240_6_3_VULTURE.22",0.620946795363883,0.343215101078219,0.898678489649547,"ssf","mf.ss","gamma","vonmises",15,"ssfOUT_240_6_3_VULTURE","VULTURE",3,0.166666666666667,240,"preference"
"ssfOUT_240_6_3_VULTURE.23",0.548026189386466,0.274314316080732,0.8217380626922,"ssf","mf.ss","gamma","vonmises",50,"ssfOUT_240_6_3_VULTURE","VULTURE",3,0.166666666666667,240,"preference"
"ssfOUT_240_6_3_VULTURE.24",0.538324391395344,0.265814485904933,0.810834296885756,"ssf","mf.ss","gamma","vonmises",158,"ssfOUT_240_6_3_VULTURE","VULTURE",3,0.166666666666667,240,"preference"
"ssfOUT_240_6_3_VULTURE.25",0.551097521053476,0.279105902720079,0.823089139386873,"ssf","mf.ss","gamma","vonmises",500,"ssfOUT_240_6_3_VULTURE","VULTURE",3,0.166666666666667,240,"preference"
"ssfOUT_240_6_3_VULTURE.26",0.683990421853452,0.396468579766425,0.971512263940478,"ssf","mf.ss","gamma","unif",5,"ssfOUT_240_6_3_VULTURE","VULTURE",3,0.166666666666667,240,"preference"
"ssfOUT_240_6_3_VULTURE.27",0.503245740717576,0.223784156241726,0.782707325193426,"ssf","mf.ss","gamma","unif",15,"ssfOUT_240_6_3_VULTURE","VULTURE",3,0.166666666666667,240,"preference"
"ssfOUT_240_6_3_VULTURE.28",0.585875077930883,0.311826779338222,0.859923376523544,"ssf","mf.ss","gamma","unif",50,"ssfOUT_240_6_3_VULTURE","VULTURE",3,0.166666666666667,240,"preference"
"ssfOUT_240_6_3_VULTURE.29",0.583440650682828,0.311036237403531,0.855845063962125,"ssf","mf.ss","gamma","unif",158,"ssfOUT_240_6_3_VULTURE","VULTURE",3,0.166666666666667,240,"preference"
"ssfOUT_240_6_3_VULTURE.30",0.586125879038355,0.314098877640145,0.858152880436566,"ssf","mf.ss","gamma","unif",500,"ssfOUT_240_6_3_VULTURE","VULTURE",3,0.166666666666667,240,"preference"
"ssfOUT_240_6_3_VULTURE.31",0.595208869205491,0.303808214323038,0.886609524087943,"ssf","mf.ss","exp","vonmises",5,"ssfOUT_240_6_3_VULTURE","VULTURE",3,0.166666666666667,240,"preference"
"ssfOUT_240_6_3_VULTURE.32",0.638257739736903,0.358581372057538,0.917934107416269,"ssf","mf.ss","exp","vonmises",15,"ssfOUT_240_6_3_VULTURE","VULTURE",3,0.166666666666667,240,"preference"
"ssfOUT_240_6_3_VULTURE.33",0.527820841416893,0.252522993914496,0.803118688919289,"ssf","mf.ss","exp","vonmises",50,"ssfOUT_240_6_3_VULTURE","VULTURE",3,0.166666666666667,240,"preference"
"ssfOUT_240_6_3_VULTURE.34",0.52174499409944,0.248056244509455,0.795433743689425,"ssf","mf.ss","exp","vonmises",158,"ssfOUT_240_6_3_VULTURE","VULTURE",3,0.166666666666667,240,"preference"
"ssfOUT_240_6_3_VULTURE.35",0.548233923493064,0.275027129617731,0.821440717368398,"ssf","mf.ss","exp","vonmises",500,"ssfOUT_240_6_3_VULTURE","VULTURE",3,0.166666666666667,240,"preference"
"ssfOUT_240_6_3_VULTURE.36",0.397950051727777,0.105869417229919,0.690030686225634,"ssf","mf.ss","exp","unif",5,"ssfOUT_240_6_3_VULTURE","VULTURE",3,0.166666666666667,240,"preference"
"ssfOUT_240_6_3_VULTURE.37",0.549136373402308,0.27015315223573,0.828119594568886,"ssf","mf.ss","exp","unif",15,"ssfOUT_240_6_3_VULTURE","VULTURE",3,0.166666666666667,240,"preference"
"ssfOUT_240_6_3_VULTURE.38",0.577373728874834,0.302206866154161,0.852540591595507,"ssf","mf.ss","exp","unif",50,"ssfOUT_240_6_3_VULTURE","VULTURE",3,0.166666666666667,240,"preference"
"ssfOUT_240_6_3_VULTURE.39",0.561471140064393,0.287713085177949,0.835229194950838,"ssf","mf.ss","exp","unif",158,"ssfOUT_240_6_3_VULTURE","VULTURE",3,0.166666666666667,240,"preference"
"ssfOUT_240_6_3_VULTURE.40",0.543567921887287,0.270271979986184,0.816863863788391,"ssf","mf.ss","exp","unif",500,"ssfOUT_240_6_3_VULTURE","VULTURE",3,0.166666666666667,240,"preference"
"ssfOUT_240_6_3_KINGCOBRA.1",0.272380184758525,-0.162217342098898,0.706977711615948,"ssf","mf.is","gamma","vonmises",5,"ssfOUT_240_6_3_KINGCOBRA","KINGCOBRA",3,0.166666666666667,240,"no effect"
"ssfOUT_240_6_3_KINGCOBRA.2",0.173307318225593,-0.238124817714915,0.584739454166101,"ssf","mf.is","gamma","vonmises",15,"ssfOUT_240_6_3_KINGCOBRA","KINGCOBRA",3,0.166666666666667,240,"no effect"
"ssfOUT_240_6_3_KINGCOBRA.3",0.135200473003609,-0.26431312345728,0.534714069464499,"ssf","mf.is","gamma","vonmises",50,"ssfOUT_240_6_3_KINGCOBRA","KINGCOBRA",3,0.166666666666667,240,"no effect"
"ssfOUT_240_6_3_KINGCOBRA.4",0.226615319925242,-0.170408305361163,0.623638945211646,"ssf","mf.is","gamma","vonmises",158,"ssfOUT_240_6_3_KINGCOBRA","KINGCOBRA",3,0.166666666666667,240,"no effect"
"ssfOUT_240_6_3_KINGCOBRA.5",0.226766077266691,-0.16881078667344,0.622342941206821,"ssf","mf.is","gamma","vonmises",500,"ssfOUT_240_6_3_KINGCOBRA","KINGCOBRA",3,0.166666666666667,240,"no effect"
"ssfOUT_240_6_3_KINGCOBRA.6",0.0150422255685831,-0.424776699615782,0.454861150752948,"ssf","mf.is","gamma","unif",5,"ssfOUT_240_6_3_KINGCOBRA","KINGCOBRA",3,0.166666666666667,240,"no effect"
"ssfOUT_240_6_3_KINGCOBRA.7",0.280678072516447,-0.133018558796697,0.694374703829591,"ssf","mf.is","gamma","unif",15,"ssfOUT_240_6_3_KINGCOBRA","KINGCOBRA",3,0.166666666666667,240,"no effect"
"ssfOUT_240_6_3_KINGCOBRA.8",0.228454906767857,-0.171004319554734,0.627914133090449,"ssf","mf.is","gamma","unif",50,"ssfOUT_240_6_3_KINGCOBRA","KINGCOBRA",3,0.166666666666667,240,"no effect"
"ssfOUT_240_6_3_KINGCOBRA.9",0.220077427572544,-0.177402961602489,0.617557816747577,"ssf","mf.is","gamma","unif",158,"ssfOUT_240_6_3_KINGCOBRA","KINGCOBRA",3,0.166666666666667,240,"no effect"
"ssfOUT_240_6_3_KINGCOBRA.10",0.26793781772977,-0.128521301220961,0.664396936680501,"ssf","mf.is","gamma","unif",500,"ssfOUT_240_6_3_KINGCOBRA","KINGCOBRA",3,0.166666666666667,240,"no effect"
"ssfOUT_240_6_3_KINGCOBRA.11",-0.0650976100421446,-0.503561752751692,0.373366532667402,"ssf","mf.is","exp","vonmises",5,"ssfOUT_240_6_3_KINGCOBRA","KINGCOBRA",3,0.166666666666667,240,"no effect"
"ssfOUT_240_6_3_KINGCOBRA.12",-0.0706588969864617,-0.484531049260087,0.343213255287164,"ssf","mf.is","exp","vonmises",15,"ssfOUT_240_6_3_KINGCOBRA","KINGCOBRA",3,0.166666666666667,240,"no effect"
"ssfOUT_240_6_3_KINGCOBRA.13",0.154587282074168,-0.251065585220058,0.560240149368393,"ssf","mf.is","exp","vonmises",50,"ssfOUT_240_6_3_KINGCOBRA","KINGCOBRA",3,0.166666666666667,240,"no effect"
"ssfOUT_240_6_3_KINGCOBRA.14",0.27248335356478,-0.129300647929872,0.674267355059432,"ssf","mf.is","exp","vonmises",158,"ssfOUT_240_6_3_KINGCOBRA","KINGCOBRA",3,0.166666666666667,240,"no effect"
"ssfOUT_240_6_3_KINGCOBRA.15",0.244842751711211,-0.15538022942387,0.645065732846292,"ssf","mf.is","exp","vonmises",500,"ssfOUT_240_6_3_KINGCOBRA","KINGCOBRA",3,0.166666666666667,240,"no effect"
"ssfOUT_240_6_3_KINGCOBRA.16",-0.20473502350958,-0.669128355388907,0.259658308369748,"ssf","mf.is","exp","unif",5,"ssfOUT_240_6_3_KINGCOBRA","KINGCOBRA",3,0.166666666666667,240,"no effect"
"ssfOUT_240_6_3_KINGCOBRA.17",0.315254712082524,-0.0945089933910552,0.725018417556104,"ssf","mf.is","exp","unif",15,"ssfOUT_240_6_3_KINGCOBRA","KINGCOBRA",3,0.166666666666667,240,"no effect"
"ssfOUT_240_6_3_KINGCOBRA.18",0.0571934732384052,-0.341115259544232,0.455502206021043,"ssf","mf.is","exp","unif",50,"ssfOUT_240_6_3_KINGCOBRA","KINGCOBRA",3,0.166666666666667,240,"no effect"
"ssfOUT_240_6_3_KINGCOBRA.19",0.245172321185499,-0.154508620487274,0.644853262858271,"ssf","mf.is","exp","unif",158,"ssfOUT_240_6_3_KINGCOBRA","KINGCOBRA",3,0.166666666666667,240,"no effect"
"ssfOUT_240_6_3_KINGCOBRA.20",0.205744155195144,-0.191916556692817,0.603404867083106,"ssf","mf.is","exp","unif",500,"ssfOUT_240_6_3_KINGCOBRA","KINGCOBRA",3,0.166666666666667,240,"no effect"
"ssfOUT_240_6_3_KINGCOBRA.21",0.176253353988029,-0.252676876874905,0.605183584850964,"ssf","mf.ss","gamma","vonmises",5,"ssfOUT_240_6_3_KINGCOBRA","KINGCOBRA",3,0.166666666666667,240,"no effect"
"ssfOUT_240_6_3_KINGCOBRA.22",0.0896744774290244,-0.31801177251675,0.497360727374799,"ssf","mf.ss","gamma","vonmises",15,"ssfOUT_240_6_3_KINGCOBRA","KINGCOBRA",3,0.166666666666667,240,"no effect"
"ssfOUT_240_6_3_KINGCOBRA.23",0.0060978759253103,-0.393892571742202,0.406088323592823,"ssf","mf.ss","gamma","vonmises",50,"ssfOUT_240_6_3_KINGCOBRA","KINGCOBRA",3,0.166666666666667,240,"no effect"
"ssfOUT_240_6_3_KINGCOBRA.24",0.112765981198476,-0.284969515479145,0.510501477876098,"ssf","mf.ss","gamma","vonmises",158,"ssfOUT_240_6_3_KINGCOBRA","KINGCOBRA",3,0.166666666666667,240,"no effect"
"ssfOUT_240_6_3_KINGCOBRA.25",0.0942031039190059,-0.301209594959543,0.489615802797555,"ssf","mf.ss","gamma","vonmises",500,"ssfOUT_240_6_3_KINGCOBRA","KINGCOBRA",3,0.166666666666667,240,"no effect"
"ssfOUT_240_6_3_KINGCOBRA.26",-0.0593039649184241,-0.497377068696124,0.378769138859275,"ssf","mf.ss","gamma","unif",5,"ssfOUT_240_6_3_KINGCOBRA","KINGCOBRA",3,0.166666666666667,240,"no effect"
"ssfOUT_240_6_3_KINGCOBRA.27",0.204146130744071,-0.210413610597762,0.618705872085905,"ssf","mf.ss","gamma","unif",15,"ssfOUT_240_6_3_KINGCOBRA","KINGCOBRA",3,0.166666666666667,240,"no effect"
"ssfOUT_240_6_3_KINGCOBRA.28",0.134602642497572,-0.264402793440278,0.533608078435421,"ssf","mf.ss","gamma","unif",50,"ssfOUT_240_6_3_KINGCOBRA","KINGCOBRA",3,0.166666666666667,240,"no effect"
"ssfOUT_240_6_3_KINGCOBRA.29",0.140194250638497,-0.257508478227105,0.537896979504098,"ssf","mf.ss","gamma","unif",158,"ssfOUT_240_6_3_KINGCOBRA","KINGCOBRA",3,0.166666666666667,240,"no effect"
"ssfOUT_240_6_3_KINGCOBRA.30",0.179795656815887,-0.21667799921396,0.576269312845734,"ssf","mf.ss","gamma","unif",500,"ssfOUT_240_6_3_KINGCOBRA","KINGCOBRA",3,0.166666666666667,240,"no effect"
"ssfOUT_240_6_3_KINGCOBRA.31",0.0503755421960756,-0.38144674181411,0.482197826206261,"ssf","mf.ss","exp","vonmises",5,"ssfOUT_240_6_3_KINGCOBRA","KINGCOBRA",3,0.166666666666667,240,"no effect"
"ssfOUT_240_6_3_KINGCOBRA.32",-0.231037195178045,-0.634983730327517,0.172909339971428,"ssf","mf.ss","exp","vonmises",15,"ssfOUT_240_6_3_KINGCOBRA","KINGCOBRA",3,0.166666666666667,240,"no effect"
"ssfOUT_240_6_3_KINGCOBRA.33",-0.199588644023687,-0.595741763995615,0.196564475948241,"ssf","mf.ss","exp","vonmises",50,"ssfOUT_240_6_3_KINGCOBRA","KINGCOBRA",3,0.166666666666667,240,"no effect"
"ssfOUT_240_6_3_KINGCOBRA.34",-0.158707109440603,-0.550395899727186,0.232981680845981,"ssf","mf.ss","exp","vonmises",158,"ssfOUT_240_6_3_KINGCOBRA","KINGCOBRA",3,0.166666666666667,240,"no effect"
"ssfOUT_240_6_3_KINGCOBRA.35",-0.150600791174402,-0.542610373120955,0.241408790772151,"ssf","mf.ss","exp","vonmises",500,"ssfOUT_240_6_3_KINGCOBRA","KINGCOBRA",3,0.166666666666667,240,"no effect"
"ssfOUT_240_6_3_KINGCOBRA.36",-0.280487800866393,-0.722334510413406,0.16135890868062,"ssf","mf.ss","exp","unif",5,"ssfOUT_240_6_3_KINGCOBRA","KINGCOBRA",3,0.166666666666667,240,"no effect"
"ssfOUT_240_6_3_KINGCOBRA.37",0.120534249114057,-0.280454024862159,0.521522523090272,"ssf","mf.ss","exp","unif",15,"ssfOUT_240_6_3_KINGCOBRA","KINGCOBRA",3,0.166666666666667,240,"no effect"
"ssfOUT_240_6_3_KINGCOBRA.38",-0.159223582127447,-0.552839802951897,0.234392638697002,"ssf","mf.ss","exp","unif",50,"ssfOUT_240_6_3_KINGCOBRA","KINGCOBRA",3,0.166666666666667,240,"no effect"
"ssfOUT_240_6_3_KINGCOBRA.39",-0.0840767926725989,-0.47527747697085,0.307123891625652,"ssf","mf.ss","exp","unif",158,"ssfOUT_240_6_3_KINGCOBRA","KINGCOBRA",3,0.166666666666667,240,"no effect"
"ssfOUT_240_6_3_KINGCOBRA.40",-0.0806105611459431,-0.471435872968832,0.310214750676945,"ssf","mf.ss","exp","unif",500,"ssfOUT_240_6_3_KINGCOBRA","KINGCOBRA",3,0.166666666666667,240,"no effect"
"ssfOUT_240_6_4_BADGER.1",0.221374541131336,-0.0116251010274762,0.454374183290147,"ssf","mf.is","gamma","vonmises",5,"ssfOUT_240_6_4_BADGER","BADGER",4,0.166666666666667,240,"no effect"
"ssfOUT_240_6_4_BADGER.2",0.252683491343242,0.033089621475788,0.472277361210697,"ssf","mf.is","gamma","vonmises",15,"ssfOUT_240_6_4_BADGER","BADGER",4,0.166666666666667,240,"preference"
"ssfOUT_240_6_4_BADGER.3",0.286719397537931,0.073173640022576,0.500265155053286,"ssf","mf.is","gamma","vonmises",50,"ssfOUT_240_6_4_BADGER","BADGER",4,0.166666666666667,240,"preference"
"ssfOUT_240_6_4_BADGER.4",0.269524449844301,0.0575884718146555,0.481460427873947,"ssf","mf.is","gamma","vonmises",158,"ssfOUT_240_6_4_BADGER","BADGER",4,0.166666666666667,240,"preference"
"ssfOUT_240_6_4_BADGER.5",0.245142128171853,0.0336977524861112,0.456586503857594,"ssf","mf.is","gamma","vonmises",500,"ssfOUT_240_6_4_BADGER","BADGER",4,0.166666666666667,240,"preference"
"ssfOUT_240_6_4_BADGER.6",0.220246604979807,-0.0120205941712563,0.452513804130871,"ssf","mf.is","gamma","unif",5,"ssfOUT_240_6_4_BADGER","BADGER",4,0.166666666666667,240,"no effect"
"ssfOUT_240_6_4_BADGER.7",0.280093119882436,0.0625136407777565,0.497672598987116,"ssf","mf.is","gamma","unif",15,"ssfOUT_240_6_4_BADGER","BADGER",4,0.166666666666667,240,"preference"
"ssfOUT_240_6_4_BADGER.8",0.264883553530332,0.0517379957776604,0.478029111283004,"ssf","mf.is","gamma","unif",50,"ssfOUT_240_6_4_BADGER","BADGER",4,0.166666666666667,240,"preference"
"ssfOUT_240_6_4_BADGER.9",0.239811111183233,0.0279041902234785,0.451718032142988,"ssf","mf.is","gamma","unif",158,"ssfOUT_240_6_4_BADGER","BADGER",4,0.166666666666667,240,"preference"
"ssfOUT_240_6_4_BADGER.10",0.256796467316491,0.0453560702868513,0.46823686434613,"ssf","mf.is","gamma","unif",500,"ssfOUT_240_6_4_BADGER","BADGER",4,0.166666666666667,240,"preference"
"ssfOUT_240_6_4_BADGER.11",0.134335069064236,-0.105185917380785,0.373856055509257,"ssf","mf.is","exp","vonmises",5,"ssfOUT_240_6_4_BADGER","BADGER",4,0.166666666666667,240,"no effect"
"ssfOUT_240_6_4_BADGER.12",0.264008959318938,0.0439690796712451,0.484048838966631,"ssf","mf.is","exp","vonmises",15,"ssfOUT_240_6_4_BADGER","BADGER",4,0.166666666666667,240,"preference"
"ssfOUT_240_6_4_BADGER.13",0.253295482216884,0.0388789291214102,0.467712035312358,"ssf","mf.is","exp","vonmises",50,"ssfOUT_240_6_4_BADGER","BADGER",4,0.166666666666667,240,"preference"
"ssfOUT_240_6_4_BADGER.14",0.276281995072139,0.063898968118769,0.488665022025509,"ssf","mf.is","exp","vonmises",158,"ssfOUT_240_6_4_BADGER","BADGER",4,0.166666666666667,240,"preference"
"ssfOUT_240_6_4_BADGER.15",0.259652078454101,0.048236369570191,0.471067787338011,"ssf","mf.is","exp","vonmises",500,"ssfOUT_240_6_4_BADGER","BADGER",4,0.166666666666667,240,"preference"
"ssfOUT_240_6_4_BADGER.16",0.44461292502092,0.209550199118594,0.679675650923247,"ssf","mf.is","exp","unif",5,"ssfOUT_240_6_4_BADGER","BADGER",4,0.166666666666667,240,"preference"
"ssfOUT_240_6_4_BADGER.17",0.213861355267787,-0.00561535199301169,0.433338062528586,"ssf","mf.is","exp","unif",15,"ssfOUT_240_6_4_BADGER","BADGER",4,0.166666666666667,240,"no effect"
"ssfOUT_240_6_4_BADGER.18",0.235928196479305,0.021648891246577,0.450207501712034,"ssf","mf.is","exp","unif",50,"ssfOUT_240_6_4_BADGER","BADGER",4,0.166666666666667,240,"preference"
"ssfOUT_240_6_4_BADGER.19",0.246899231562009,0.0350093159976996,0.458789147126319,"ssf","mf.is","exp","unif",158,"ssfOUT_240_6_4_BADGER","BADGER",4,0.166666666666667,240,"preference"
"ssfOUT_240_6_4_BADGER.20",0.257779080492235,0.0463216166150113,0.469236544369459,"ssf","mf.is","exp","unif",500,"ssfOUT_240_6_4_BADGER","BADGER",4,0.166666666666667,240,"preference"
"ssfOUT_240_6_4_BADGER.21",0.196552886514495,-0.0334056645473939,0.426511437576384,"ssf","mf.ss","gamma","vonmises",5,"ssfOUT_240_6_4_BADGER","BADGER",4,0.166666666666667,240,"no effect"
"ssfOUT_240_6_4_BADGER.22",0.238444401220241,0.0194575638796414,0.457431238560841,"ssf","mf.ss","gamma","vonmises",15,"ssfOUT_240_6_4_BADGER","BADGER",4,0.166666666666667,240,"preference"
"ssfOUT_240_6_4_BADGER.23",0.247355382732081,0.0344666861041437,0.460244079360018,"ssf","mf.ss","gamma","vonmises",50,"ssfOUT_240_6_4_BADGER","BADGER",4,0.166666666666667,240,"preference"
"ssfOUT_240_6_4_BADGER.24",0.219197443479945,0.00760990852058654,0.430784978439304,"ssf","mf.ss","gamma","vonmises",158,"ssfOUT_240_6_4_BADGER","BADGER",4,0.166666666666667,240,"preference"
"ssfOUT_240_6_4_BADGER.25",0.21279789756966,0.00155317828431789,0.424042616855002,"ssf","mf.ss","gamma","vonmises",500,"ssfOUT_240_6_4_BADGER","BADGER",4,0.166666666666667,240,"preference"
"ssfOUT_240_6_4_BADGER.26",0.21027935838948,-0.0206900457065447,0.441248762485504,"ssf","mf.ss","gamma","unif",5,"ssfOUT_240_6_4_BADGER","BADGER",4,0.166666666666667,240,"no effect"
"ssfOUT_240_6_4_BADGER.27",0.291402415805142,0.0739272660749538,0.508877565535329,"ssf","mf.ss","gamma","unif",15,"ssfOUT_240_6_4_BADGER","BADGER",4,0.166666666666667,240,"preference"
"ssfOUT_240_6_4_BADGER.28",0.245254307106156,0.0323180692934952,0.458190544918817,"ssf","mf.ss","gamma","unif",50,"ssfOUT_240_6_4_BADGER","BADGER",4,0.166666666666667,240,"preference"
"ssfOUT_240_6_4_BADGER.29",0.218558320475358,0.0068982809148776,0.430218360035839,"ssf","mf.ss","gamma","unif",158,"ssfOUT_240_6_4_BADGER","BADGER",4,0.166666666666667,240,"preference"
"ssfOUT_240_6_4_BADGER.30",0.232396172895403,0.0211686548284329,0.443623690962374,"ssf","mf.ss","gamma","unif",500,"ssfOUT_240_6_4_BADGER","BADGER",4,0.166666666666667,240,"preference"
"ssfOUT_240_6_4_BADGER.31",0.067515463283242,-0.165520436961757,0.300551363528241,"ssf","mf.ss","exp","vonmises",5,"ssfOUT_240_6_4_BADGER","BADGER",4,0.166666666666667,240,"no effect"
"ssfOUT_240_6_4_BADGER.32",0.203731767407137,-0.0154846605797409,0.422948195394015,"ssf","mf.ss","exp","vonmises",15,"ssfOUT_240_6_4_BADGER","BADGER",4,0.166666666666667,240,"no effect"
"ssfOUT_240_6_4_BADGER.33",0.123812097353033,-0.0916962087478375,0.339320403453903,"ssf","mf.ss","exp","vonmises",50,"ssfOUT_240_6_4_BADGER","BADGER",4,0.166666666666667,240,"no effect"
"ssfOUT_240_6_4_BADGER.34",0.158715320301629,-0.0550450595638709,0.372475700167129,"ssf","mf.ss","exp","vonmises",158,"ssfOUT_240_6_4_BADGER","BADGER",4,0.166666666666667,240,"no effect"
"ssfOUT_240_6_4_BADGER.35",0.141880236751877,-0.0711679969238196,0.354928470427574,"ssf","mf.ss","exp","vonmises",500,"ssfOUT_240_6_4_BADGER","BADGER",4,0.166666666666667,240,"no effect"
"ssfOUT_240_6_4_BADGER.36",0.314688590308065,0.0833986384600316,0.545978542156098,"ssf","mf.ss","exp","unif",5,"ssfOUT_240_6_4_BADGER","BADGER",4,0.166666666666667,240,"preference"
"ssfOUT_240_6_4_BADGER.37",0.121696204185801,-0.0983960969305011,0.341788505302103,"ssf","mf.ss","exp","unif",15,"ssfOUT_240_6_4_BADGER","BADGER",4,0.166666666666667,240,"no effect"
"ssfOUT_240_6_4_BADGER.38",0.125450360682069,-0.0900044866266627,0.3409052079908,"ssf","mf.ss","exp","unif",50,"ssfOUT_240_6_4_BADGER","BADGER",4,0.166666666666667,240,"no effect"
"ssfOUT_240_6_4_BADGER.39",0.148557827699884,-0.0649586928580278,0.362074348257797,"ssf","mf.ss","exp","unif",158,"ssfOUT_240_6_4_BADGER","BADGER",4,0.166666666666667,240,"no effect"
"ssfOUT_240_6_4_BADGER.40",0.155807147941921,-0.057296747126188,0.36891104301003,"ssf","mf.ss","exp","unif",500,"ssfOUT_240_6_4_BADGER","BADGER",4,0.166666666666667,240,"no effect"
"ssfOUT_240_6_4_VULTURE.1",1.07536878361506,0.740036242444351,1.41070132478577,"ssf","mf.is","gamma","vonmises",5,"ssfOUT_240_6_4_VULTURE","VULTURE",4,0.166666666666667,240,"preference"
"ssfOUT_240_6_4_VULTURE.2",1.1215411289676,0.797280057407851,1.44580220052736,"ssf","mf.is","gamma","vonmises",15,"ssfOUT_240_6_4_VULTURE","VULTURE",4,0.166666666666667,240,"preference"
"ssfOUT_240_6_4_VULTURE.3",1.13045866259468,0.808848555290255,1.45206876989911,"ssf","mf.is","gamma","vonmises",50,"ssfOUT_240_6_4_VULTURE","VULTURE",4,0.166666666666667,240,"preference"
"ssfOUT_240_6_4_VULTURE.4",1.13833600469299,0.817695574213434,1.45897643517255,"ssf","mf.is","gamma","vonmises",158,"ssfOUT_240_6_4_VULTURE","VULTURE",4,0.166666666666667,240,"preference"
"ssfOUT_240_6_4_VULTURE.5",1.15749561152349,0.837194004313865,1.47779721873312,"ssf","mf.is","gamma","vonmises",500,"ssfOUT_240_6_4_VULTURE","VULTURE",4,0.166666666666667,240,"preference"
"ssfOUT_240_6_4_VULTURE.6",1.12668201949097,0.794090406375477,1.45927363260647,"ssf","mf.is","gamma","unif",5,"ssfOUT_240_6_4_VULTURE","VULTURE",4,0.166666666666667,240,"preference"
"ssfOUT_240_6_4_VULTURE.7",1.09146886378771,0.767028431923685,1.41590929565173,"ssf","mf.is","gamma","unif",15,"ssfOUT_240_6_4_VULTURE","VULTURE",4,0.166666666666667,240,"preference"
"ssfOUT_240_6_4_VULTURE.8",1.10444401246871,0.783044467147057,1.42584355779035,"ssf","mf.is","gamma","unif",50,"ssfOUT_240_6_4_VULTURE","VULTURE",4,0.166666666666667,240,"preference"
"ssfOUT_240_6_4_VULTURE.9",1.14569320076112,0.82514488062941,1.46624152089283,"ssf","mf.is","gamma","unif",158,"ssfOUT_240_6_4_VULTURE","VULTURE",4,0.166666666666667,240,"preference"
"ssfOUT_240_6_4_VULTURE.10",1.16895614779769,0.848713239388215,1.48919905620716,"ssf","mf.is","gamma","unif",500,"ssfOUT_240_6_4_VULTURE","VULTURE",4,0.166666666666667,240,"preference"
"ssfOUT_240_6_4_VULTURE.11",1.27378370353579,0.936660499433515,1.61090690763807,"ssf","mf.is","exp","vonmises",5,"ssfOUT_240_6_4_VULTURE","VULTURE",4,0.166666666666667,240,"preference"
"ssfOUT_240_6_4_VULTURE.12",1.15907251197348,0.833473599372892,1.48467142457406,"ssf","mf.is","exp","vonmises",15,"ssfOUT_240_6_4_VULTURE","VULTURE",4,0.166666666666667,240,"preference"
"ssfOUT_240_6_4_VULTURE.13",1.18641399407909,0.864636226845913,1.50819176131227,"ssf","mf.is","exp","vonmises",50,"ssfOUT_240_6_4_VULTURE","VULTURE",4,0.166666666666667,240,"preference"
"ssfOUT_240_6_4_VULTURE.14",1.2032704419898,0.882559488688201,1.5239813952914,"ssf","mf.is","exp","vonmises",158,"ssfOUT_240_6_4_VULTURE","VULTURE",4,0.166666666666667,240,"preference"
"ssfOUT_240_6_4_VULTURE.15",1.1682629014574,0.847926633880596,1.4885991690342,"ssf","mf.is","exp","vonmises",500,"ssfOUT_240_6_4_VULTURE","VULTURE",4,0.166666666666667,240,"preference"
"ssfOUT_240_6_4_VULTURE.16",1.18512339293611,0.847814292494706,1.52243249337751,"ssf","mf.is","exp","unif",5,"ssfOUT_240_6_4_VULTURE","VULTURE",4,0.166666666666667,240,"preference"
"ssfOUT_240_6_4_VULTURE.17",1.1425449681923,0.816436624394443,1.46865331199016,"ssf","mf.is","exp","unif",15,"ssfOUT_240_6_4_VULTURE","VULTURE",4,0.166666666666667,240,"preference"
"ssfOUT_240_6_4_VULTURE.18",1.1407702492524,0.818802554923592,1.46273794358121,"ssf","mf.is","exp","unif",50,"ssfOUT_240_6_4_VULTURE","VULTURE",4,0.166666666666667,240,"preference"
"ssfOUT_240_6_4_VULTURE.19",1.15917307023127,0.838453227140389,1.47989291332215,"ssf","mf.is","exp","unif",158,"ssfOUT_240_6_4_VULTURE","VULTURE",4,0.166666666666667,240,"preference"
"ssfOUT_240_6_4_VULTURE.20",1.1642351667531,0.843939856433131,1.48453047707306,"ssf","mf.is","exp","unif",500,"ssfOUT_240_6_4_VULTURE","VULTURE",4,0.166666666666667,240,"preference"
"ssfOUT_240_6_4_VULTURE.21",1.08203931796668,0.749051139359288,1.41502749657406,"ssf","mf.ss","gamma","vonmises",5,"ssfOUT_240_6_4_VULTURE","VULTURE",4,0.166666666666667,240,"preference"
"ssfOUT_240_6_4_VULTURE.22",1.10778305282917,0.784178547334176,1.43138755832416,"ssf","mf.ss","gamma","vonmises",15,"ssfOUT_240_6_4_VULTURE","VULTURE",4,0.166666666666667,240,"preference"
"ssfOUT_240_6_4_VULTURE.23",1.11025973738387,0.788948876915113,1.43157059785263,"ssf","mf.ss","gamma","vonmises",50,"ssfOUT_240_6_4_VULTURE","VULTURE",4,0.166666666666667,240,"preference"
"ssfOUT_240_6_4_VULTURE.24",1.11406072219769,0.79360662860906,1.43451481578633,"ssf","mf.ss","gamma","vonmises",158,"ssfOUT_240_6_4_VULTURE","VULTURE",4,0.166666666666667,240,"preference"
"ssfOUT_240_6_4_VULTURE.25",1.13459112703003,0.814466632845333,1.45471562121472,"ssf","mf.ss","gamma","vonmises",500,"ssfOUT_240_6_4_VULTURE","VULTURE",4,0.166666666666667,240,"preference"
"ssfOUT_240_6_4_VULTURE.26",1.09012739146618,0.758057369320465,1.4221974136119,"ssf","mf.ss","gamma","unif",5,"ssfOUT_240_6_4_VULTURE","VULTURE",4,0.166666666666667,240,"preference"
"ssfOUT_240_6_4_VULTURE.27",1.09426253102054,0.770145453743283,1.4183796082978,"ssf","mf.ss","gamma","unif",15,"ssfOUT_240_6_4_VULTURE","VULTURE",4,0.166666666666667,240,"preference"
"ssfOUT_240_6_4_VULTURE.28",1.08869619760213,0.767509217378598,1.40988317782566,"ssf","mf.ss","gamma","unif",50,"ssfOUT_240_6_4_VULTURE","VULTURE",4,0.166666666666667,240,"preference"
"ssfOUT_240_6_4_VULTURE.29",1.13155334204152,0.811157658750792,1.45194902533225,"ssf","mf.ss","gamma","unif",158,"ssfOUT_240_6_4_VULTURE","VULTURE",4,0.166666666666667,240,"preference"
"ssfOUT_240_6_4_VULTURE.30",1.15354147049284,0.833459547737236,1.47362339324844,"ssf","mf.ss","gamma","unif",500,"ssfOUT_240_6_4_VULTURE","VULTURE",4,0.166666666666667,240,"preference"
"ssfOUT_240_6_4_VULTURE.31",1.14873284674368,0.816633484704271,1.4808322087831,"ssf","mf.ss","exp","vonmises",5,"ssfOUT_240_6_4_VULTURE","VULTURE",4,0.166666666666667,240,"preference"
"ssfOUT_240_6_4_VULTURE.32",1.09509449295054,0.770281571508272,1.41990741439281,"ssf","mf.ss","exp","vonmises",15,"ssfOUT_240_6_4_VULTURE","VULTURE",4,0.166666666666667,240,"preference"
"ssfOUT_240_6_4_VULTURE.33",1.05488673853514,0.733357346110164,1.37641613096011,"ssf","mf.ss","exp","vonmises",50,"ssfOUT_240_6_4_VULTURE","VULTURE",4,0.166666666666667,240,"preference"
"ssfOUT_240_6_4_VULTURE.34",1.0910266160181,0.770030114131435,1.41202311790477,"ssf","mf.ss","exp","vonmises",158,"ssfOUT_240_6_4_VULTURE","VULTURE",4,0.166666666666667,240,"preference"
"ssfOUT_240_6_4_VULTURE.35",1.05866253635303,0.738038346270361,1.3792867264357,"ssf","mf.ss","exp","vonmises",500,"ssfOUT_240_6_4_VULTURE","VULTURE",4,0.166666666666667,240,"preference"
"ssfOUT_240_6_4_VULTURE.36",1.14892344982287,0.816339641331588,1.48150725831414,"ssf","mf.ss","exp","unif",5,"ssfOUT_240_6_4_VULTURE","VULTURE",4,0.166666666666667,240,"preference"
"ssfOUT_240_6_4_VULTURE.37",1.02711982302582,0.702190969271558,1.35204867678009,"ssf","mf.ss","exp","unif",15,"ssfOUT_240_6_4_VULTURE","VULTURE",4,0.166666666666667,240,"preference"
"ssfOUT_240_6_4_VULTURE.38",1.02261675412639,0.700818388777078,1.3444151194757,"ssf","mf.ss","exp","unif",50,"ssfOUT_240_6_4_VULTURE","VULTURE",4,0.166666666666667,240,"preference"
"ssfOUT_240_6_4_VULTURE.39",1.05999378397662,0.739016848825079,1.38097071912815,"ssf","mf.ss","exp","unif",158,"ssfOUT_240_6_4_VULTURE","VULTURE",4,0.166666666666667,240,"preference"
"ssfOUT_240_6_4_VULTURE.40",1.06010399033617,0.73945508462973,1.38075289604261,"ssf","mf.ss","exp","unif",500,"ssfOUT_240_6_4_VULTURE","VULTURE",4,0.166666666666667,240,"preference"
"ssfOUT_240_6_4_KINGCOBRA.1",1.07649472069056,0.554645613274137,1.59834382810699,"ssf","mf.is","gamma","vonmises",5,"ssfOUT_240_6_4_KINGCOBRA","KINGCOBRA",4,0.166666666666667,240,"preference"
"ssfOUT_240_6_4_KINGCOBRA.2",1.28614636234036,0.774736534210493,1.79755619047022,"ssf","mf.is","gamma","vonmises",15,"ssfOUT_240_6_4_KINGCOBRA","KINGCOBRA",4,0.166666666666667,240,"preference"
"ssfOUT_240_6_4_KINGCOBRA.3",1.22444739844249,0.71852937561241,1.73036542127257,"ssf","mf.is","gamma","vonmises",50,"ssfOUT_240_6_4_KINGCOBRA","KINGCOBRA",4,0.166666666666667,240,"preference"
"ssfOUT_240_6_4_KINGCOBRA.4",1.21509994369053,0.709610825689117,1.72058906169194,"ssf","mf.is","gamma","vonmises",158,"ssfOUT_240_6_4_KINGCOBRA","KINGCOBRA",4,0.166666666666667,240,"preference"
"ssfOUT_240_6_4_KINGCOBRA.5",1.25450968958643,0.749481162926932,1.75953821624593,"ssf","mf.is","gamma","vonmises",500,"ssfOUT_240_6_4_KINGCOBRA","KINGCOBRA",4,0.166666666666667,240,"preference"
"ssfOUT_240_6_4_KINGCOBRA.6",1.07752599917736,0.556430190022837,1.59862180833187,"ssf","mf.is","gamma","unif",5,"ssfOUT_240_6_4_KINGCOBRA","KINGCOBRA",4,0.166666666666667,240,"preference"
"ssfOUT_240_6_4_KINGCOBRA.7",1.18103195276042,0.671403255732432,1.6906606497884,"ssf","mf.is","gamma","unif",15,"ssfOUT_240_6_4_KINGCOBRA","KINGCOBRA",4,0.166666666666667,240,"preference"
"ssfOUT_240_6_4_KINGCOBRA.8",1.10244200265332,0.595826364068287,1.60905764123836,"ssf","mf.is","gamma","unif",50,"ssfOUT_240_6_4_KINGCOBRA","KINGCOBRA",4,0.166666666666667,240,"preference"
"ssfOUT_240_6_4_KINGCOBRA.9",1.20733825763505,0.701769676018291,1.71290683925181,"ssf","mf.is","gamma","unif",158,"ssfOUT_240_6_4_KINGCOBRA","KINGCOBRA",4,0.166666666666667,240,"preference"
"ssfOUT_240_6_4_KINGCOBRA.10",1.20925302394722,0.704440478211586,1.71406556968285,"ssf","mf.is","gamma","unif",500,"ssfOUT_240_6_4_KINGCOBRA","KINGCOBRA",4,0.166666666666667,240,"preference"
"ssfOUT_240_6_4_KINGCOBRA.11",1.23477926004564,0.711024336439752,1.75853418365152,"ssf","mf.is","exp","vonmises",5,"ssfOUT_240_6_4_KINGCOBRA","KINGCOBRA",4,0.166666666666667,240,"preference"
"ssfOUT_240_6_4_KINGCOBRA.12",1.35201618876754,0.838677323880077,1.86535505365501,"ssf","mf.is","exp","vonmises",15,"ssfOUT_240_6_4_KINGCOBRA","KINGCOBRA",4,0.166666666666667,240,"preference"
"ssfOUT_240_6_4_KINGCOBRA.13",1.31891743717069,0.81063131301526,1.82720356132613,"ssf","mf.is","exp","vonmises",50,"ssfOUT_240_6_4_KINGCOBRA","KINGCOBRA",4,0.166666666666667,240,"preference"
"ssfOUT_240_6_4_KINGCOBRA.14",1.21260324355127,0.707340850975728,1.7178656361268,"ssf","mf.is","exp","vonmises",158,"ssfOUT_240_6_4_KINGCOBRA","KINGCOBRA",4,0.166666666666667,240,"preference"
"ssfOUT_240_6_4_KINGCOBRA.15",1.18047109306713,0.675148423465226,1.68579376266904,"ssf","mf.is","exp","vonmises",500,"ssfOUT_240_6_4_KINGCOBRA","KINGCOBRA",4,0.166666666666667,240,"preference"
"ssfOUT_240_6_4_KINGCOBRA.16",1.13892584524705,0.618240060558596,1.65961162993551,"ssf","mf.is","exp","unif",5,"ssfOUT_240_6_4_KINGCOBRA","KINGCOBRA",4,0.166666666666667,240,"preference"
"ssfOUT_240_6_4_KINGCOBRA.17",1.14429363770893,0.633361580234405,1.65522569518345,"ssf","mf.is","exp","unif",15,"ssfOUT_240_6_4_KINGCOBRA","KINGCOBRA",4,0.166666666666667,240,"preference"
"ssfOUT_240_6_4_KINGCOBRA.18",1.16290020753514,0.656539512500418,1.66926090256987,"ssf","mf.is","exp","unif",50,"ssfOUT_240_6_4_KINGCOBRA","KINGCOBRA",4,0.166666666666667,240,"preference"
"ssfOUT_240_6_4_KINGCOBRA.19",1.27066186559593,0.76437493782976,1.7769487933621,"ssf","mf.is","exp","unif",158,"ssfOUT_240_6_4_KINGCOBRA","KINGCOBRA",4,0.166666666666667,240,"preference"
"ssfOUT_240_6_4_KINGCOBRA.20",1.19820310183629,0.693269706690058,1.70313649698253,"ssf","mf.is","exp","unif",500,"ssfOUT_240_6_4_KINGCOBRA","KINGCOBRA",4,0.166666666666667,240,"preference"
"ssfOUT_240_6_4_KINGCOBRA.21",1.11329044746087,0.594045302477973,1.63253559244377,"ssf","mf.ss","gamma","vonmises",5,"ssfOUT_240_6_4_KINGCOBRA","KINGCOBRA",4,0.166666666666667,240,"preference"
"ssfOUT_240_6_4_KINGCOBRA.22",1.26970775089461,0.759213195870002,1.78020230591923,"ssf","mf.ss","gamma","vonmises",15,"ssfOUT_240_6_4_KINGCOBRA","KINGCOBRA",4,0.166666666666667,240,"preference"
"ssfOUT_240_6_4_KINGCOBRA.23",1.1871203533663,0.681885521104003,1.6923551856286,"ssf","mf.ss","gamma","vonmises",50,"ssfOUT_240_6_4_KINGCOBRA","KINGCOBRA",4,0.166666666666667,240,"preference"
"ssfOUT_240_6_4_KINGCOBRA.24",1.19374775425456,0.688831191547566,1.69866431696156,"ssf","mf.ss","gamma","vonmises",158,"ssfOUT_240_6_4_KINGCOBRA","KINGCOBRA",4,0.166666666666667,240,"preference"
"ssfOUT_240_6_4_KINGCOBRA.25",1.21790638159405,0.713226667189126,1.72258609599897,"ssf","mf.ss","gamma","vonmises",500,"ssfOUT_240_6_4_KINGCOBRA","KINGCOBRA",4,0.166666666666667,240,"preference"
"ssfOUT_240_6_4_KINGCOBRA.26",1.08814224456326,0.567983840299535,1.60830064882699,"ssf","mf.ss","gamma","unif",5,"ssfOUT_240_6_4_KINGCOBRA","KINGCOBRA",4,0.166666666666667,240,"preference"
"ssfOUT_240_6_4_KINGCOBRA.27",1.1774394192282,0.668460597340217,1.68641824111618,"ssf","mf.ss","gamma","unif",15,"ssfOUT_240_6_4_KINGCOBRA","KINGCOBRA",4,0.166666666666667,240,"preference"
"ssfOUT_240_6_4_KINGCOBRA.28",1.09036358854818,0.584256374846542,1.59647080224981,"ssf","mf.ss","gamma","unif",50,"ssfOUT_240_6_4_KINGCOBRA","KINGCOBRA",4,0.166666666666667,240,"preference"
"ssfOUT_240_6_4_KINGCOBRA.29",1.18937973053391,0.684112598522257,1.69464686254557,"ssf","mf.ss","gamma","unif",158,"ssfOUT_240_6_4_KINGCOBRA","KINGCOBRA",4,0.166666666666667,240,"preference"
"ssfOUT_240_6_4_KINGCOBRA.30",1.19058216839898,0.686194668898621,1.69496966789934,"ssf","mf.ss","gamma","unif",500,"ssfOUT_240_6_4_KINGCOBRA","KINGCOBRA",4,0.166666666666667,240,"preference"
"ssfOUT_240_6_4_KINGCOBRA.31",1.22658527250329,0.709807799867311,1.74336274513927,"ssf","mf.ss","exp","vonmises",5,"ssfOUT_240_6_4_KINGCOBRA","KINGCOBRA",4,0.166666666666667,240,"preference"
"ssfOUT_240_6_4_KINGCOBRA.32",1.38270493401344,0.875334879414594,1.89007498861228,"ssf","mf.ss","exp","vonmises",15,"ssfOUT_240_6_4_KINGCOBRA","KINGCOBRA",4,0.166666666666667,240,"preference"
"ssfOUT_240_6_4_KINGCOBRA.33",1.36288677901852,0.858460442843047,1.86731311519398,"ssf","mf.ss","exp","vonmises",50,"ssfOUT_240_6_4_KINGCOBRA","KINGCOBRA",4,0.166666666666667,240,"preference"
"ssfOUT_240_6_4_KINGCOBRA.34",1.31833345723488,0.815045945967595,1.82162096850217,"ssf","mf.ss","exp","vonmises",158,"ssfOUT_240_6_4_KINGCOBRA","KINGCOBRA",4,0.166666666666667,240,"preference"
"ssfOUT_240_6_4_KINGCOBRA.35",1.28398945046103,0.780903551561336,1.78707534936072,"ssf","mf.ss","exp","vonmises",500,"ssfOUT_240_6_4_KINGCOBRA","KINGCOBRA",4,0.166666666666667,240,"preference"
"ssfOUT_240_6_4_KINGCOBRA.36",1.33184486805253,0.81506807647065,1.84862165963442,"ssf","mf.ss","exp","unif",5,"ssfOUT_240_6_4_KINGCOBRA","KINGCOBRA",4,0.166666666666667,240,"preference"
"ssfOUT_240_6_4_KINGCOBRA.37",1.26815003740902,0.760349328722152,1.77595074609589,"ssf","mf.ss","exp","unif",15,"ssfOUT_240_6_4_KINGCOBRA","KINGCOBRA",4,0.166666666666667,240,"preference"
"ssfOUT_240_6_4_KINGCOBRA.38",1.2861078892914,0.781884713369576,1.79033106521321,"ssf","mf.ss","exp","unif",50,"ssfOUT_240_6_4_KINGCOBRA","KINGCOBRA",4,0.166666666666667,240,"preference"
"ssfOUT_240_6_4_KINGCOBRA.39",1.37845952838258,0.874948441031855,1.8819706157333,"ssf","mf.ss","exp","unif",158,"ssfOUT_240_6_4_KINGCOBRA","KINGCOBRA",4,0.166666666666667,240,"preference"
"ssfOUT_240_6_4_KINGCOBRA.40",1.32254719658392,0.819511041499437,1.82558335166841,"ssf","mf.ss","exp","unif",500,"ssfOUT_240_6_4_KINGCOBRA","KINGCOBRA",4,0.166666666666667,240,"preference"
"ssfOUT_240_12_1_BADGER.1",0.636113042680401,0.125630027991894,1.14659605736891,"ssf","mf.is","gamma","vonmises",5,"ssfOUT_240_12_1_BADGER","BADGER",1,0.0833333333333333,240,"preference"
"ssfOUT_240_12_1_BADGER.2",0.735365484170093,0.259916880735904,1.21081408760428,"ssf","mf.is","gamma","vonmises",15,"ssfOUT_240_12_1_BADGER","BADGER",1,0.0833333333333333,240,"preference"
"ssfOUT_240_12_1_BADGER.3",0.963690784262624,0.501959969004561,1.42542159952069,"ssf","mf.is","gamma","vonmises",50,"ssfOUT_240_12_1_BADGER","BADGER",1,0.0833333333333333,240,"preference"
"ssfOUT_240_12_1_BADGER.4",0.826360202510433,0.368460850552951,1.28425955446792,"ssf","mf.is","gamma","vonmises",158,"ssfOUT_240_12_1_BADGER","BADGER",1,0.0833333333333333,240,"preference"
"ssfOUT_240_12_1_BADGER.5",0.806158504858656,0.349384945981859,1.26293206373545,"ssf","mf.is","gamma","vonmises",500,"ssfOUT_240_12_1_BADGER","BADGER",1,0.0833333333333333,240,"preference"
"ssfOUT_240_12_1_BADGER.6",0.659556464177214,0.169060446658215,1.15005248169621,"ssf","mf.is","gamma","unif",5,"ssfOUT_240_12_1_BADGER","BADGER",1,0.0833333333333333,240,"preference"
"ssfOUT_240_12_1_BADGER.7",0.655427542791886,0.189568709313291,1.12128637627048,"ssf","mf.is","gamma","unif",15,"ssfOUT_240_12_1_BADGER","BADGER",1,0.0833333333333333,240,"preference"
"ssfOUT_240_12_1_BADGER.8",0.779307749539108,0.320131522444982,1.23848397663323,"ssf","mf.is","gamma","unif",50,"ssfOUT_240_12_1_BADGER","BADGER",1,0.0833333333333333,240,"preference"
"ssfOUT_240_12_1_BADGER.9",0.823296825989842,0.365466691606007,1.28112696037368,"ssf","mf.is","gamma","unif",158,"ssfOUT_240_12_1_BADGER","BADGER",1,0.0833333333333333,240,"preference"
"ssfOUT_240_12_1_BADGER.10",0.836523350197625,0.379949003067768,1.29309769732748,"ssf","mf.is","gamma","unif",500,"ssfOUT_240_12_1_BADGER","BADGER",1,0.0833333333333333,240,"preference"
"ssfOUT_240_12_1_BADGER.11",0.425169162846257,-0.0800538449663642,0.930392170658877,"ssf","mf.is","exp","vonmises",5,"ssfOUT_240_12_1_BADGER","BADGER",1,0.0833333333333333,240,"no effect"
"ssfOUT_240_12_1_BADGER.12",0.767563580180143,0.291759872500758,1.24336728785953,"ssf","mf.is","exp","vonmises",15,"ssfOUT_240_12_1_BADGER","BADGER",1,0.0833333333333333,240,"preference"
"ssfOUT_240_12_1_BADGER.13",0.811977745738205,0.350445239203303,1.27351025227311,"ssf","mf.is","exp","vonmises",50,"ssfOUT_240_12_1_BADGER","BADGER",1,0.0833333333333333,240,"preference"
"ssfOUT_240_12_1_BADGER.14",0.832590134627901,0.374066668471336,1.29111360078447,"ssf","mf.is","exp","vonmises",158,"ssfOUT_240_12_1_BADGER","BADGER",1,0.0833333333333333,240,"preference"
"ssfOUT_240_12_1_BADGER.15",0.814025427651575,0.356948796577607,1.27110205872554,"ssf","mf.is","exp","vonmises",500,"ssfOUT_240_12_1_BADGER","BADGER",1,0.0833333333333333,240,"preference"
"ssfOUT_240_12_1_BADGER.16",0.794152386151306,0.304983759929095,1.28332101237352,"ssf","mf.is","exp","unif",5,"ssfOUT_240_12_1_BADGER","BADGER",1,0.0833333333333333,240,"preference"
"ssfOUT_240_12_1_BADGER.17",0.806684554108788,0.339661852892488,1.27370725532509,"ssf","mf.is","exp","unif",15,"ssfOUT_240_12_1_BADGER","BADGER",1,0.0833333333333333,240,"preference"
"ssfOUT_240_12_1_BADGER.18",0.79375513583912,0.333846973111857,1.25366329856638,"ssf","mf.is","exp","unif",50,"ssfOUT_240_12_1_BADGER","BADGER",1,0.0833333333333333,240,"preference"
"ssfOUT_240_12_1_BADGER.19",0.863752833343562,0.40632258026446,1.32118308642266,"ssf","mf.is","exp","unif",158,"ssfOUT_240_12_1_BADGER","BADGER",1,0.0833333333333333,240,"preference"
"ssfOUT_240_12_1_BADGER.20",0.829575443655901,0.372691469264943,1.28645941804686,"ssf","mf.is","exp","unif",500,"ssfOUT_240_12_1_BADGER","BADGER",1,0.0833333333333333,240,"preference"
"ssfOUT_240_12_1_BADGER.21",0.55235251744245,0.0706494297549654,1.03405560512993,"ssf","mf.ss","gamma","vonmises",5,"ssfOUT_240_12_1_BADGER","BADGER",1,0.0833333333333333,240,"preference"
"ssfOUT_240_12_1_BADGER.22",0.636761617297636,0.172022200802865,1.10150103379241,"ssf","mf.ss","gamma","vonmises",15,"ssfOUT_240_12_1_BADGER","BADGER",1,0.0833333333333333,240,"preference"
"ssfOUT_240_12_1_BADGER.23",0.71829450388801,0.260537162311251,1.17605184546477,"ssf","mf.ss","gamma","vonmises",50,"ssfOUT_240_12_1_BADGER","BADGER",1,0.0833333333333333,240,"preference"
"ssfOUT_240_12_1_BADGER.24",0.718652158074089,0.26300719470465,1.17429712144353,"ssf","mf.ss","gamma","vonmises",158,"ssfOUT_240_12_1_BADGER","BADGER",1,0.0833333333333333,240,"preference"
"ssfOUT_240_12_1_BADGER.25",0.689115861199514,0.233928706369584,1.14430301602945,"ssf","mf.ss","gamma","vonmises",500,"ssfOUT_240_12_1_BADGER","BADGER",1,0.0833333333333333,240,"preference"
"ssfOUT_240_12_1_BADGER.26",0.704776804040477,0.221748389797653,1.1878052182833,"ssf","mf.ss","gamma","unif",5,"ssfOUT_240_12_1_BADGER","BADGER",1,0.0833333333333333,240,"preference"
"ssfOUT_240_12_1_BADGER.27",0.655182288125651,0.192231497041304,1.11813307921,"ssf","mf.ss","gamma","unif",15,"ssfOUT_240_12_1_BADGER","BADGER",1,0.0833333333333333,240,"preference"
"ssfOUT_240_12_1_BADGER.28",0.696999958109866,0.239902499677458,1.15409741654227,"ssf","mf.ss","gamma","unif",50,"ssfOUT_240_12_1_BADGER","BADGER",1,0.0833333333333333,240,"preference"
"ssfOUT_240_12_1_BADGER.29",0.750664840713952,0.294290923685855,1.20703875774205,"ssf","mf.ss","gamma","unif",158,"ssfOUT_240_12_1_BADGER","BADGER",1,0.0833333333333333,240,"preference"
"ssfOUT_240_12_1_BADGER.30",0.779436488621395,0.32421509755595,1.23465787968684,"ssf","mf.ss","gamma","unif",500,"ssfOUT_240_12_1_BADGER","BADGER",1,0.0833333333333333,240,"preference"
"ssfOUT_240_12_1_BADGER.31",0.655879926816782,0.17617286751697,1.13558698611659,"ssf","mf.ss","exp","vonmises",5,"ssfOUT_240_12_1_BADGER","BADGER",1,0.0833333333333333,240,"preference"
"ssfOUT_240_12_1_BADGER.32",0.661003383283827,0.195365768758553,1.1266409978091,"ssf","mf.ss","exp","vonmises",15,"ssfOUT_240_12_1_BADGER","BADGER",1,0.0833333333333333,240,"preference"
"ssfOUT_240_12_1_BADGER.33",0.661095594398502,0.202876058239213,1.11931513055779,"ssf","mf.ss","exp","vonmises",50,"ssfOUT_240_12_1_BADGER","BADGER",1,0.0833333333333333,240,"preference"
"ssfOUT_240_12_1_BADGER.34",0.685442474636018,0.228361415156438,1.1425235341156,"ssf","mf.ss","exp","vonmises",158,"ssfOUT_240_12_1_BADGER","BADGER",1,0.0833333333333333,240,"preference"
"ssfOUT_240_12_1_BADGER.35",0.644274532092793,0.188019717414951,1.10052934677064,"ssf","mf.ss","exp","vonmises",500,"ssfOUT_240_12_1_BADGER","BADGER",1,0.0833333333333333,240,"preference"
"ssfOUT_240_12_1_BADGER.36",0.750479010342453,0.268979874312149,1.23197814637276,"ssf","mf.ss","exp","unif",5,"ssfOUT_240_12_1_BADGER","BADGER",1,0.0833333333333333,240,"preference"
"ssfOUT_240_12_1_BADGER.37",0.754947005664587,0.29087591989179,1.21901809143738,"ssf","mf.ss","exp","unif",15,"ssfOUT_240_12_1_BADGER","BADGER",1,0.0833333333333333,240,"preference"
"ssfOUT_240_12_1_BADGER.38",0.687482799613566,0.228240885098246,1.14672471412889,"ssf","mf.ss","exp","unif",50,"ssfOUT_240_12_1_BADGER","BADGER",1,0.0833333333333333,240,"preference"
"ssfOUT_240_12_1_BADGER.39",0.732773442791982,0.275984130423551,1.18956275516041,"ssf","mf.ss","exp","unif",158,"ssfOUT_240_12_1_BADGER","BADGER",1,0.0833333333333333,240,"preference"
"ssfOUT_240_12_1_BADGER.40",0.721005622812398,0.264371004443342,1.17764024118145,"ssf","mf.ss","exp","unif",500,"ssfOUT_240_12_1_BADGER","BADGER",1,0.0833333333333333,240,"preference"
"ssfOUT_240_12_1_VULTURE.1",1.8887202047431,1.14464171074113,2.63279869874507,"ssf","mf.is","gamma","vonmises",5,"ssfOUT_240_12_1_VULTURE","VULTURE",1,0.0833333333333333,240,"preference"
"ssfOUT_240_12_1_VULTURE.2",1.74948526599489,1.02635973934304,2.47261079264675,"ssf","mf.is","gamma","vonmises",15,"ssfOUT_240_12_1_VULTURE","VULTURE",1,0.0833333333333333,240,"preference"
"ssfOUT_240_12_1_VULTURE.3",1.82319999136463,1.10893555177404,2.53746443095521,"ssf","mf.is","gamma","vonmises",50,"ssfOUT_240_12_1_VULTURE","VULTURE",1,0.0833333333333333,240,"preference"
"ssfOUT_240_12_1_VULTURE.4",1.85859605117146,1.14648806875344,2.57070403358948,"ssf","mf.is","gamma","vonmises",158,"ssfOUT_240_12_1_VULTURE","VULTURE",1,0.0833333333333333,240,"preference"
"ssfOUT_240_12_1_VULTURE.5",1.84985324353184,1.13864011720059,2.56106636986309,"ssf","mf.is","gamma","vonmises",500,"ssfOUT_240_12_1_VULTURE","VULTURE",1,0.0833333333333333,240,"preference"
"ssfOUT_240_12_1_VULTURE.6",1.9402544483922,1.21378870295013,2.66672019383427,"ssf","mf.is","gamma","unif",5,"ssfOUT_240_12_1_VULTURE","VULTURE",1,0.0833333333333333,240,"preference"
"ssfOUT_240_12_1_VULTURE.7",1.93332832213924,1.21754593911385,2.64911070516464,"ssf","mf.is","gamma","unif",15,"ssfOUT_240_12_1_VULTURE","VULTURE",1,0.0833333333333333,240,"preference"
"ssfOUT_240_12_1_VULTURE.8",1.83918262463837,1.126681621339,2.55168362793774,"ssf","mf.is","gamma","unif",50,"ssfOUT_240_12_1_VULTURE","VULTURE",1,0.0833333333333333,240,"preference"
"ssfOUT_240_12_1_VULTURE.9",1.82489770040261,1.11347231923504,2.53632308157018,"ssf","mf.is","gamma","unif",158,"ssfOUT_240_12_1_VULTURE","VULTURE",1,0.0833333333333333,240,"preference"
"ssfOUT_240_12_1_VULTURE.10",1.83219422980372,1.1211310422449,2.54325741736254,"ssf","mf.is","gamma","unif",500,"ssfOUT_240_12_1_VULTURE","VULTURE",1,0.0833333333333333,240,"preference"
"ssfOUT_240_12_1_VULTURE.11",1.46669344926678,0.713211973318633,2.22017492521492,"ssf","mf.is","exp","vonmises",5,"ssfOUT_240_12_1_VULTURE","VULTURE",1,0.0833333333333333,240,"preference"
"ssfOUT_240_12_1_VULTURE.12",1.93352330920304,1.20486061566721,2.66218600273887,"ssf","mf.is","exp","vonmises",15,"ssfOUT_240_12_1_VULTURE","VULTURE",1,0.0833333333333333,240,"preference"
"ssfOUT_240_12_1_VULTURE.13",1.79803235098351,1.08235148356728,2.51371321839974,"ssf","mf.is","exp","vonmises",50,"ssfOUT_240_12_1_VULTURE","VULTURE",1,0.0833333333333333,240,"preference"
"ssfOUT_240_12_1_VULTURE.14",1.84314478338725,1.13093797807169,2.55535158870281,"ssf","mf.is","exp","vonmises",158,"ssfOUT_240_12_1_VULTURE","VULTURE",1,0.0833333333333333,240,"preference"
"ssfOUT_240_12_1_VULTURE.15",1.82267250357777,1.11140465594781,2.53394035120772,"ssf","mf.is","exp","vonmises",500,"ssfOUT_240_12_1_VULTURE","VULTURE",1,0.0833333333333333,240,"preference"
"ssfOUT_240_12_1_VULTURE.16",1.69742673740021,0.954577556289145,2.44027591851128,"ssf","mf.is","exp","unif",5,"ssfOUT_240_12_1_VULTURE","VULTURE",1,0.0833333333333333,240,"preference"
"ssfOUT_240_12_1_VULTURE.17",1.83966434328677,1.11952261154764,2.5598060750259,"ssf","mf.is","exp","unif",15,"ssfOUT_240_12_1_VULTURE","VULTURE",1,0.0833333333333333,240,"preference"
"ssfOUT_240_12_1_VULTURE.18",1.88498228562348,1.17171498017494,2.59824959107203,"ssf","mf.is","exp","unif",50,"ssfOUT_240_12_1_VULTURE","VULTURE",1,0.0833333333333333,240,"preference"
"ssfOUT_240_12_1_VULTURE.19",1.83759964582246,1.12600323084338,2.54919606080154,"ssf","mf.is","exp","unif",158,"ssfOUT_240_12_1_VULTURE","VULTURE",1,0.0833333333333333,240,"preference"
"ssfOUT_240_12_1_VULTURE.20",1.84087908272538,1.12983846724782,2.55191969820294,"ssf","mf.is","exp","unif",500,"ssfOUT_240_12_1_VULTURE","VULTURE",1,0.0833333333333333,240,"preference"
"ssfOUT_240_12_1_VULTURE.21",1.74002115289634,1.01547192973007,2.46457037606261,"ssf","mf.ss","gamma","vonmises",5,"ssfOUT_240_12_1_VULTURE","VULTURE",1,0.0833333333333333,240,"preference"
"ssfOUT_240_12_1_VULTURE.22",1.52157689857389,0.805464661692554,2.23768913545522,"ssf","mf.ss","gamma","vonmises",15,"ssfOUT_240_12_1_VULTURE","VULTURE",1,0.0833333333333333,240,"preference"
"ssfOUT_240_12_1_VULTURE.23",1.60836855816545,0.896250872297108,2.32048624403379,"ssf","mf.ss","gamma","vonmises",50,"ssfOUT_240_12_1_VULTURE","VULTURE",1,0.0833333333333333,240,"preference"
"ssfOUT_240_12_1_VULTURE.24",1.61639648897509,0.905739378458935,2.32705359949125,"ssf","mf.ss","gamma","vonmises",158,"ssfOUT_240_12_1_VULTURE","VULTURE",1,0.0833333333333333,240,"preference"
"ssfOUT_240_12_1_VULTURE.25",1.63880719172303,0.928336885531161,2.3492774979149,"ssf","mf.ss","gamma","vonmises",500,"ssfOUT_240_12_1_VULTURE","VULTURE",1,0.0833333333333333,240,"preference"
"ssfOUT_240_12_1_VULTURE.26",1.88042212191183,1.15840067634863,2.60244356747503,"ssf","mf.ss","gamma","unif",5,"ssfOUT_240_12_1_VULTURE","VULTURE",1,0.0833333333333333,240,"preference"
"ssfOUT_240_12_1_VULTURE.27",1.77021448195946,1.05597920338105,2.48444976053786,"ssf","mf.ss","gamma","unif",15,"ssfOUT_240_12_1_VULTURE","VULTURE",1,0.0833333333333333,240,"preference"
"ssfOUT_240_12_1_VULTURE.28",1.71519638479542,1.00355172377134,2.4268410458195,"ssf","mf.ss","gamma","unif",50,"ssfOUT_240_12_1_VULTURE","VULTURE",1,0.0833333333333333,240,"preference"
"ssfOUT_240_12_1_VULTURE.29",1.71942036436722,1.00877128434992,2.43006944438453,"ssf","mf.ss","gamma","unif",158,"ssfOUT_240_12_1_VULTURE","VULTURE",1,0.0833333333333333,240,"preference"
"ssfOUT_240_12_1_VULTURE.30",1.71786654017964,1.00746582833202,2.42826725202727,"ssf","mf.ss","gamma","unif",500,"ssfOUT_240_12_1_VULTURE","VULTURE",1,0.0833333333333333,240,"preference"
"ssfOUT_240_12_1_VULTURE.31",1.47919910434792,0.752673358589364,2.20572485010647,"ssf","mf.ss","exp","vonmises",5,"ssfOUT_240_12_1_VULTURE","VULTURE",1,0.0833333333333333,240,"preference"
"ssfOUT_240_12_1_VULTURE.32",1.63332764117465,0.917142650637335,2.34951263171196,"ssf","mf.ss","exp","vonmises",15,"ssfOUT_240_12_1_VULTURE","VULTURE",1,0.0833333333333333,240,"preference"
"ssfOUT_240_12_1_VULTURE.33",1.60253766846409,0.89014108126473,2.31493425566345,"ssf","mf.ss","exp","vonmises",50,"ssfOUT_240_12_1_VULTURE","VULTURE",1,0.0833333333333333,240,"preference"
"ssfOUT_240_12_1_VULTURE.34",1.59619053591745,0.885282462263095,2.30709860957181,"ssf","mf.ss","exp","vonmises",158,"ssfOUT_240_12_1_VULTURE","VULTURE",1,0.0833333333333333,240,"preference"
"ssfOUT_240_12_1_VULTURE.35",1.5927508808166,0.881762004412899,2.30373975722031,"ssf","mf.ss","exp","vonmises",500,"ssfOUT_240_12_1_VULTURE","VULTURE",1,0.0833333333333333,240,"preference"
"ssfOUT_240_12_1_VULTURE.36",1.63148431858714,0.902360718389024,2.36060791878526,"ssf","mf.ss","exp","unif",5,"ssfOUT_240_12_1_VULTURE","VULTURE",1,0.0833333333333333,240,"preference"
"ssfOUT_240_12_1_VULTURE.37",1.6861893279241,0.970339672771324,2.40203898307688,"ssf","mf.ss","exp","unif",15,"ssfOUT_240_12_1_VULTURE","VULTURE",1,0.0833333333333333,240,"preference"
"ssfOUT_240_12_1_VULTURE.38",1.71441842411572,1.00192557163966,2.42691127659178,"ssf","mf.ss","exp","unif",50,"ssfOUT_240_12_1_VULTURE","VULTURE",1,0.0833333333333333,240,"preference"
"ssfOUT_240_12_1_VULTURE.39",1.67334701992449,0.962063344339878,2.38463069550911,"ssf","mf.ss","exp","unif",158,"ssfOUT_240_12_1_VULTURE","VULTURE",1,0.0833333333333333,240,"preference"
"ssfOUT_240_12_1_VULTURE.40",1.66567298659202,0.954832431609564,2.37651354157448,"ssf","mf.ss","exp","unif",500,"ssfOUT_240_12_1_VULTURE","VULTURE",1,0.0833333333333333,240,"preference"
"ssfOUT_240_12_1_KINGCOBRA.1",0.375390295325092,-0.196911877810103,0.947692468460288,"ssf","mf.is","gamma","vonmises",5,"ssfOUT_240_12_1_KINGCOBRA","KINGCOBRA",1,0.0833333333333333,240,"no effect"
"ssfOUT_240_12_1_KINGCOBRA.2",0.939083879470092,0.399946793067325,1.47822096587286,"ssf","mf.is","gamma","vonmises",15,"ssfOUT_240_12_1_KINGCOBRA","KINGCOBRA",1,0.0833333333333333,240,"preference"
"ssfOUT_240_12_1_KINGCOBRA.3",0.744624191301237,0.213477873914042,1.27577050868843,"ssf","mf.is","gamma","vonmises",50,"ssfOUT_240_12_1_KINGCOBRA","KINGCOBRA",1,0.0833333333333333,240,"preference"
"ssfOUT_240_12_1_KINGCOBRA.4",0.761872051063599,0.237701200585494,1.2860429015417,"ssf","mf.is","gamma","vonmises",158,"ssfOUT_240_12_1_KINGCOBRA","KINGCOBRA",1,0.0833333333333333,240,"preference"
"ssfOUT_240_12_1_KINGCOBRA.5",0.712844749721918,0.186283319847426,1.23940617959641,"ssf","mf.is","gamma","vonmises",500,"ssfOUT_240_12_1_KINGCOBRA","KINGCOBRA",1,0.0833333333333333,240,"preference"
"ssfOUT_240_12_1_KINGCOBRA.6",0.592863485847348,0.0163191356502644,1.16940783604443,"ssf","mf.is","gamma","unif",5,"ssfOUT_240_12_1_KINGCOBRA","KINGCOBRA",1,0.0833333333333333,240,"preference"
"ssfOUT_240_12_1_KINGCOBRA.7",0.718883289615302,0.185796642751943,1.25196993647866,"ssf","mf.is","gamma","unif",15,"ssfOUT_240_12_1_KINGCOBRA","KINGCOBRA",1,0.0833333333333333,240,"preference"
"ssfOUT_240_12_1_KINGCOBRA.8",0.76640796329264,0.234349266923979,1.2984666596613,"ssf","mf.is","gamma","unif",50,"ssfOUT_240_12_1_KINGCOBRA","KINGCOBRA",1,0.0833333333333333,240,"preference"
"ssfOUT_240_12_1_KINGCOBRA.9",0.700020478574094,0.172078177984665,1.22796277916352,"ssf","mf.is","gamma","unif",158,"ssfOUT_240_12_1_KINGCOBRA","KINGCOBRA",1,0.0833333333333333,240,"preference"
"ssfOUT_240_12_1_KINGCOBRA.10",0.751530451903313,0.224626892158115,1.27843401164851,"ssf","mf.is","gamma","unif",500,"ssfOUT_240_12_1_KINGCOBRA","KINGCOBRA",1,0.0833333333333333,240,"preference"
"ssfOUT_240_12_1_KINGCOBRA.11",0.189246983639874,-0.366057234481929,0.744551201761678,"ssf","mf.is","exp","vonmises",5,"ssfOUT_240_12_1_KINGCOBRA","KINGCOBRA",1,0.0833333333333333,240,"no effect"
"ssfOUT_240_12_1_KINGCOBRA.12",0.240461283137066,-0.297662450132495,0.778585016406627,"ssf","mf.is","exp","vonmises",15,"ssfOUT_240_12_1_KINGCOBRA","KINGCOBRA",1,0.0833333333333333,240,"no effect"
"ssfOUT_240_12_1_KINGCOBRA.13",0.593788522418449,0.0593491064678797,1.12822793836902,"ssf","mf.is","exp","vonmises",50,"ssfOUT_240_12_1_KINGCOBRA","KINGCOBRA",1,0.0833333333333333,240,"preference"
"ssfOUT_240_12_1_KINGCOBRA.14",0.7263019534866,0.200916550206737,1.25168735676646,"ssf","mf.is","exp","vonmises",158,"ssfOUT_240_12_1_KINGCOBRA","KINGCOBRA",1,0.0833333333333333,240,"preference"
"ssfOUT_240_12_1_KINGCOBRA.15",0.702148008859996,0.179049908078808,1.22524610964118,"ssf","mf.is","exp","vonmises",500,"ssfOUT_240_12_1_KINGCOBRA","KINGCOBRA",1,0.0833333333333333,240,"preference"
"ssfOUT_240_12_1_KINGCOBRA.16",0.183892265022757,-0.397237931138782,0.765022461184297,"ssf","mf.is","exp","unif",5,"ssfOUT_240_12_1_KINGCOBRA","KINGCOBRA",1,0.0833333333333333,240,"no effect"
"ssfOUT_240_12_1_KINGCOBRA.17",0.473997672068484,-0.0674692999466833,1.01546464408365,"ssf","mf.is","exp","unif",15,"ssfOUT_240_12_1_KINGCOBRA","KINGCOBRA",1,0.0833333333333333,240,"no effect"
"ssfOUT_240_12_1_KINGCOBRA.18",0.621369154477364,0.0916048480659865,1.15113346088874,"ssf","mf.is","exp","unif",50,"ssfOUT_240_12_1_KINGCOBRA","KINGCOBRA",1,0.0833333333333333,240,"preference"
"ssfOUT_240_12_1_KINGCOBRA.19",0.707806623138217,0.181658258496133,1.2339549877803,"ssf","mf.is","exp","unif",158,"ssfOUT_240_12_1_KINGCOBRA","KINGCOBRA",1,0.0833333333333333,240,"preference"
"ssfOUT_240_12_1_KINGCOBRA.20",0.765635046370208,0.23888644947485,1.29238364326557,"ssf","mf.is","exp","unif",500,"ssfOUT_240_12_1_KINGCOBRA","KINGCOBRA",1,0.0833333333333333,240,"preference"
"ssfOUT_240_12_1_KINGCOBRA.21",0.386861501139677,-0.174790334810688,0.948513337090043,"ssf","mf.ss","gamma","vonmises",5,"ssfOUT_240_12_1_KINGCOBRA","KINGCOBRA",1,0.0833333333333333,240,"no effect"
"ssfOUT_240_12_1_KINGCOBRA.22",0.849837078616357,0.318706171590513,1.3809679856422,"ssf","mf.ss","gamma","vonmises",15,"ssfOUT_240_12_1_KINGCOBRA","KINGCOBRA",1,0.0833333333333333,240,"preference"
"ssfOUT_240_12_1_KINGCOBRA.23",0.646457718536991,0.11761665044935,1.17529878662463,"ssf","mf.ss","gamma","vonmises",50,"ssfOUT_240_12_1_KINGCOBRA","KINGCOBRA",1,0.0833333333333333,240,"preference"
"ssfOUT_240_12_1_KINGCOBRA.24",0.671395943581587,0.147388288127309,1.19540359903587,"ssf","mf.ss","gamma","vonmises",158,"ssfOUT_240_12_1_KINGCOBRA","KINGCOBRA",1,0.0833333333333333,240,"preference"
"ssfOUT_240_12_1_KINGCOBRA.25",0.639632885154169,0.113710274618387,1.16555549568995,"ssf","mf.ss","gamma","vonmises",500,"ssfOUT_240_12_1_KINGCOBRA","KINGCOBRA",1,0.0833333333333333,240,"preference"
"ssfOUT_240_12_1_KINGCOBRA.26",0.602107185248587,0.0338833549057639,1.17033101559141,"ssf","mf.ss","gamma","unif",5,"ssfOUT_240_12_1_KINGCOBRA","KINGCOBRA",1,0.0833333333333333,240,"preference"
"ssfOUT_240_12_1_KINGCOBRA.27",0.628223183845238,0.09709496922717,1.15935139846331,"ssf","mf.ss","gamma","unif",15,"ssfOUT_240_12_1_KINGCOBRA","KINGCOBRA",1,0.0833333333333333,240,"preference"
"ssfOUT_240_12_1_KINGCOBRA.28",0.725466334629949,0.194928872323572,1.25600379693633,"ssf","mf.ss","gamma","unif",50,"ssfOUT_240_12_1_KINGCOBRA","KINGCOBRA",1,0.0833333333333333,240,"preference"
"ssfOUT_240_12_1_KINGCOBRA.29",0.651706713107355,0.12436867742793,1.17904474878678,"ssf","mf.ss","gamma","unif",158,"ssfOUT_240_12_1_KINGCOBRA","KINGCOBRA",1,0.0833333333333333,240,"preference"
"ssfOUT_240_12_1_KINGCOBRA.30",0.712688715323624,0.185685825335373,1.23969160531188,"ssf","mf.ss","gamma","unif",500,"ssfOUT_240_12_1_KINGCOBRA","KINGCOBRA",1,0.0833333333333333,240,"preference"
"ssfOUT_240_12_1_KINGCOBRA.31",0.485060312208778,-0.0513163653373913,1.02143698975495,"ssf","mf.ss","exp","vonmises",5,"ssfOUT_240_12_1_KINGCOBRA","KINGCOBRA",1,0.0833333333333333,240,"no effect"
"ssfOUT_240_12_1_KINGCOBRA.32",0.403462538313015,-0.120649588771838,0.927574665397867,"ssf","mf.ss","exp","vonmises",15,"ssfOUT_240_12_1_KINGCOBRA","KINGCOBRA",1,0.0833333333333333,240,"no effect"
"ssfOUT_240_12_1_KINGCOBRA.33",0.53995025463136,0.0247179975359593,1.05518251172676,"ssf","mf.ss","exp","vonmises",50,"ssfOUT_240_12_1_KINGCOBRA","KINGCOBRA",1,0.0833333333333333,240,"preference"
"ssfOUT_240_12_1_KINGCOBRA.34",0.51352673352307,0.00221120548173637,1.0248422615644,"ssf","mf.ss","exp","vonmises",158,"ssfOUT_240_12_1_KINGCOBRA","KINGCOBRA",1,0.0833333333333333,240,"preference"
"ssfOUT_240_12_1_KINGCOBRA.35",0.55704265273667,0.0458976759361744,1.06818762953717,"ssf","mf.ss","exp","vonmises",500,"ssfOUT_240_12_1_KINGCOBRA","KINGCOBRA",1,0.0833333333333333,240,"preference"
"ssfOUT_240_12_1_KINGCOBRA.36",0.364201997902259,-0.189921425078986,0.918325420883505,"ssf","mf.ss","exp","unif",5,"ssfOUT_240_12_1_KINGCOBRA","KINGCOBRA",1,0.0833333333333333,240,"no effect"
"ssfOUT_240_12_1_KINGCOBRA.37",0.441757755997325,-0.0864884549823792,0.97000396697703,"ssf","mf.ss","exp","unif",15,"ssfOUT_240_12_1_KINGCOBRA","KINGCOBRA",1,0.0833333333333333,240,"no effect"
"ssfOUT_240_12_1_KINGCOBRA.38",0.520655877556284,0.00708965481996049,1.03422210029261,"ssf","mf.ss","exp","unif",50,"ssfOUT_240_12_1_KINGCOBRA","KINGCOBRA",1,0.0833333333333333,240,"preference"
"ssfOUT_240_12_1_KINGCOBRA.39",0.622422589642,0.108878380038947,1.13596679924505,"ssf","mf.ss","exp","unif",158,"ssfOUT_240_12_1_KINGCOBRA","KINGCOBRA",1,0.0833333333333333,240,"preference"
"ssfOUT_240_12_1_KINGCOBRA.40",0.562156188330727,0.0501862325452506,1.0741261441162,"ssf","mf.ss","exp","unif",500,"ssfOUT_240_12_1_KINGCOBRA","KINGCOBRA",1,0.0833333333333333,240,"preference"
"ssfOUT_240_12_2_BADGER.1",0.701126488242169,0.31373831492579,1.08851466155855,"ssf","mf.is","gamma","vonmises",5,"ssfOUT_240_12_2_BADGER","BADGER",2,0.0833333333333333,240,"preference"
"ssfOUT_240_12_2_BADGER.2",0.819822556365527,0.464325414844897,1.17531969788616,"ssf","mf.is","gamma","vonmises",15,"ssfOUT_240_12_2_BADGER","BADGER",2,0.0833333333333333,240,"preference"
"ssfOUT_240_12_2_BADGER.3",0.773212535501336,0.426285883412901,1.12013918758977,"ssf","mf.is","gamma","vonmises",50,"ssfOUT_240_12_2_BADGER","BADGER",2,0.0833333333333333,240,"preference"
"ssfOUT_240_12_2_BADGER.4",0.746897163892736,0.403540749377805,1.09025357840767,"ssf","mf.is","gamma","vonmises",158,"ssfOUT_240_12_2_BADGER","BADGER",2,0.0833333333333333,240,"preference"
"ssfOUT_240_12_2_BADGER.5",0.718582613054246,0.376687810028094,1.0604774160804,"ssf","mf.is","gamma","vonmises",500,"ssfOUT_240_12_2_BADGER","BADGER",2,0.0833333333333333,240,"preference"
"ssfOUT_240_12_2_BADGER.6",0.600868623885661,0.233056844559815,0.968680403211507,"ssf","mf.is","gamma","unif",5,"ssfOUT_240_12_2_BADGER","BADGER",2,0.0833333333333333,240,"preference"
"ssfOUT_240_12_2_BADGER.7",0.746732934223663,0.39767190387578,1.09579396457155,"ssf","mf.is","gamma","unif",15,"ssfOUT_240_12_2_BADGER","BADGER",2,0.0833333333333333,240,"preference"
"ssfOUT_240_12_2_BADGER.8",0.745194890747549,0.400998340304007,1.08939144119109,"ssf","mf.is","gamma","unif",50,"ssfOUT_240_12_2_BADGER","BADGER",2,0.0833333333333333,240,"preference"
"ssfOUT_240_12_2_BADGER.9",0.717758957818623,0.375618312247543,1.0598996033897,"ssf","mf.is","gamma","unif",158,"ssfOUT_240_12_2_BADGER","BADGER",2,0.0833333333333333,240,"preference"
"ssfOUT_240_12_2_BADGER.10",0.714460691293705,0.372580593179383,1.05634078940803,"ssf","mf.is","gamma","unif",500,"ssfOUT_240_12_2_BADGER","BADGER",2,0.0833333333333333,240,"preference"
"ssfOUT_240_12_2_BADGER.11",0.761755230547923,0.374605607727859,1.14890485336799,"ssf","mf.is","exp","vonmises",5,"ssfOUT_240_12_2_BADGER","BADGER",2,0.0833333333333333,240,"preference"
"ssfOUT_240_12_2_BADGER.12",0.824136380771563,0.468995547021543,1.17927721452158,"ssf","mf.is","exp","vonmises",15,"ssfOUT_240_12_2_BADGER","BADGER",2,0.0833333333333333,240,"preference"
"ssfOUT_240_12_2_BADGER.13",0.693581005438752,0.34654978527976,1.04061222559774,"ssf","mf.is","exp","vonmises",50,"ssfOUT_240_12_2_BADGER","BADGER",2,0.0833333333333333,240,"preference"
"ssfOUT_240_12_2_BADGER.14",0.748281581484977,0.405037341518685,1.09152582145127,"ssf","mf.is","exp","vonmises",158,"ssfOUT_240_12_2_BADGER","BADGER",2,0.0833333333333333,240,"preference"
"ssfOUT_240_12_2_BADGER.15",0.726963926769437,0.384789231965322,1.06913862157355,"ssf","mf.is","exp","vonmises",500,"ssfOUT_240_12_2_BADGER","BADGER",2,0.0833333333333333,240,"preference"
"ssfOUT_240_12_2_BADGER.16",0.722552694455056,0.353896494753232,1.09120889415688,"ssf","mf.is","exp","unif",5,"ssfOUT_240_12_2_BADGER","BADGER",2,0.0833333333333333,240,"preference"
"ssfOUT_240_12_2_BADGER.17",0.614884094162387,0.26443703740205,0.965331150922724,"ssf","mf.is","exp","unif",15,"ssfOUT_240_12_2_BADGER","BADGER",2,0.0833333333333333,240,"preference"
"ssfOUT_240_12_2_BADGER.18",0.590738202579132,0.245810578118069,0.935665827040195,"ssf","mf.is","exp","unif",50,"ssfOUT_240_12_2_BADGER","BADGER",2,0.0833333333333333,240,"preference"
"ssfOUT_240_12_2_BADGER.19",0.758146080428497,0.415579448425716,1.10071271243128,"ssf","mf.is","exp","unif",158,"ssfOUT_240_12_2_BADGER","BADGER",2,0.0833333333333333,240,"preference"
"ssfOUT_240_12_2_BADGER.20",0.705569646837694,0.363750565279831,1.04738872839556,"ssf","mf.is","exp","unif",500,"ssfOUT_240_12_2_BADGER","BADGER",2,0.0833333333333333,240,"preference"
"ssfOUT_240_12_2_BADGER.21",0.617720183603204,0.258138203959982,0.977302163246425,"ssf","mf.ss","gamma","vonmises",5,"ssfOUT_240_12_2_BADGER","BADGER",2,0.0833333333333333,240,"preference"
"ssfOUT_240_12_2_BADGER.22",0.735276136958506,0.387976855292198,1.08257541862481,"ssf","mf.ss","gamma","vonmises",15,"ssfOUT_240_12_2_BADGER","BADGER",2,0.0833333333333333,240,"preference"
"ssfOUT_240_12_2_BADGER.23",0.716585575361719,0.373316616251629,1.05985453447181,"ssf","mf.ss","gamma","vonmises",50,"ssfOUT_240_12_2_BADGER","BADGER",2,0.0833333333333333,240,"preference"
"ssfOUT_240_12_2_BADGER.24",0.682925184074619,0.3410441192885,1.02480624886074,"ssf","mf.ss","gamma","vonmises",158,"ssfOUT_240_12_2_BADGER","BADGER",2,0.0833333333333333,240,"preference"
"ssfOUT_240_12_2_BADGER.25",0.652932787081929,0.311571063225497,0.994294510938362,"ssf","mf.ss","gamma","vonmises",500,"ssfOUT_240_12_2_BADGER","BADGER",2,0.0833333333333333,240,"preference"
"ssfOUT_240_12_2_BADGER.26",0.627928614666465,0.265684111170189,0.990173118162741,"ssf","mf.ss","gamma","unif",5,"ssfOUT_240_12_2_BADGER","BADGER",2,0.0833333333333333,240,"preference"
"ssfOUT_240_12_2_BADGER.27",0.711659059450984,0.364698904640817,1.05861921426115,"ssf","mf.ss","gamma","unif",15,"ssfOUT_240_12_2_BADGER","BADGER",2,0.0833333333333333,240,"preference"
"ssfOUT_240_12_2_BADGER.28",0.714317664276333,0.371328813449774,1.05730651510289,"ssf","mf.ss","gamma","unif",50,"ssfOUT_240_12_2_BADGER","BADGER",2,0.0833333333333333,240,"preference"
"ssfOUT_240_12_2_BADGER.29",0.677687029713731,0.336212025662114,1.01916203376535,"ssf","mf.ss","gamma","unif",158,"ssfOUT_240_12_2_BADGER","BADGER",2,0.0833333333333333,240,"preference"
"ssfOUT_240_12_2_BADGER.30",0.674915738024401,0.333822430334449,1.01600904571435,"ssf","mf.ss","gamma","unif",500,"ssfOUT_240_12_2_BADGER","BADGER",2,0.0833333333333333,240,"preference"
"ssfOUT_240_12_2_BADGER.31",0.567844245498739,0.203968300752494,0.931720190244984,"ssf","mf.ss","exp","vonmises",5,"ssfOUT_240_12_2_BADGER","BADGER",2,0.0833333333333333,240,"preference"
"ssfOUT_240_12_2_BADGER.32",0.650051212598129,0.300689594932557,0.999412830263701,"ssf","mf.ss","exp","vonmises",15,"ssfOUT_240_12_2_BADGER","BADGER",2,0.0833333333333333,240,"preference"
"ssfOUT_240_12_2_BADGER.33",0.561674920859585,0.217539528388184,0.905810313330986,"ssf","mf.ss","exp","vonmises",50,"ssfOUT_240_12_2_BADGER","BADGER",2,0.0833333333333333,240,"preference"
"ssfOUT_240_12_2_BADGER.34",0.621217865663378,0.278663322473591,0.963772408853164,"ssf","mf.ss","exp","vonmises",158,"ssfOUT_240_12_2_BADGER","BADGER",2,0.0833333333333333,240,"preference"
"ssfOUT_240_12_2_BADGER.35",0.607763224714564,0.265579850195873,0.949946599233255,"ssf","mf.ss","exp","vonmises",500,"ssfOUT_240_12_2_BADGER","BADGER",2,0.0833333333333333,240,"preference"
"ssfOUT_240_12_2_BADGER.36",0.709368884034129,0.348768385189651,1.06996938287861,"ssf","mf.ss","exp","unif",5,"ssfOUT_240_12_2_BADGER","BADGER",2,0.0833333333333333,240,"preference"
"ssfOUT_240_12_2_BADGER.37",0.57595859362806,0.227209555391942,0.924707631864177,"ssf","mf.ss","exp","unif",15,"ssfOUT_240_12_2_BADGER","BADGER",2,0.0833333333333333,240,"preference"
"ssfOUT_240_12_2_BADGER.38",0.546218732661243,0.20134914985781,0.891088315464677,"ssf","mf.ss","exp","unif",50,"ssfOUT_240_12_2_BADGER","BADGER",2,0.0833333333333333,240,"preference"
"ssfOUT_240_12_2_BADGER.39",0.651874343123043,0.309369639320871,0.994379046925216,"ssf","mf.ss","exp","unif",158,"ssfOUT_240_12_2_BADGER","BADGER",2,0.0833333333333333,240,"preference"
"ssfOUT_240_12_2_BADGER.40",0.627156987218286,0.285093151852917,0.969220822583655,"ssf","mf.ss","exp","unif",500,"ssfOUT_240_12_2_BADGER","BADGER",2,0.0833333333333333,240,"preference"
"ssfOUT_240_12_2_VULTURE.1",0.999455933365388,0.500493796748395,1.49841806998238,"ssf","mf.is","gamma","vonmises",5,"ssfOUT_240_12_2_VULTURE","VULTURE",2,0.0833333333333333,240,"preference"
"ssfOUT_240_12_2_VULTURE.2",1.15287256031937,0.682166879812831,1.62357824082591,"ssf","mf.is","gamma","vonmises",15,"ssfOUT_240_12_2_VULTURE","VULTURE",2,0.0833333333333333,240,"preference"
"ssfOUT_240_12_2_VULTURE.3",1.17519290605797,0.717043214720175,1.63334259739576,"ssf","mf.is","gamma","vonmises",50,"ssfOUT_240_12_2_VULTURE","VULTURE",2,0.0833333333333333,240,"preference"
"ssfOUT_240_12_2_VULTURE.4",1.08888037733742,0.633981597561798,1.54377915711305,"ssf","mf.is","gamma","vonmises",158,"ssfOUT_240_12_2_VULTURE","VULTURE",2,0.0833333333333333,240,"preference"
"ssfOUT_240_12_2_VULTURE.5",1.09232162866084,0.638597833698453,1.54604542362322,"ssf","mf.is","gamma","vonmises",500,"ssfOUT_240_12_2_VULTURE","VULTURE",2,0.0833333333333333,240,"preference"
"ssfOUT_240_12_2_VULTURE.6",0.914679817839214,0.430676384383183,1.39868325129524,"ssf","mf.is","gamma","unif",5,"ssfOUT_240_12_2_VULTURE","VULTURE",2,0.0833333333333333,240,"preference"
"ssfOUT_240_12_2_VULTURE.7",1.14981334731199,0.68905811005229,1.61056858457168,"ssf","mf.is","gamma","unif",15,"ssfOUT_240_12_2_VULTURE","VULTURE",2,0.0833333333333333,240,"preference"
"ssfOUT_240_12_2_VULTURE.8",1.12525592105993,0.66985922866979,1.58065261345007,"ssf","mf.is","gamma","unif",50,"ssfOUT_240_12_2_VULTURE","VULTURE",2,0.0833333333333333,240,"preference"
"ssfOUT_240_12_2_VULTURE.9",1.13532478698737,0.681550835217988,1.58909873875676,"ssf","mf.is","gamma","unif",158,"ssfOUT_240_12_2_VULTURE","VULTURE",2,0.0833333333333333,240,"preference"
"ssfOUT_240_12_2_VULTURE.10",1.13062832963155,0.677382803139556,1.58387385612354,"ssf","mf.is","gamma","unif",500,"ssfOUT_240_12_2_VULTURE","VULTURE",2,0.0833333333333333,240,"preference"
"ssfOUT_240_12_2_VULTURE.11",1.09351056100747,0.555750295570735,1.63127082644421,"ssf","mf.is","exp","vonmises",5,"ssfOUT_240_12_2_VULTURE","VULTURE",2,0.0833333333333333,240,"preference"
"ssfOUT_240_12_2_VULTURE.12",1.18069254466665,0.707030190619053,1.65435489871426,"ssf","mf.is","exp","vonmises",15,"ssfOUT_240_12_2_VULTURE","VULTURE",2,0.0833333333333333,240,"preference"
"ssfOUT_240_12_2_VULTURE.13",1.12976729640256,0.670069586074929,1.58946500673018,"ssf","mf.is","exp","vonmises",50,"ssfOUT_240_12_2_VULTURE","VULTURE",2,0.0833333333333333,240,"preference"
"ssfOUT_240_12_2_VULTURE.14",1.14749070819988,0.692238977576372,1.60274243882339,"ssf","mf.is","exp","vonmises",158,"ssfOUT_240_12_2_VULTURE","VULTURE",2,0.0833333333333333,240,"preference"
"ssfOUT_240_12_2_VULTURE.15",1.07281579484611,0.618948940778101,1.52668264891412,"ssf","mf.is","exp","vonmises",500,"ssfOUT_240_12_2_VULTURE","VULTURE",2,0.0833333333333333,240,"preference"
"ssfOUT_240_12_2_VULTURE.16",1.02622534778484,0.541604095527232,1.51084660004246,"ssf","mf.is","exp","unif",5,"ssfOUT_240_12_2_VULTURE","VULTURE",2,0.0833333333333333,240,"preference"
"ssfOUT_240_12_2_VULTURE.17",1.01157834510793,0.547256857553355,1.4758998326625,"ssf","mf.is","exp","unif",15,"ssfOUT_240_12_2_VULTURE","VULTURE",2,0.0833333333333333,240,"preference"
"ssfOUT_240_12_2_VULTURE.18",1.026511018829,0.570826751169053,1.48219528648894,"ssf","mf.is","exp","unif",50,"ssfOUT_240_12_2_VULTURE","VULTURE",2,0.0833333333333333,240,"preference"
"ssfOUT_240_12_2_VULTURE.19",1.09991741555597,0.645971023797182,1.55386380731475,"ssf","mf.is","exp","unif",158,"ssfOUT_240_12_2_VULTURE","VULTURE",2,0.0833333333333333,240,"preference"
"ssfOUT_240_12_2_VULTURE.20",1.0886180842377,0.635343846590339,1.54189232188507,"ssf","mf.is","exp","unif",500,"ssfOUT_240_12_2_VULTURE","VULTURE",2,0.0833333333333333,240,"preference"
"ssfOUT_240_12_2_VULTURE.21",0.873983105274257,0.40176740730955,1.34619880323896,"ssf","mf.ss","gamma","vonmises",5,"ssfOUT_240_12_2_VULTURE","VULTURE",2,0.0833333333333333,240,"preference"
"ssfOUT_240_12_2_VULTURE.22",0.919531637211143,0.46081640232034,1.37824687210195,"ssf","mf.ss","gamma","vonmises",15,"ssfOUT_240_12_2_VULTURE","VULTURE",2,0.0833333333333333,240,"preference"
"ssfOUT_240_12_2_VULTURE.23",0.892411836437017,0.438129925408734,1.3466937474653,"ssf","mf.ss","gamma","vonmises",50,"ssfOUT_240_12_2_VULTURE","VULTURE",2,0.0833333333333333,240,"preference"
"ssfOUT_240_12_2_VULTURE.24",0.872391722931921,0.419335316997424,1.32544812886642,"ssf","mf.ss","gamma","vonmises",158,"ssfOUT_240_12_2_VULTURE","VULTURE",2,0.0833333333333333,240,"preference"
"ssfOUT_240_12_2_VULTURE.25",0.868256239053551,0.415627741099788,1.32088473700731,"ssf","mf.ss","gamma","vonmises",500,"ssfOUT_240_12_2_VULTURE","VULTURE",2,0.0833333333333333,240,"preference"
"ssfOUT_240_12_2_VULTURE.26",0.850836057235123,0.375250565941078,1.32642154852917,"ssf","mf.ss","gamma","unif",5,"ssfOUT_240_12_2_VULTURE","VULTURE",2,0.0833333333333333,240,"preference"
"ssfOUT_240_12_2_VULTURE.27",1.10355321591682,0.645229231484861,1.56187720034879,"ssf","mf.ss","gamma","unif",15,"ssfOUT_240_12_2_VULTURE","VULTURE",2,0.0833333333333333,240,"preference"
"ssfOUT_240_12_2_VULTURE.28",1.01441923913013,0.560099020354166,1.4687394579061,"ssf","mf.ss","gamma","unif",50,"ssfOUT_240_12_2_VULTURE","VULTURE",2,0.0833333333333333,240,"preference"
"ssfOUT_240_12_2_VULTURE.29",1.01183775549321,0.558806755871807,1.46486875511462,"ssf","mf.ss","gamma","unif",158,"ssfOUT_240_12_2_VULTURE","VULTURE",2,0.0833333333333333,240,"preference"
"ssfOUT_240_12_2_VULTURE.30",0.993532106327921,0.541030673381629,1.44603353927421,"ssf","mf.ss","gamma","unif",500,"ssfOUT_240_12_2_VULTURE","VULTURE",2,0.0833333333333333,240,"preference"
"ssfOUT_240_12_2_VULTURE.31",0.689028245678037,0.211929662926507,1.16612682842957,"ssf","mf.ss","exp","vonmises",5,"ssfOUT_240_12_2_VULTURE","VULTURE",2,0.0833333333333333,240,"preference"
"ssfOUT_240_12_2_VULTURE.32",0.880410817915184,0.419934662192009,1.34088697363836,"ssf","mf.ss","exp","vonmises",15,"ssfOUT_240_12_2_VULTURE","VULTURE",2,0.0833333333333333,240,"preference"
"ssfOUT_240_12_2_VULTURE.33",0.868117199534161,0.413132161874145,1.32310223719418,"ssf","mf.ss","exp","vonmises",50,"ssfOUT_240_12_2_VULTURE","VULTURE",2,0.0833333333333333,240,"preference"
"ssfOUT_240_12_2_VULTURE.34",0.8593353486954,0.405692841562722,1.31297785582808,"ssf","mf.ss","exp","vonmises",158,"ssfOUT_240_12_2_VULTURE","VULTURE",2,0.0833333333333333,240,"preference"
"ssfOUT_240_12_2_VULTURE.35",0.815928533473439,0.362947585175633,1.26890948177124,"ssf","mf.ss","exp","vonmises",500,"ssfOUT_240_12_2_VULTURE","VULTURE",2,0.0833333333333333,240,"preference"
"ssfOUT_240_12_2_VULTURE.36",0.928208744047377,0.457700454884189,1.39871703321057,"ssf","mf.ss","exp","unif",5,"ssfOUT_240_12_2_VULTURE","VULTURE",2,0.0833333333333333,240,"preference"
"ssfOUT_240_12_2_VULTURE.37",0.834382257293132,0.374707126845524,1.29405738774074,"ssf","mf.ss","exp","unif",15,"ssfOUT_240_12_2_VULTURE","VULTURE",2,0.0833333333333333,240,"preference"
"ssfOUT_240_12_2_VULTURE.38",0.924421827540516,0.469921539953577,1.37892211512745,"ssf","mf.ss","exp","unif",50,"ssfOUT_240_12_2_VULTURE","VULTURE",2,0.0833333333333333,240,"preference"
"ssfOUT_240_12_2_VULTURE.39",0.91532965872014,0.461903528036116,1.36875578940416,"ssf","mf.ss","exp","unif",158,"ssfOUT_240_12_2_VULTURE","VULTURE",2,0.0833333333333333,240,"preference"
"ssfOUT_240_12_2_VULTURE.40",0.918723860284978,0.465688274301685,1.37175944626827,"ssf","mf.ss","exp","unif",500,"ssfOUT_240_12_2_VULTURE","VULTURE",2,0.0833333333333333,240,"preference"
"ssfOUT_240_12_2_KINGCOBRA.1",0.926621055844449,0.428605755735132,1.42463635595377,"ssf","mf.is","gamma","vonmises",5,"ssfOUT_240_12_2_KINGCOBRA","KINGCOBRA",2,0.0833333333333333,240,"preference"
"ssfOUT_240_12_2_KINGCOBRA.2",0.797161549924732,0.327079628110592,1.26724347173887,"ssf","mf.is","gamma","vonmises",15,"ssfOUT_240_12_2_KINGCOBRA","KINGCOBRA",2,0.0833333333333333,240,"preference"
"ssfOUT_240_12_2_KINGCOBRA.3",0.698870643071254,0.237888668946127,1.15985261719638,"ssf","mf.is","gamma","vonmises",50,"ssfOUT_240_12_2_KINGCOBRA","KINGCOBRA",2,0.0833333333333333,240,"preference"
"ssfOUT_240_12_2_KINGCOBRA.4",0.741566811826819,0.279574291172723,1.20355933248092,"ssf","mf.is","gamma","vonmises",158,"ssfOUT_240_12_2_KINGCOBRA","KINGCOBRA",2,0.0833333333333333,240,"preference"
"ssfOUT_240_12_2_KINGCOBRA.5",0.74465494777918,0.283507316588597,1.20580257896976,"ssf","mf.is","gamma","vonmises",500,"ssfOUT_240_12_2_KINGCOBRA","KINGCOBRA",2,0.0833333333333333,240,"preference"
"ssfOUT_240_12_2_KINGCOBRA.6",0.833028813892949,0.346434183065501,1.3196234447204,"ssf","mf.is","gamma","unif",5,"ssfOUT_240_12_2_KINGCOBRA","KINGCOBRA",2,0.0833333333333333,240,"preference"
"ssfOUT_240_12_2_KINGCOBRA.7",0.862433213114754,0.392969704630597,1.33189672159891,"ssf","mf.is","gamma","unif",15,"ssfOUT_240_12_2_KINGCOBRA","KINGCOBRA",2,0.0833333333333333,240,"preference"
"ssfOUT_240_12_2_KINGCOBRA.8",0.701082936008317,0.237440255600106,1.16472561641653,"ssf","mf.is","gamma","unif",50,"ssfOUT_240_12_2_KINGCOBRA","KINGCOBRA",2,0.0833333333333333,240,"preference"
"ssfOUT_240_12_2_KINGCOBRA.9",0.730998829530387,0.270122013517231,1.19187564554354,"ssf","mf.is","gamma","unif",158,"ssfOUT_240_12_2_KINGCOBRA","KINGCOBRA",2,0.0833333333333333,240,"preference"
"ssfOUT_240_12_2_KINGCOBRA.10",0.737045184933328,0.275345775047946,1.19874459481871,"ssf","mf.is","gamma","unif",500,"ssfOUT_240_12_2_KINGCOBRA","KINGCOBRA",2,0.0833333333333333,240,"preference"
"ssfOUT_240_12_2_KINGCOBRA.11",0.63031167248865,0.126317105831165,1.13430623914614,"ssf","mf.is","exp","vonmises",5,"ssfOUT_240_12_2_KINGCOBRA","KINGCOBRA",2,0.0833333333333333,240,"preference"
"ssfOUT_240_12_2_KINGCOBRA.12",0.700674763422537,0.225087921030539,1.17626160581453,"ssf","mf.is","exp","vonmises",15,"ssfOUT_240_12_2_KINGCOBRA","KINGCOBRA",2,0.0833333333333333,240,"preference"
"ssfOUT_240_12_2_KINGCOBRA.13",0.73750678775984,0.265034999219974,1.20997857629971,"ssf","mf.is","exp","vonmises",50,"ssfOUT_240_12_2_KINGCOBRA","KINGCOBRA",2,0.0833333333333333,240,"preference"
"ssfOUT_240_12_2_KINGCOBRA.14",0.696499616356134,0.234648894693919,1.15835033801835,"ssf","mf.is","exp","vonmises",158,"ssfOUT_240_12_2_KINGCOBRA","KINGCOBRA",2,0.0833333333333333,240,"preference"
"ssfOUT_240_12_2_KINGCOBRA.15",0.729973177835349,0.26704038018597,1.19290597548473,"ssf","mf.is","exp","vonmises",500,"ssfOUT_240_12_2_KINGCOBRA","KINGCOBRA",2,0.0833333333333333,240,"preference"
"ssfOUT_240_12_2_KINGCOBRA.16",0.731801834486002,0.242305465554548,1.22129820341746,"ssf","mf.is","exp","unif",5,"ssfOUT_240_12_2_KINGCOBRA","KINGCOBRA",2,0.0833333333333333,240,"preference"
"ssfOUT_240_12_2_KINGCOBRA.17",0.664884352412445,0.194372591782461,1.13539611304243,"ssf","mf.is","exp","unif",15,"ssfOUT_240_12_2_KINGCOBRA","KINGCOBRA",2,0.0833333333333333,240,"preference"
"ssfOUT_240_12_2_KINGCOBRA.18",0.802323255114547,0.337201727853525,1.26744478237557,"ssf","mf.is","exp","unif",50,"ssfOUT_240_12_2_KINGCOBRA","KINGCOBRA",2,0.0833333333333333,240,"preference"
"ssfOUT_240_12_2_KINGCOBRA.19",0.779147194014689,0.315761976585732,1.24253241144365,"ssf","mf.is","exp","unif",158,"ssfOUT_240_12_2_KINGCOBRA","KINGCOBRA",2,0.0833333333333333,240,"preference"
"ssfOUT_240_12_2_KINGCOBRA.20",0.715495708049519,0.255660134814099,1.17533128128494,"ssf","mf.is","exp","unif",500,"ssfOUT_240_12_2_KINGCOBRA","KINGCOBRA",2,0.0833333333333333,240,"preference"
"ssfOUT_240_12_2_KINGCOBRA.21",0.821182842637407,0.335215913324388,1.30714977195043,"ssf","mf.ss","gamma","vonmises",5,"ssfOUT_240_12_2_KINGCOBRA","KINGCOBRA",2,0.0833333333333333,240,"preference"
"ssfOUT_240_12_2_KINGCOBRA.22",0.753345087696456,0.28655997366445,1.22013020172846,"ssf","mf.ss","gamma","vonmises",15,"ssfOUT_240_12_2_KINGCOBRA","KINGCOBRA",2,0.0833333333333333,240,"preference"
"ssfOUT_240_12_2_KINGCOBRA.23",0.701447963355455,0.241560104701049,1.16133582200986,"ssf","mf.ss","gamma","vonmises",50,"ssfOUT_240_12_2_KINGCOBRA","KINGCOBRA",2,0.0833333333333333,240,"preference"
"ssfOUT_240_12_2_KINGCOBRA.24",0.693453820415946,0.232726734991043,1.15418090584085,"ssf","mf.ss","gamma","vonmises",158,"ssfOUT_240_12_2_KINGCOBRA","KINGCOBRA",2,0.0833333333333333,240,"preference"
"ssfOUT_240_12_2_KINGCOBRA.25",0.712670399099479,0.252671959943958,1.172668838255,"ssf","mf.ss","gamma","vonmises",500,"ssfOUT_240_12_2_KINGCOBRA","KINGCOBRA",2,0.0833333333333333,240,"preference"
"ssfOUT_240_12_2_KINGCOBRA.26",0.747232346051691,0.260737390451042,1.23372730165234,"ssf","mf.ss","gamma","unif",5,"ssfOUT_240_12_2_KINGCOBRA","KINGCOBRA",2,0.0833333333333333,240,"preference"
"ssfOUT_240_12_2_KINGCOBRA.27",0.809229240508661,0.341273004758366,1.27718547625896,"ssf","mf.ss","gamma","unif",15,"ssfOUT_240_12_2_KINGCOBRA","KINGCOBRA",2,0.0833333333333333,240,"preference"
"ssfOUT_240_12_2_KINGCOBRA.28",0.682272328745283,0.220215172584372,1.14432948490619,"ssf","mf.ss","gamma","unif",50,"ssfOUT_240_12_2_KINGCOBRA","KINGCOBRA",2,0.0833333333333333,240,"preference"
"ssfOUT_240_12_2_KINGCOBRA.29",0.717144805195957,0.257231645464827,1.17705796492709,"ssf","mf.ss","gamma","unif",158,"ssfOUT_240_12_2_KINGCOBRA","KINGCOBRA",2,0.0833333333333333,240,"preference"
"ssfOUT_240_12_2_KINGCOBRA.30",0.716326150744711,0.255027689212262,1.17762461227716,"ssf","mf.ss","gamma","unif",500,"ssfOUT_240_12_2_KINGCOBRA","KINGCOBRA",2,0.0833333333333333,240,"preference"
"ssfOUT_240_12_2_KINGCOBRA.31",0.648448272056915,0.168817588849682,1.12807895526415,"ssf","mf.ss","exp","vonmises",5,"ssfOUT_240_12_2_KINGCOBRA","KINGCOBRA",2,0.0833333333333333,240,"preference"
"ssfOUT_240_12_2_KINGCOBRA.32",0.706328223334187,0.241276168057939,1.17138027861043,"ssf","mf.ss","exp","vonmises",15,"ssfOUT_240_12_2_KINGCOBRA","KINGCOBRA",2,0.0833333333333333,240,"preference"
"ssfOUT_240_12_2_KINGCOBRA.33",0.722930591702397,0.265147132748466,1.18071405065633,"ssf","mf.ss","exp","vonmises",50,"ssfOUT_240_12_2_KINGCOBRA","KINGCOBRA",2,0.0833333333333333,240,"preference"
"ssfOUT_240_12_2_KINGCOBRA.34",0.725807573740111,0.270551744558588,1.18106340292163,"ssf","mf.ss","exp","vonmises",158,"ssfOUT_240_12_2_KINGCOBRA","KINGCOBRA",2,0.0833333333333333,240,"preference"
"ssfOUT_240_12_2_KINGCOBRA.35",0.753514888880286,0.298792934575722,1.20823684318485,"ssf","mf.ss","exp","vonmises",500,"ssfOUT_240_12_2_KINGCOBRA","KINGCOBRA",2,0.0833333333333333,240,"preference"
"ssfOUT_240_12_2_KINGCOBRA.36",0.776942511219865,0.299614928256834,1.2542700941829,"ssf","mf.ss","exp","unif",5,"ssfOUT_240_12_2_KINGCOBRA","KINGCOBRA",2,0.0833333333333333,240,"preference"
"ssfOUT_240_12_2_KINGCOBRA.37",0.676904400211802,0.213587455803147,1.14022134462046,"ssf","mf.ss","exp","unif",15,"ssfOUT_240_12_2_KINGCOBRA","KINGCOBRA",2,0.0833333333333333,240,"preference"
"ssfOUT_240_12_2_KINGCOBRA.38",0.766572243350439,0.309453736099868,1.22369075060101,"ssf","mf.ss","exp","unif",50,"ssfOUT_240_12_2_KINGCOBRA","KINGCOBRA",2,0.0833333333333333,240,"preference"
"ssfOUT_240_12_2_KINGCOBRA.39",0.762461404666786,0.306976046022239,1.21794676331133,"ssf","mf.ss","exp","unif",158,"ssfOUT_240_12_2_KINGCOBRA","KINGCOBRA",2,0.0833333333333333,240,"preference"
"ssfOUT_240_12_2_KINGCOBRA.40",0.751475392381842,0.296832809405578,1.20611797535811,"ssf","mf.ss","exp","unif",500,"ssfOUT_240_12_2_KINGCOBRA","KINGCOBRA",2,0.0833333333333333,240,"preference"
"ssfOUT_240_12_3_BADGER.1",0.375910687703969,-0.0288132008904688,0.780634576298406,"ssf","mf.is","gamma","vonmises",5,"ssfOUT_240_12_3_BADGER","BADGER",3,0.0833333333333333,240,"no effect"
"ssfOUT_240_12_3_BADGER.2",0.671133397610081,0.296379895622356,1.0458868995978,"ssf","mf.is","gamma","vonmises",15,"ssfOUT_240_12_3_BADGER","BADGER",3,0.0833333333333333,240,"preference"
"ssfOUT_240_12_3_BADGER.3",0.663990597728993,0.299058874213666,1.02892232124432,"ssf","mf.is","gamma","vonmises",50,"ssfOUT_240_12_3_BADGER","BADGER",3,0.0833333333333333,240,"preference"
"ssfOUT_240_12_3_BADGER.4",0.618110783899193,0.255480419897137,0.98074114790125,"ssf","mf.is","gamma","vonmises",158,"ssfOUT_240_12_3_BADGER","BADGER",3,0.0833333333333333,240,"preference"
"ssfOUT_240_12_3_BADGER.5",0.620249233680272,0.258350416569786,0.982148050790758,"ssf","mf.is","gamma","vonmises",500,"ssfOUT_240_12_3_BADGER","BADGER",3,0.0833333333333333,240,"preference"
"ssfOUT_240_12_3_BADGER.6",0.761027964914513,0.379077495189036,1.14297843463999,"ssf","mf.is","gamma","unif",5,"ssfOUT_240_12_3_BADGER","BADGER",3,0.0833333333333333,240,"preference"
"ssfOUT_240_12_3_BADGER.7",0.773215378356101,0.40483508028997,1.14159567642223,"ssf","mf.is","gamma","unif",15,"ssfOUT_240_12_3_BADGER","BADGER",3,0.0833333333333333,240,"preference"
"ssfOUT_240_12_3_BADGER.8",0.615205502072418,0.25147515801385,0.978935846130985,"ssf","mf.is","gamma","unif",50,"ssfOUT_240_12_3_BADGER","BADGER",3,0.0833333333333333,240,"preference"
"ssfOUT_240_12_3_BADGER.9",0.609506151440841,0.247005224835717,0.972007078045965,"ssf","mf.is","gamma","unif",158,"ssfOUT_240_12_3_BADGER","BADGER",3,0.0833333333333333,240,"preference"
"ssfOUT_240_12_3_BADGER.10",0.64993723197286,0.288147231401685,1.01172723254403,"ssf","mf.is","gamma","unif",500,"ssfOUT_240_12_3_BADGER","BADGER",3,0.0833333333333333,240,"preference"
"ssfOUT_240_12_3_BADGER.11",0.888107729597155,0.474774298357702,1.30144116083661,"ssf","mf.is","exp","vonmises",5,"ssfOUT_240_12_3_BADGER","BADGER",3,0.0833333333333333,240,"preference"
"ssfOUT_240_12_3_BADGER.12",0.765642786230674,0.390364515025014,1.14092105743633,"ssf","mf.is","exp","vonmises",15,"ssfOUT_240_12_3_BADGER","BADGER",3,0.0833333333333333,240,"preference"
"ssfOUT_240_12_3_BADGER.13",0.537618138226265,0.169730047663124,0.905506228789406,"ssf","mf.is","exp","vonmises",50,"ssfOUT_240_12_3_BADGER","BADGER",3,0.0833333333333333,240,"preference"
"ssfOUT_240_12_3_BADGER.14",0.664343212583312,0.302100334333904,1.02658609083272,"ssf","mf.is","exp","vonmises",158,"ssfOUT_240_12_3_BADGER","BADGER",3,0.0833333333333333,240,"preference"
"ssfOUT_240_12_3_BADGER.15",0.651100552065732,0.289172016449258,1.01302908768221,"ssf","mf.is","exp","vonmises",500,"ssfOUT_240_12_3_BADGER","BADGER",3,0.0833333333333333,240,"preference"
"ssfOUT_240_12_3_BADGER.16",0.82179094218206,0.428241506980131,1.21534037738399,"ssf","mf.is","exp","unif",5,"ssfOUT_240_12_3_BADGER","BADGER",3,0.0833333333333333,240,"preference"
"ssfOUT_240_12_3_BADGER.17",0.610753582713087,0.238603486382646,0.982903679043528,"ssf","mf.is","exp","unif",15,"ssfOUT_240_12_3_BADGER","BADGER",3,0.0833333333333333,240,"preference"
"ssfOUT_240_12_3_BADGER.18",0.645207634752646,0.280694980304193,1.0097202892011,"ssf","mf.is","exp","unif",50,"ssfOUT_240_12_3_BADGER","BADGER",3,0.0833333333333333,240,"preference"
"ssfOUT_240_12_3_BADGER.19",0.639303951661657,0.276717916171536,1.00188998715178,"ssf","mf.is","exp","unif",158,"ssfOUT_240_12_3_BADGER","BADGER",3,0.0833333333333333,240,"preference"
"ssfOUT_240_12_3_BADGER.20",0.613765225404552,0.25209126565701,0.975439185152094,"ssf","mf.is","exp","unif",500,"ssfOUT_240_12_3_BADGER","BADGER",3,0.0833333333333333,240,"preference"
"ssfOUT_240_12_3_BADGER.21",0.459670662030295,0.0720716006586865,0.847269723401904,"ssf","mf.ss","gamma","vonmises",5,"ssfOUT_240_12_3_BADGER","BADGER",3,0.0833333333333333,240,"preference"
"ssfOUT_240_12_3_BADGER.22",0.611518618442637,0.242679626387568,0.980357610497706,"ssf","mf.ss","gamma","vonmises",15,"ssfOUT_240_12_3_BADGER","BADGER",3,0.0833333333333333,240,"preference"
"ssfOUT_240_12_3_BADGER.23",0.605532286589098,0.242352724728002,0.968711848450193,"ssf","mf.ss","gamma","vonmises",50,"ssfOUT_240_12_3_BADGER","BADGER",3,0.0833333333333333,240,"preference"
"ssfOUT_240_12_3_BADGER.24",0.601656961191265,0.240231758117256,0.963082164265275,"ssf","mf.ss","gamma","vonmises",158,"ssfOUT_240_12_3_BADGER","BADGER",3,0.0833333333333333,240,"preference"
"ssfOUT_240_12_3_BADGER.25",0.596015319610428,0.234986761502551,0.957043877718305,"ssf","mf.ss","gamma","vonmises",500,"ssfOUT_240_12_3_BADGER","BADGER",3,0.0833333333333333,240,"preference"
"ssfOUT_240_12_3_BADGER.26",0.705998620265405,0.326196453194891,1.08580078733592,"ssf","mf.ss","gamma","unif",5,"ssfOUT_240_12_3_BADGER","BADGER",3,0.0833333333333333,240,"preference"
"ssfOUT_240_12_3_BADGER.27",0.750527390833695,0.383162883024554,1.11789189864284,"ssf","mf.ss","gamma","unif",15,"ssfOUT_240_12_3_BADGER","BADGER",3,0.0833333333333333,240,"preference"
"ssfOUT_240_12_3_BADGER.28",0.587360129893915,0.224641682251952,0.950078577535878,"ssf","mf.ss","gamma","unif",50,"ssfOUT_240_12_3_BADGER","BADGER",3,0.0833333333333333,240,"preference"
"ssfOUT_240_12_3_BADGER.29",0.602344471183299,0.240682566915981,0.964006375450617,"ssf","mf.ss","gamma","unif",158,"ssfOUT_240_12_3_BADGER","BADGER",3,0.0833333333333333,240,"preference"
"ssfOUT_240_12_3_BADGER.30",0.629836238339071,0.268747140045322,0.990925336632819,"ssf","mf.ss","gamma","unif",500,"ssfOUT_240_12_3_BADGER","BADGER",3,0.0833333333333333,240,"preference"
"ssfOUT_240_12_3_BADGER.31",0.686772840347287,0.304718156527382,1.06882752416719,"ssf","mf.ss","exp","vonmises",5,"ssfOUT_240_12_3_BADGER","BADGER",3,0.0833333333333333,240,"preference"
"ssfOUT_240_12_3_BADGER.32",0.537697761193031,0.168477846732977,0.906917675653085,"ssf","mf.ss","exp","vonmises",15,"ssfOUT_240_12_3_BADGER","BADGER",3,0.0833333333333333,240,"preference"
"ssfOUT_240_12_3_BADGER.33",0.510812358031252,0.145532251289351,0.876092464773153,"ssf","mf.ss","exp","vonmises",50,"ssfOUT_240_12_3_BADGER","BADGER",3,0.0833333333333333,240,"preference"
"ssfOUT_240_12_3_BADGER.34",0.568475113559872,0.206203224981692,0.930747002138052,"ssf","mf.ss","exp","vonmises",158,"ssfOUT_240_12_3_BADGER","BADGER",3,0.0833333333333333,240,"preference"
"ssfOUT_240_12_3_BADGER.35",0.558420337436168,0.196345164799169,0.920495510073167,"ssf","mf.ss","exp","vonmises",500,"ssfOUT_240_12_3_BADGER","BADGER",3,0.0833333333333333,240,"preference"
"ssfOUT_240_12_3_BADGER.36",0.679332012135749,0.299207452509646,1.05945657176185,"ssf","mf.ss","exp","unif",5,"ssfOUT_240_12_3_BADGER","BADGER",3,0.0833333333333333,240,"preference"
"ssfOUT_240_12_3_BADGER.37",0.537042570491792,0.167803833194378,0.906281307789206,"ssf","mf.ss","exp","unif",15,"ssfOUT_240_12_3_BADGER","BADGER",3,0.0833333333333333,240,"preference"
"ssfOUT_240_12_3_BADGER.38",0.601971031252332,0.237499085124064,0.9664429773806,"ssf","mf.ss","exp","unif",50,"ssfOUT_240_12_3_BADGER","BADGER",3,0.0833333333333333,240,"preference"
"ssfOUT_240_12_3_BADGER.39",0.568142954537944,0.205532657124543,0.930753251951346,"ssf","mf.ss","exp","unif",158,"ssfOUT_240_12_3_BADGER","BADGER",3,0.0833333333333333,240,"preference"
"ssfOUT_240_12_3_BADGER.40",0.572251884444707,0.210206425531899,0.934297343357515,"ssf","mf.ss","exp","unif",500,"ssfOUT_240_12_3_BADGER","BADGER",3,0.0833333333333333,240,"preference"
"ssfOUT_240_12_3_VULTURE.1",0.69376260670467,0.222255748104393,1.16526946530495,"ssf","mf.is","gamma","vonmises",5,"ssfOUT_240_12_3_VULTURE","VULTURE",3,0.0833333333333333,240,"preference"
"ssfOUT_240_12_3_VULTURE.2",0.797433063669275,0.367702172272022,1.22716395506653,"ssf","mf.is","gamma","vonmises",15,"ssfOUT_240_12_3_VULTURE","VULTURE",3,0.0833333333333333,240,"preference"
"ssfOUT_240_12_3_VULTURE.3",1.03914830003337,0.620015771217958,1.45828082884878,"ssf","mf.is","gamma","vonmises",50,"ssfOUT_240_12_3_VULTURE","VULTURE",3,0.0833333333333333,240,"preference"
"ssfOUT_240_12_3_VULTURE.4",0.997126860507443,0.581193634927899,1.41306008608699,"ssf","mf.is","gamma","vonmises",158,"ssfOUT_240_12_3_VULTURE","VULTURE",3,0.0833333333333333,240,"preference"
"ssfOUT_240_12_3_VULTURE.5",1.01027953233021,0.595632531146828,1.42492653351359,"ssf","mf.is","gamma","vonmises",500,"ssfOUT_240_12_3_VULTURE","VULTURE",3,0.0833333333333333,240,"preference"
"ssfOUT_240_12_3_VULTURE.6",0.521595879167072,0.0720876736155738,0.971104084718571,"ssf","mf.is","gamma","unif",5,"ssfOUT_240_12_3_VULTURE","VULTURE",3,0.0833333333333333,240,"preference"
"ssfOUT_240_12_3_VULTURE.7",1.04511839329766,0.620387842015231,1.46984894458008,"ssf","mf.is","gamma","unif",15,"ssfOUT_240_12_3_VULTURE","VULTURE",3,0.0833333333333333,240,"preference"
"ssfOUT_240_12_3_VULTURE.8",0.94707689953592,0.530291014986128,1.36386278408571,"ssf","mf.is","gamma","unif",50,"ssfOUT_240_12_3_VULTURE","VULTURE",3,0.0833333333333333,240,"preference"
"ssfOUT_240_12_3_VULTURE.9",0.979314283545903,0.564180024697251,1.39444854239455,"ssf","mf.is","gamma","unif",158,"ssfOUT_240_12_3_VULTURE","VULTURE",3,0.0833333333333333,240,"preference"
"ssfOUT_240_12_3_VULTURE.10",0.987070520786439,0.572462700142989,1.40167834142989,"ssf","mf.is","gamma","unif",500,"ssfOUT_240_12_3_VULTURE","VULTURE",3,0.0833333333333333,240,"preference"
"ssfOUT_240_12_3_VULTURE.11",0.341637174226164,-0.138873239096766,0.822147587549094,"ssf","mf.is","exp","vonmises",5,"ssfOUT_240_12_3_VULTURE","VULTURE",3,0.0833333333333333,240,"no effect"
"ssfOUT_240_12_3_VULTURE.12",0.921696984179442,0.485008282078899,1.35838568627999,"ssf","mf.is","exp","vonmises",15,"ssfOUT_240_12_3_VULTURE","VULTURE",3,0.0833333333333333,240,"preference"
"ssfOUT_240_12_3_VULTURE.13",1.00441605477585,0.583958515458614,1.42487359409309,"ssf","mf.is","exp","vonmises",50,"ssfOUT_240_12_3_VULTURE","VULTURE",3,0.0833333333333333,240,"preference"
"ssfOUT_240_12_3_VULTURE.14",0.95016549600637,0.53399514284883,1.36633584916391,"ssf","mf.is","exp","vonmises",158,"ssfOUT_240_12_3_VULTURE","VULTURE",3,0.0833333333333333,240,"preference"
"ssfOUT_240_12_3_VULTURE.15",0.980969055631814,0.565968235066862,1.39596987619677,"ssf","mf.is","exp","vonmises",500,"ssfOUT_240_12_3_VULTURE","VULTURE",3,0.0833333333333333,240,"preference"
"ssfOUT_240_12_3_VULTURE.16",0.807562752266052,0.345423940948635,1.26970156358347,"ssf","mf.is","exp","unif",5,"ssfOUT_240_12_3_VULTURE","VULTURE",3,0.0833333333333333,240,"preference"
"ssfOUT_240_12_3_VULTURE.17",1.03929166564139,0.613111293544434,1.46547203773835,"ssf","mf.is","exp","unif",15,"ssfOUT_240_12_3_VULTURE","VULTURE",3,0.0833333333333333,240,"preference"
"ssfOUT_240_12_3_VULTURE.18",0.975325631336112,0.557383512339364,1.39326775033286,"ssf","mf.is","exp","unif",50,"ssfOUT_240_12_3_VULTURE","VULTURE",3,0.0833333333333333,240,"preference"
"ssfOUT_240_12_3_VULTURE.19",1.01380504825132,0.59832117911426,1.42928891738838,"ssf","mf.is","exp","unif",158,"ssfOUT_240_12_3_VULTURE","VULTURE",3,0.0833333333333333,240,"preference"
"ssfOUT_240_12_3_VULTURE.20",0.959923528624987,0.545293099787457,1.37455395746252,"ssf","mf.is","exp","unif",500,"ssfOUT_240_12_3_VULTURE","VULTURE",3,0.0833333333333333,240,"preference"
"ssfOUT_240_12_3_VULTURE.21",0.690586319694061,0.252617292083043,1.12855534730508,"ssf","mf.ss","gamma","vonmises",5,"ssfOUT_240_12_3_VULTURE","VULTURE",3,0.0833333333333333,240,"preference"
"ssfOUT_240_12_3_VULTURE.22",0.748508671401825,0.327163656604743,1.16985368619891,"ssf","mf.ss","gamma","vonmises",15,"ssfOUT_240_12_3_VULTURE","VULTURE",3,0.0833333333333333,240,"preference"
"ssfOUT_240_12_3_VULTURE.23",0.784161315637076,0.368494319001816,1.19982831227234,"ssf","mf.ss","gamma","vonmises",50,"ssfOUT_240_12_3_VULTURE","VULTURE",3,0.0833333333333333,240,"preference"
"ssfOUT_240_12_3_VULTURE.24",0.766191446605471,0.352196609557051,1.18018628365389,"ssf","mf.ss","gamma","vonmises",158,"ssfOUT_240_12_3_VULTURE","VULTURE",3,0.0833333333333333,240,"preference"
"ssfOUT_240_12_3_VULTURE.25",0.769361463028304,0.355784870515871,1.18293805554074,"ssf","mf.ss","gamma","vonmises",500,"ssfOUT_240_12_3_VULTURE","VULTURE",3,0.0833333333333333,240,"preference"
"ssfOUT_240_12_3_VULTURE.26",0.506842307044707,0.0646820966280395,0.949002517461375,"ssf","mf.ss","gamma","unif",5,"ssfOUT_240_12_3_VULTURE","VULTURE",3,0.0833333333333333,240,"preference"
"ssfOUT_240_12_3_VULTURE.27",0.9406083655035,0.518713721842177,1.36250300916482,"ssf","mf.ss","gamma","unif",15,"ssfOUT_240_12_3_VULTURE","VULTURE",3,0.0833333333333333,240,"preference"
"ssfOUT_240_12_3_VULTURE.28",0.833234985468862,0.417505003584583,1.24896496735314,"ssf","mf.ss","gamma","unif",50,"ssfOUT_240_12_3_VULTURE","VULTURE",3,0.0833333333333333,240,"preference"
"ssfOUT_240_12_3_VULTURE.29",0.847302573030559,0.433185253591854,1.26141989246926,"ssf","mf.ss","gamma","unif",158,"ssfOUT_240_12_3_VULTURE","VULTURE",3,0.0833333333333333,240,"preference"
"ssfOUT_240_12_3_VULTURE.30",0.872490456053954,0.458765976274793,1.28621493583312,"ssf","mf.ss","gamma","unif",500,"ssfOUT_240_12_3_VULTURE","VULTURE",3,0.0833333333333333,240,"preference"
"ssfOUT_240_12_3_VULTURE.31",0.601498715853086,0.159367704728306,1.04362972697787,"ssf","mf.ss","exp","vonmises",5,"ssfOUT_240_12_3_VULTURE","VULTURE",3,0.0833333333333333,240,"preference"
"ssfOUT_240_12_3_VULTURE.32",0.668517089776401,0.245774210413076,1.09125996913973,"ssf","mf.ss","exp","vonmises",15,"ssfOUT_240_12_3_VULTURE","VULTURE",3,0.0833333333333333,240,"preference"
"ssfOUT_240_12_3_VULTURE.33",0.660516025601911,0.243383240918153,1.07764881028567,"ssf","mf.ss","exp","vonmises",50,"ssfOUT_240_12_3_VULTURE","VULTURE",3,0.0833333333333333,240,"preference"
"ssfOUT_240_12_3_VULTURE.34",0.710436970287856,0.295248997264878,1.12562494331083,"ssf","mf.ss","exp","vonmises",158,"ssfOUT_240_12_3_VULTURE","VULTURE",3,0.0833333333333333,240,"preference"
"ssfOUT_240_12_3_VULTURE.35",0.714402949740841,0.299806388520066,1.12899951096162,"ssf","mf.ss","exp","vonmises",500,"ssfOUT_240_12_3_VULTURE","VULTURE",3,0.0833333333333333,240,"preference"
"ssfOUT_240_12_3_VULTURE.36",0.571006738376875,0.131780269088754,1.010233207665,"ssf","mf.ss","exp","unif",5,"ssfOUT_240_12_3_VULTURE","VULTURE",3,0.0833333333333333,240,"preference"
"ssfOUT_240_12_3_VULTURE.37",0.798513251124255,0.375759041534985,1.22126746071353,"ssf","mf.ss","exp","unif",15,"ssfOUT_240_12_3_VULTURE","VULTURE",3,0.0833333333333333,240,"preference"
"ssfOUT_240_12_3_VULTURE.38",0.786035848465385,0.369359331154569,1.2027123657762,"ssf","mf.ss","exp","unif",50,"ssfOUT_240_12_3_VULTURE","VULTURE",3,0.0833333333333333,240,"preference"
"ssfOUT_240_12_3_VULTURE.39",0.819033887551269,0.403691908673705,1.23437586642883,"ssf","mf.ss","exp","unif",158,"ssfOUT_240_12_3_VULTURE","VULTURE",3,0.0833333333333333,240,"preference"
"ssfOUT_240_12_3_VULTURE.40",0.786874311251618,0.372055008355423,1.20169361414781,"ssf","mf.ss","exp","unif",500,"ssfOUT_240_12_3_VULTURE","VULTURE",3,0.0833333333333333,240,"preference"
"ssfOUT_240_12_3_KINGCOBRA.1",0.951086485456081,0.200559078631022,1.70161389228114,"ssf","mf.is","gamma","vonmises",5,"ssfOUT_240_12_3_KINGCOBRA","KINGCOBRA",3,0.0833333333333333,240,"preference"
"ssfOUT_240_12_3_KINGCOBRA.2",0.911762044747112,0.176371934378941,1.64715215511528,"ssf","mf.is","gamma","vonmises",15,"ssfOUT_240_12_3_KINGCOBRA","KINGCOBRA",3,0.0833333333333333,240,"preference"
"ssfOUT_240_12_3_KINGCOBRA.3",0.68375334156419,-0.0413748079432201,1.4088814910716,"ssf","mf.is","gamma","vonmises",50,"ssfOUT_240_12_3_KINGCOBRA","KINGCOBRA",3,0.0833333333333333,240,"no effect"
"ssfOUT_240_12_3_KINGCOBRA.4",0.786413060598332,0.0654863420368372,1.50733977915983,"ssf","mf.is","gamma","vonmises",158,"ssfOUT_240_12_3_KINGCOBRA","KINGCOBRA",3,0.0833333333333333,240,"preference"
"ssfOUT_240_12_3_KINGCOBRA.5",0.80997849116235,0.0906140752771322,1.52934290704757,"ssf","mf.is","gamma","vonmises",500,"ssfOUT_240_12_3_KINGCOBRA","KINGCOBRA",3,0.0833333333333333,240,"preference"
"ssfOUT_240_12_3_KINGCOBRA.6",0.634750431316207,-0.134294206793851,1.40379506942627,"ssf","mf.is","gamma","unif",5,"ssfOUT_240_12_3_KINGCOBRA","KINGCOBRA",3,0.0833333333333333,240,"no effect"
"ssfOUT_240_12_3_KINGCOBRA.7",0.900291409877323,0.164501209937359,1.63608160981729,"ssf","mf.is","gamma","unif",15,"ssfOUT_240_12_3_KINGCOBRA","KINGCOBRA",3,0.0833333333333333,240,"preference"
"ssfOUT_240_12_3_KINGCOBRA.8",0.687164891698535,-0.0358084007456287,1.4101381841427,"ssf","mf.is","gamma","unif",50,"ssfOUT_240_12_3_KINGCOBRA","KINGCOBRA",3,0.0833333333333333,240,"no effect"
"ssfOUT_240_12_3_KINGCOBRA.9",0.803549597818125,0.0830247469821686,1.52407444865408,"ssf","mf.is","gamma","unif",158,"ssfOUT_240_12_3_KINGCOBRA","KINGCOBRA",3,0.0833333333333333,240,"preference"
"ssfOUT_240_12_3_KINGCOBRA.10",0.819575066161828,0.100224928816525,1.53892520350713,"ssf","mf.is","gamma","unif",500,"ssfOUT_240_12_3_KINGCOBRA","KINGCOBRA",3,0.0833333333333333,240,"preference"
"ssfOUT_240_12_3_KINGCOBRA.11",0.334348538357443,-0.451614472368642,1.12031154908353,"ssf","mf.is","exp","vonmises",5,"ssfOUT_240_12_3_KINGCOBRA","KINGCOBRA",3,0.0833333333333333,240,"no effect"
"ssfOUT_240_12_3_KINGCOBRA.12",0.64354923348125,-0.131475544047802,1.4185740110103,"ssf","mf.is","exp","vonmises",15,"ssfOUT_240_12_3_KINGCOBRA","KINGCOBRA",3,0.0833333333333333,240,"no effect"
"ssfOUT_240_12_3_KINGCOBRA.13",0.621523143552237,-0.108969145942562,1.35201543304704,"ssf","mf.is","exp","vonmises",50,"ssfOUT_240_12_3_KINGCOBRA","KINGCOBRA",3,0.0833333333333333,240,"no effect"
"ssfOUT_240_12_3_KINGCOBRA.14",0.796995314898124,0.0667164918407348,1.52727413795551,"ssf","mf.is","exp","vonmises",158,"ssfOUT_240_12_3_KINGCOBRA","KINGCOBRA",3,0.0833333333333333,240,"preference"
"ssfOUT_240_12_3_KINGCOBRA.15",0.77054822843245,0.051071907595043,1.49002454926986,"ssf","mf.is","exp","vonmises",500,"ssfOUT_240_12_3_KINGCOBRA","KINGCOBRA",3,0.0833333333333333,240,"preference"
"ssfOUT_240_12_3_KINGCOBRA.16",0.631158572048005,-0.139497555582145,1.40181469967815,"ssf","mf.is","exp","unif",5,"ssfOUT_240_12_3_KINGCOBRA","KINGCOBRA",3,0.0833333333333333,240,"no effect"
"ssfOUT_240_12_3_KINGCOBRA.17",1.34520650574949,0.582352842254538,2.10806016924445,"ssf","mf.is","exp","unif",15,"ssfOUT_240_12_3_KINGCOBRA","KINGCOBRA",3,0.0833333333333333,240,"preference"
"ssfOUT_240_12_3_KINGCOBRA.18",0.985953864669378,0.247487632950479,1.72442009638828,"ssf","mf.is","exp","unif",50,"ssfOUT_240_12_3_KINGCOBRA","KINGCOBRA",3,0.0833333333333333,240,"preference"
"ssfOUT_240_12_3_KINGCOBRA.19",0.841392390176958,0.120182680706155,1.56260209964776,"ssf","mf.is","exp","unif",158,"ssfOUT_240_12_3_KINGCOBRA","KINGCOBRA",3,0.0833333333333333,240,"preference"
"ssfOUT_240_12_3_KINGCOBRA.20",0.76813563874535,0.046249458927546,1.49002181856315,"ssf","mf.is","exp","unif",500,"ssfOUT_240_12_3_KINGCOBRA","KINGCOBRA",3,0.0833333333333333,240,"preference"
"ssfOUT_240_12_3_KINGCOBRA.21",0.878899724579884,0.134713889753485,1.62308555940628,"ssf","mf.ss","gamma","vonmises",5,"ssfOUT_240_12_3_KINGCOBRA","KINGCOBRA",3,0.0833333333333333,240,"preference"
"ssfOUT_240_12_3_KINGCOBRA.22",0.68464445180491,-0.0467957681132277,1.41608467172305,"ssf","mf.ss","gamma","vonmises",15,"ssfOUT_240_12_3_KINGCOBRA","KINGCOBRA",3,0.0833333333333333,240,"no effect"
"ssfOUT_240_12_3_KINGCOBRA.23",0.470433798599024,-0.250123483002337,1.19099108020038,"ssf","mf.ss","gamma","vonmises",50,"ssfOUT_240_12_3_KINGCOBRA","KINGCOBRA",3,0.0833333333333333,240,"no effect"
"ssfOUT_240_12_3_KINGCOBRA.24",0.629413977761731,-0.0885765938180292,1.34740454934149,"ssf","mf.ss","gamma","vonmises",158,"ssfOUT_240_12_3_KINGCOBRA","KINGCOBRA",3,0.0833333333333333,240,"no effect"
"ssfOUT_240_12_3_KINGCOBRA.25",0.634499572402143,-0.0823689499020123,1.3513680947063,"ssf","mf.ss","gamma","vonmises",500,"ssfOUT_240_12_3_KINGCOBRA","KINGCOBRA",3,0.0833333333333333,240,"no effect"
"ssfOUT_240_12_3_KINGCOBRA.26",0.510174459509381,-0.255608283824396,1.27595720284316,"ssf","mf.ss","gamma","unif",5,"ssfOUT_240_12_3_KINGCOBRA","KINGCOBRA",3,0.0833333333333333,240,"no effect"
"ssfOUT_240_12_3_KINGCOBRA.27",0.780033209458731,0.0475645184601829,1.51250190045728,"ssf","mf.ss","gamma","unif",15,"ssfOUT_240_12_3_KINGCOBRA","KINGCOBRA",3,0.0833333333333333,240,"preference"
"ssfOUT_240_12_3_KINGCOBRA.28",0.593278846022832,-0.126201308394417,1.31275900044008,"ssf","mf.ss","gamma","unif",50,"ssfOUT_240_12_3_KINGCOBRA","KINGCOBRA",3,0.0833333333333333,240,"no effect"
"ssfOUT_240_12_3_KINGCOBRA.29",0.704283701730377,-0.0147982399502021,1.42336564341096,"ssf","mf.ss","gamma","unif",158,"ssfOUT_240_12_3_KINGCOBRA","KINGCOBRA",3,0.0833333333333333,240,"no effect"
"ssfOUT_240_12_3_KINGCOBRA.30",0.710635714538414,-0.0066647645871476,1.42793619366398,"ssf","mf.ss","gamma","unif",500,"ssfOUT_240_12_3_KINGCOBRA","KINGCOBRA",3,0.0833333333333333,240,"no effect"
"ssfOUT_240_12_3_KINGCOBRA.31",0.401716214099352,-0.363881590755866,1.16731401895457,"ssf","mf.ss","exp","vonmises",5,"ssfOUT_240_12_3_KINGCOBRA","KINGCOBRA",3,0.0833333333333333,240,"no effect"
"ssfOUT_240_12_3_KINGCOBRA.32",0.208908151813894,-0.525489493847193,0.943305797474982,"ssf","mf.ss","exp","vonmises",15,"ssfOUT_240_12_3_KINGCOBRA","KINGCOBRA",3,0.0833333333333333,240,"no effect"
"ssfOUT_240_12_3_KINGCOBRA.33",0.336173201001362,-0.387482685868411,1.05982908787113,"ssf","mf.ss","exp","vonmises",50,"ssfOUT_240_12_3_KINGCOBRA","KINGCOBRA",3,0.0833333333333333,240,"no effect"
"ssfOUT_240_12_3_KINGCOBRA.34",0.380110141163828,-0.336816946448729,1.09703722877638,"ssf","mf.ss","exp","vonmises",158,"ssfOUT_240_12_3_KINGCOBRA","KINGCOBRA",3,0.0833333333333333,240,"no effect"
"ssfOUT_240_12_3_KINGCOBRA.35",0.409721723672547,-0.305914421401003,1.1253578687461,"ssf","mf.ss","exp","vonmises",500,"ssfOUT_240_12_3_KINGCOBRA","KINGCOBRA",3,0.0833333333333333,240,"no effect"
"ssfOUT_240_12_3_KINGCOBRA.36",0.818524706000022,0.0542113391763163,1.58283807282373,"ssf","mf.ss","exp","unif",5,"ssfOUT_240_12_3_KINGCOBRA","KINGCOBRA",3,0.0833333333333333,240,"preference"
"ssfOUT_240_12_3_KINGCOBRA.37",0.792685802807484,0.0600679019761468,1.52530370363882,"ssf","mf.ss","exp","unif",15,"ssfOUT_240_12_3_KINGCOBRA","KINGCOBRA",3,0.0833333333333333,240,"preference"
"ssfOUT_240_12_3_KINGCOBRA.38",0.585745514448331,-0.136934684111683,1.30842571300834,"ssf","mf.ss","exp","unif",50,"ssfOUT_240_12_3_KINGCOBRA","KINGCOBRA",3,0.0833333333333333,240,"no effect"
"ssfOUT_240_12_3_KINGCOBRA.39",0.524374242128297,-0.192952028031802,1.2417005122884,"ssf","mf.ss","exp","unif",158,"ssfOUT_240_12_3_KINGCOBRA","KINGCOBRA",3,0.0833333333333333,240,"no effect"
"ssfOUT_240_12_3_KINGCOBRA.40",0.474024223895201,-0.242934546450608,1.19098299424101,"ssf","mf.ss","exp","unif",500,"ssfOUT_240_12_3_KINGCOBRA","KINGCOBRA",3,0.0833333333333333,240,"no effect"
"ssfOUT_240_12_4_BADGER.1",0.184030890475802,-0.163203633623646,0.531265414575251,"ssf","mf.is","gamma","vonmises",5,"ssfOUT_240_12_4_BADGER","BADGER",4,0.0833333333333333,240,"no effect"
"ssfOUT_240_12_4_BADGER.2",0.0807811327457625,-0.235050625956407,0.396612891447932,"ssf","mf.is","gamma","vonmises",15,"ssfOUT_240_12_4_BADGER","BADGER",4,0.0833333333333333,240,"no effect"
"ssfOUT_240_12_4_BADGER.3",0.266189259406716,-0.038379910301361,0.570758429114792,"ssf","mf.is","gamma","vonmises",50,"ssfOUT_240_12_4_BADGER","BADGER",4,0.0833333333333333,240,"no effect"
"ssfOUT_240_12_4_BADGER.4",0.214360188955932,-0.0858587460841417,0.514579123996006,"ssf","mf.is","gamma","vonmises",158,"ssfOUT_240_12_4_BADGER","BADGER",4,0.0833333333333333,240,"no effect"
"ssfOUT_240_12_4_BADGER.5",0.199125431467498,-0.0998921084553686,0.498142971390365,"ssf","mf.is","gamma","vonmises",500,"ssfOUT_240_12_4_BADGER","BADGER",4,0.0833333333333333,240,"no effect"
"ssfOUT_240_12_4_BADGER.6",0.102616618870024,-0.228535089602001,0.433768327342048,"ssf","mf.is","gamma","unif",5,"ssfOUT_240_12_4_BADGER","BADGER",4,0.0833333333333333,240,"no effect"
"ssfOUT_240_12_4_BADGER.7",0.213891726479921,-0.0956869424609401,0.523470395420781,"ssf","mf.is","gamma","unif",15,"ssfOUT_240_12_4_BADGER","BADGER",4,0.0833333333333333,240,"no effect"
"ssfOUT_240_12_4_BADGER.8",0.165376158604644,-0.135910223281635,0.466662540490924,"ssf","mf.is","gamma","unif",50,"ssfOUT_240_12_4_BADGER","BADGER",4,0.0833333333333333,240,"no effect"
"ssfOUT_240_12_4_BADGER.9",0.18135267965413,-0.117991656429488,0.480697015737748,"ssf","mf.is","gamma","unif",158,"ssfOUT_240_12_4_BADGER","BADGER",4,0.0833333333333333,240,"no effect"
"ssfOUT_240_12_4_BADGER.10",0.21328678614478,-0.0855688280298482,0.512142400319408,"ssf","mf.is","gamma","unif",500,"ssfOUT_240_12_4_BADGER","BADGER",4,0.0833333333333333,240,"no effect"
"ssfOUT_240_12_4_BADGER.11",-0.0951321924748243,-0.456643231087481,0.266378846137833,"ssf","mf.is","exp","vonmises",5,"ssfOUT_240_12_4_BADGER","BADGER",4,0.0833333333333333,240,"no effect"
"ssfOUT_240_12_4_BADGER.12",0.205382278749905,-0.111859667055941,0.52262422455575,"ssf","mf.is","exp","vonmises",15,"ssfOUT_240_12_4_BADGER","BADGER",4,0.0833333333333333,240,"no effect"
"ssfOUT_240_12_4_BADGER.13",0.186414915144878,-0.119497502734298,0.492327333024055,"ssf","mf.is","exp","vonmises",50,"ssfOUT_240_12_4_BADGER","BADGER",4,0.0833333333333333,240,"no effect"
"ssfOUT_240_12_4_BADGER.14",0.253112423350896,-0.0467224253604701,0.552947272062261,"ssf","mf.is","exp","vonmises",158,"ssfOUT_240_12_4_BADGER","BADGER",4,0.0833333333333333,240,"no effect"
"ssfOUT_240_12_4_BADGER.15",0.232210505453465,-0.0670156718022791,0.531436682709209,"ssf","mf.is","exp","vonmises",500,"ssfOUT_240_12_4_BADGER","BADGER",4,0.0833333333333333,240,"no effect"
"ssfOUT_240_12_4_BADGER.16",-0.0965432117754112,-0.433538323277496,0.240451899726674,"ssf","mf.is","exp","unif",5,"ssfOUT_240_12_4_BADGER","BADGER",4,0.0833333333333333,240,"no effect"
"ssfOUT_240_12_4_BADGER.17",0.137562499346927,-0.174785725942056,0.44991072463591,"ssf","mf.is","exp","unif",15,"ssfOUT_240_12_4_BADGER","BADGER",4,0.0833333333333333,240,"no effect"
"ssfOUT_240_12_4_BADGER.18",0.247948002561437,-0.0547905073166648,0.550686512439538,"ssf","mf.is","exp","unif",50,"ssfOUT_240_12_4_BADGER","BADGER",4,0.0833333333333333,240,"no effect"
"ssfOUT_240_12_4_BADGER.19",0.231119731951905,-0.0683279200404242,0.530567383944233,"ssf","mf.is","exp","unif",158,"ssfOUT_240_12_4_BADGER","BADGER",4,0.0833333333333333,240,"no effect"
"ssfOUT_240_12_4_BADGER.20",0.235692440997276,-0.0631828914175818,0.534567773412135,"ssf","mf.is","exp","unif",500,"ssfOUT_240_12_4_BADGER","BADGER",4,0.0833333333333333,240,"no effect"
"ssfOUT_240_12_4_BADGER.21",0.125655153086554,-0.199861095827007,0.451171402000115,"ssf","mf.ss","gamma","vonmises",5,"ssfOUT_240_12_4_BADGER","BADGER",4,0.0833333333333333,240,"no effect"
"ssfOUT_240_12_4_BADGER.22",0.169062774147758,-0.138464959104772,0.476590507400289,"ssf","mf.ss","gamma","vonmises",15,"ssfOUT_240_12_4_BADGER","BADGER",4,0.0833333333333333,240,"no effect"
"ssfOUT_240_12_4_BADGER.23",0.188755265014254,-0.111917511075328,0.489428041103836,"ssf","mf.ss","gamma","vonmises",50,"ssfOUT_240_12_4_BADGER","BADGER",4,0.0833333333333333,240,"no effect"
"ssfOUT_240_12_4_BADGER.24",0.147301235438465,-0.151714359244283,0.446316830121214,"ssf","mf.ss","gamma","vonmises",158,"ssfOUT_240_12_4_BADGER","BADGER",4,0.0833333333333333,240,"no effect"
"ssfOUT_240_12_4_BADGER.25",0.14874420927188,-0.149368454535796,0.446856873079556,"ssf","mf.ss","gamma","vonmises",500,"ssfOUT_240_12_4_BADGER","BADGER",4,0.0833333333333333,240,"no effect"
"ssfOUT_240_12_4_BADGER.26",0.138747995933047,-0.185748991179965,0.46324498304606,"ssf","mf.ss","gamma","unif",5,"ssfOUT_240_12_4_BADGER","BADGER",4,0.0833333333333333,240,"no effect"
"ssfOUT_240_12_4_BADGER.27",0.20582904881,-0.101864162645451,0.513522260265451,"ssf","mf.ss","gamma","unif",15,"ssfOUT_240_12_4_BADGER","BADGER",4,0.0833333333333333,240,"no effect"
"ssfOUT_240_12_4_BADGER.28",0.141034443747135,-0.159165736105112,0.441234623599381,"ssf","mf.ss","gamma","unif",50,"ssfOUT_240_12_4_BADGER","BADGER",4,0.0833333333333333,240,"no effect"
"ssfOUT_240_12_4_BADGER.29",0.156621899359275,-0.141892412232137,0.455136210950688,"ssf","mf.ss","gamma","unif",158,"ssfOUT_240_12_4_BADGER","BADGER",4,0.0833333333333333,240,"no effect"
"ssfOUT_240_12_4_BADGER.30",0.183532504051877,-0.114477356234331,0.481542364338085,"ssf","mf.ss","gamma","unif",500,"ssfOUT_240_12_4_BADGER","BADGER",4,0.0833333333333333,240,"no effect"
"ssfOUT_240_12_4_BADGER.31",0.0857969888517253,-0.24686965335715,0.4184636310606,"ssf","mf.ss","exp","vonmises",5,"ssfOUT_240_12_4_BADGER","BADGER",4,0.0833333333333333,240,"no effect"
"ssfOUT_240_12_4_BADGER.32",0.134116392773506,-0.174773888395746,0.443006673942759,"ssf","mf.ss","exp","vonmises",15,"ssfOUT_240_12_4_BADGER","BADGER",4,0.0833333333333333,240,"no effect"
"ssfOUT_240_12_4_BADGER.33",0.0479925405477773,-0.254952210050555,0.350937291146109,"ssf","mf.ss","exp","vonmises",50,"ssfOUT_240_12_4_BADGER","BADGER",4,0.0833333333333333,240,"no effect"
"ssfOUT_240_12_4_BADGER.34",0.137080734171943,-0.163849714777985,0.438011183121872,"ssf","mf.ss","exp","vonmises",158,"ssfOUT_240_12_4_BADGER","BADGER",4,0.0833333333333333,240,"no effect"
"ssfOUT_240_12_4_BADGER.35",0.109477734611815,-0.190844617198609,0.409800086422239,"ssf","mf.ss","exp","vonmises",500,"ssfOUT_240_12_4_BADGER","BADGER",4,0.0833333333333333,240,"no effect"
"ssfOUT_240_12_4_BADGER.36",-0.0226196163585243,-0.351197634231699,0.30595840151465,"ssf","mf.ss","exp","unif",5,"ssfOUT_240_12_4_BADGER","BADGER",4,0.0833333333333333,240,"no effect"
"ssfOUT_240_12_4_BADGER.37",0.0497771968602818,-0.258988876431477,0.35854327015204,"ssf","mf.ss","exp","unif",15,"ssfOUT_240_12_4_BADGER","BADGER",4,0.0833333333333333,240,"no effect"
"ssfOUT_240_12_4_BADGER.38",0.187425133042261,-0.116114651713942,0.490964917798464,"ssf","mf.ss","exp","unif",50,"ssfOUT_240_12_4_BADGER","BADGER",4,0.0833333333333333,240,"no effect"
"ssfOUT_240_12_4_BADGER.39",0.169308376699268,-0.131506251957025,0.47012300535556,"ssf","mf.ss","exp","unif",158,"ssfOUT_240_12_4_BADGER","BADGER",4,0.0833333333333333,240,"no effect"
"ssfOUT_240_12_4_BADGER.40",0.15334200402569,-0.14685821635596,0.453542224407339,"ssf","mf.ss","exp","unif",500,"ssfOUT_240_12_4_BADGER","BADGER",4,0.0833333333333333,240,"no effect"
"ssfOUT_240_12_4_VULTURE.1",1.01294611252162,0.524898945484275,1.50099327955896,"ssf","mf.is","gamma","vonmises",5,"ssfOUT_240_12_4_VULTURE","VULTURE",4,0.0833333333333333,240,"preference"
"ssfOUT_240_12_4_VULTURE.2",1.42948551080686,0.968355866722467,1.89061515489126,"ssf","mf.is","gamma","vonmises",15,"ssfOUT_240_12_4_VULTURE","VULTURE",4,0.0833333333333333,240,"preference"
"ssfOUT_240_12_4_VULTURE.3",1.31981447029613,0.864026871494371,1.77560206909789,"ssf","mf.is","gamma","vonmises",50,"ssfOUT_240_12_4_VULTURE","VULTURE",4,0.0833333333333333,240,"preference"
"ssfOUT_240_12_4_VULTURE.4",1.29924950187309,0.846129533960388,1.75236946978579,"ssf","mf.is","gamma","vonmises",158,"ssfOUT_240_12_4_VULTURE","VULTURE",4,0.0833333333333333,240,"preference"
"ssfOUT_240_12_4_VULTURE.5",1.28958458101875,0.836825198068703,1.74234396396879,"ssf","mf.is","gamma","vonmises",500,"ssfOUT_240_12_4_VULTURE","VULTURE",4,0.0833333333333333,240,"preference"
"ssfOUT_240_12_4_VULTURE.6",0.958353169408684,0.486738314058609,1.42996802475876,"ssf","mf.is","gamma","unif",5,"ssfOUT_240_12_4_VULTURE","VULTURE",4,0.0833333333333333,240,"preference"
"ssfOUT_240_12_4_VULTURE.7",1.26223884378585,0.803323613584154,1.72115407398754,"ssf","mf.is","gamma","unif",15,"ssfOUT_240_12_4_VULTURE","VULTURE",4,0.0833333333333333,240,"preference"
"ssfOUT_240_12_4_VULTURE.8",1.2366176417689,0.782320284687027,1.69091499885076,"ssf","mf.is","gamma","unif",50,"ssfOUT_240_12_4_VULTURE","VULTURE",4,0.0833333333333333,240,"preference"
"ssfOUT_240_12_4_VULTURE.9",1.25361582659834,0.800543779575375,1.70668787362131,"ssf","mf.is","gamma","unif",158,"ssfOUT_240_12_4_VULTURE","VULTURE",4,0.0833333333333333,240,"preference"
"ssfOUT_240_12_4_VULTURE.10",1.29554661048195,0.843006087608752,1.74808713335514,"ssf","mf.is","gamma","unif",500,"ssfOUT_240_12_4_VULTURE","VULTURE",4,0.0833333333333333,240,"preference"
"ssfOUT_240_12_4_VULTURE.11",0.945166931743996,0.435195866154695,1.4551379973333,"ssf","mf.is","exp","vonmises",5,"ssfOUT_240_12_4_VULTURE","VULTURE",4,0.0833333333333333,240,"preference"
"ssfOUT_240_12_4_VULTURE.12",1.08507117192939,0.61266431693959,1.55747802691918,"ssf","mf.is","exp","vonmises",15,"ssfOUT_240_12_4_VULTURE","VULTURE",4,0.0833333333333333,240,"preference"
"ssfOUT_240_12_4_VULTURE.13",1.28898971667298,0.832707339762253,1.7452720935837,"ssf","mf.is","exp","vonmises",50,"ssfOUT_240_12_4_VULTURE","VULTURE",4,0.0833333333333333,240,"preference"
"ssfOUT_240_12_4_VULTURE.14",1.31191011303201,0.858049367845713,1.7657708582183,"ssf","mf.is","exp","vonmises",158,"ssfOUT_240_12_4_VULTURE","VULTURE",4,0.0833333333333333,240,"preference"
"ssfOUT_240_12_4_VULTURE.15",1.27545551840297,0.822677663316392,1.72823337348956,"ssf","mf.is","exp","vonmises",500,"ssfOUT_240_12_4_VULTURE","VULTURE",4,0.0833333333333333,240,"preference"
"ssfOUT_240_12_4_VULTURE.16",1.36708185637196,0.891979059960611,1.84218465278331,"ssf","mf.is","exp","unif",5,"ssfOUT_240_12_4_VULTURE","VULTURE",4,0.0833333333333333,240,"preference"
"ssfOUT_240_12_4_VULTURE.17",1.08882789137738,0.627700312052585,1.54995547070218,"ssf","mf.is","exp","unif",15,"ssfOUT_240_12_4_VULTURE","VULTURE",4,0.0833333333333333,240,"preference"
"ssfOUT_240_12_4_VULTURE.18",1.29875531423546,0.843939734052845,1.75357089441808,"ssf","mf.is","exp","unif",50,"ssfOUT_240_12_4_VULTURE","VULTURE",4,0.0833333333333333,240,"preference"
"ssfOUT_240_12_4_VULTURE.19",1.27733482579206,0.824182183101284,1.73048746848284,"ssf","mf.is","exp","unif",158,"ssfOUT_240_12_4_VULTURE","VULTURE",4,0.0833333333333333,240,"preference"
"ssfOUT_240_12_4_VULTURE.20",1.29440506794068,0.841789852137846,1.74702028374351,"ssf","mf.is","exp","unif",500,"ssfOUT_240_12_4_VULTURE","VULTURE",4,0.0833333333333333,240,"preference"
"ssfOUT_240_12_4_VULTURE.21",1.17890068264327,0.708194697866126,1.64960666742041,"ssf","mf.ss","gamma","vonmises",5,"ssfOUT_240_12_4_VULTURE","VULTURE",4,0.0833333333333333,240,"preference"
"ssfOUT_240_12_4_VULTURE.22",1.36038238312215,0.903777830498701,1.81698693574559,"ssf","mf.ss","gamma","vonmises",15,"ssfOUT_240_12_4_VULTURE","VULTURE",4,0.0833333333333333,240,"preference"
"ssfOUT_240_12_4_VULTURE.23",1.25350628162283,0.799566355347646,1.70744620789801,"ssf","mf.ss","gamma","vonmises",50,"ssfOUT_240_12_4_VULTURE","VULTURE",4,0.0833333333333333,240,"preference"
"ssfOUT_240_12_4_VULTURE.24",1.24400668225641,0.791492267133415,1.69652109737941,"ssf","mf.ss","gamma","vonmises",158,"ssfOUT_240_12_4_VULTURE","VULTURE",4,0.0833333333333333,240,"preference"
"ssfOUT_240_12_4_VULTURE.25",1.23768873672964,0.785450205245227,1.68992726821405,"ssf","mf.ss","gamma","vonmises",500,"ssfOUT_240_12_4_VULTURE","VULTURE",4,0.0833333333333333,240,"preference"
"ssfOUT_240_12_4_VULTURE.26",1.12067559310201,0.653414364764082,1.58793682143994,"ssf","mf.ss","gamma","unif",5,"ssfOUT_240_12_4_VULTURE","VULTURE",4,0.0833333333333333,240,"preference"
"ssfOUT_240_12_4_VULTURE.27",1.24089518415494,0.783911491290885,1.697878877019,"ssf","mf.ss","gamma","unif",15,"ssfOUT_240_12_4_VULTURE","VULTURE",4,0.0833333333333333,240,"preference"
"ssfOUT_240_12_4_VULTURE.28",1.20685232736472,0.753203806169421,1.66050084856001,"ssf","mf.ss","gamma","unif",50,"ssfOUT_240_12_4_VULTURE","VULTURE",4,0.0833333333333333,240,"preference"
"ssfOUT_240_12_4_VULTURE.29",1.21450726181455,0.761924316962988,1.66709020666611,"ssf","mf.ss","gamma","unif",158,"ssfOUT_240_12_4_VULTURE","VULTURE",4,0.0833333333333333,240,"preference"
"ssfOUT_240_12_4_VULTURE.30",1.26638353842191,0.814239473571814,1.71852760327201,"ssf","mf.ss","gamma","unif",500,"ssfOUT_240_12_4_VULTURE","VULTURE",4,0.0833333333333333,240,"preference"
"ssfOUT_240_12_4_VULTURE.31",0.784834851201196,0.307849856369787,1.26181984603261,"ssf","mf.ss","exp","vonmises",5,"ssfOUT_240_12_4_VULTURE","VULTURE",4,0.0833333333333333,240,"preference"
"ssfOUT_240_12_4_VULTURE.32",1.07374560832951,0.614989251159694,1.53250196549933,"ssf","mf.ss","exp","vonmises",15,"ssfOUT_240_12_4_VULTURE","VULTURE",4,0.0833333333333333,240,"preference"
"ssfOUT_240_12_4_VULTURE.33",1.12257005275441,0.668445115831003,1.57669498967781,"ssf","mf.ss","exp","vonmises",50,"ssfOUT_240_12_4_VULTURE","VULTURE",4,0.0833333333333333,240,"preference"
"ssfOUT_240_12_4_VULTURE.34",1.13250415396115,0.679474168918763,1.58553413900353,"ssf","mf.ss","exp","vonmises",158,"ssfOUT_240_12_4_VULTURE","VULTURE",4,0.0833333333333333,240,"preference"
"ssfOUT_240_12_4_VULTURE.35",1.11420111307593,0.661546297083546,1.56685592906832,"ssf","mf.ss","exp","vonmises",500,"ssfOUT_240_12_4_VULTURE","VULTURE",4,0.0833333333333333,240,"preference"
"ssfOUT_240_12_4_VULTURE.36",1.21118264587559,0.745229646941443,1.67713564480975,"ssf","mf.ss","exp","unif",5,"ssfOUT_240_12_4_VULTURE","VULTURE",4,0.0833333333333333,240,"preference"
"ssfOUT_240_12_4_VULTURE.37",1.04197755911685,0.584014105001413,1.49994101323228,"ssf","mf.ss","exp","unif",15,"ssfOUT_240_12_4_VULTURE","VULTURE",4,0.0833333333333333,240,"preference"
"ssfOUT_240_12_4_VULTURE.38",1.18218168092207,0.727868251796488,1.63649511004766,"ssf","mf.ss","exp","unif",50,"ssfOUT_240_12_4_VULTURE","VULTURE",4,0.0833333333333333,240,"preference"
"ssfOUT_240_12_4_VULTURE.39",1.14265525463724,0.689599511614032,1.59571099766044,"ssf","mf.ss","exp","unif",158,"ssfOUT_240_12_4_VULTURE","VULTURE",4,0.0833333333333333,240,"preference"
"ssfOUT_240_12_4_VULTURE.40",1.16519957551548,0.712484767735345,1.61791438329562,"ssf","mf.ss","exp","unif",500,"ssfOUT_240_12_4_VULTURE","VULTURE",4,0.0833333333333333,240,"preference"
"ssfOUT_240_12_4_KINGCOBRA.1",0.727414630120137,0.11191357503112,1.34291568520915,"ssf","mf.is","gamma","vonmises",5,"ssfOUT_240_12_4_KINGCOBRA","KINGCOBRA",4,0.0833333333333333,240,"preference"
"ssfOUT_240_12_4_KINGCOBRA.2",0.917655012099524,0.321949613991549,1.5133604102075,"ssf","mf.is","gamma","vonmises",15,"ssfOUT_240_12_4_KINGCOBRA","KINGCOBRA",4,0.0833333333333333,240,"preference"
"ssfOUT_240_12_4_KINGCOBRA.3",0.943838553520157,0.355645953920679,1.53203115311963,"ssf","mf.is","gamma","vonmises",50,"ssfOUT_240_12_4_KINGCOBRA","KINGCOBRA",4,0.0833333333333333,240,"preference"
"ssfOUT_240_12_4_KINGCOBRA.4",0.922143124771921,0.335805969280942,1.5084802802629,"ssf","mf.is","gamma","vonmises",158,"ssfOUT_240_12_4_KINGCOBRA","KINGCOBRA",4,0.0833333333333333,240,"preference"
"ssfOUT_240_12_4_KINGCOBRA.5",0.931459291403105,0.346381762318397,1.51653682048781,"ssf","mf.is","gamma","vonmises",500,"ssfOUT_240_12_4_KINGCOBRA","KINGCOBRA",4,0.0833333333333333,240,"preference"
"ssfOUT_240_12_4_KINGCOBRA.6",1.06577337248513,0.456691683936417,1.67485506103384,"ssf","mf.is","gamma","unif",5,"ssfOUT_240_12_4_KINGCOBRA","KINGCOBRA",4,0.0833333333333333,240,"preference"
"ssfOUT_240_12_4_KINGCOBRA.7",1.07682358752574,0.484796198220033,1.66885097683145,"ssf","mf.is","gamma","unif",15,"ssfOUT_240_12_4_KINGCOBRA","KINGCOBRA",4,0.0833333333333333,240,"preference"
"ssfOUT_240_12_4_KINGCOBRA.8",0.923187800762886,0.335701142336369,1.5106744591894,"ssf","mf.is","gamma","unif",50,"ssfOUT_240_12_4_KINGCOBRA","KINGCOBRA",4,0.0833333333333333,240,"preference"
"ssfOUT_240_12_4_KINGCOBRA.9",0.899816483844798,0.314149722376777,1.48548324531282,"ssf","mf.is","gamma","unif",158,"ssfOUT_240_12_4_KINGCOBRA","KINGCOBRA",4,0.0833333333333333,240,"preference"
"ssfOUT_240_12_4_KINGCOBRA.10",0.902181615921094,0.317163725014493,1.4871995068277,"ssf","mf.is","gamma","unif",500,"ssfOUT_240_12_4_KINGCOBRA","KINGCOBRA",4,0.0833333333333333,240,"preference"
"ssfOUT_240_12_4_KINGCOBRA.11",1.18346953952709,0.57517092022369,1.79176815883049,"ssf","mf.is","exp","vonmises",5,"ssfOUT_240_12_4_KINGCOBRA","KINGCOBRA",4,0.0833333333333333,240,"preference"
"ssfOUT_240_12_4_KINGCOBRA.12",0.990812108995525,0.395215247431724,1.58640897055933,"ssf","mf.is","exp","vonmises",15,"ssfOUT_240_12_4_KINGCOBRA","KINGCOBRA",4,0.0833333333333333,240,"preference"
"ssfOUT_240_12_4_KINGCOBRA.13",0.986645749516687,0.397666818993846,1.57562468003953,"ssf","mf.is","exp","vonmises",50,"ssfOUT_240_12_4_KINGCOBRA","KINGCOBRA",4,0.0833333333333333,240,"preference"
"ssfOUT_240_12_4_KINGCOBRA.14",0.920781401792901,0.335755077750394,1.50580772583541,"ssf","mf.is","exp","vonmises",158,"ssfOUT_240_12_4_KINGCOBRA","KINGCOBRA",4,0.0833333333333333,240,"preference"
"ssfOUT_240_12_4_KINGCOBRA.15",0.901322495278015,0.315018398208354,1.48762659234768,"ssf","mf.is","exp","vonmises",500,"ssfOUT_240_12_4_KINGCOBRA","KINGCOBRA",4,0.0833333333333333,240,"preference"
"ssfOUT_240_12_4_KINGCOBRA.16",0.517385450491651,-0.105438512371221,1.14020941335452,"ssf","mf.is","exp","unif",5,"ssfOUT_240_12_4_KINGCOBRA","KINGCOBRA",4,0.0833333333333333,240,"no effect"
"ssfOUT_240_12_4_KINGCOBRA.17",0.956111967722727,0.363081061670442,1.54914287377501,"ssf","mf.is","exp","unif",15,"ssfOUT_240_12_4_KINGCOBRA","KINGCOBRA",4,0.0833333333333333,240,"preference"
"ssfOUT_240_12_4_KINGCOBRA.18",1.027582927479,0.440277901161351,1.61488795379665,"ssf","mf.is","exp","unif",50,"ssfOUT_240_12_4_KINGCOBRA","KINGCOBRA",4,0.0833333333333333,240,"preference"
"ssfOUT_240_12_4_KINGCOBRA.19",0.89609977595996,0.310405523955681,1.48179402796424,"ssf","mf.is","exp","unif",158,"ssfOUT_240_12_4_KINGCOBRA","KINGCOBRA",4,0.0833333333333333,240,"preference"
"ssfOUT_240_12_4_KINGCOBRA.20",0.92277301006985,0.336629009091596,1.5089170110481,"ssf","mf.is","exp","unif",500,"ssfOUT_240_12_4_KINGCOBRA","KINGCOBRA",4,0.0833333333333333,240,"preference"
"ssfOUT_240_12_4_KINGCOBRA.21",0.772915263959296,0.165418015428422,1.38041251249017,"ssf","mf.ss","gamma","vonmises",5,"ssfOUT_240_12_4_KINGCOBRA","KINGCOBRA",4,0.0833333333333333,240,"preference"
"ssfOUT_240_12_4_KINGCOBRA.22",0.877433530526574,0.286052845853718,1.46881421519943,"ssf","mf.ss","gamma","vonmises",15,"ssfOUT_240_12_4_KINGCOBRA","KINGCOBRA",4,0.0833333333333333,240,"preference"
"ssfOUT_240_12_4_KINGCOBRA.23",0.899803377348855,0.313322765066457,1.48628398963125,"ssf","mf.ss","gamma","vonmises",50,"ssfOUT_240_12_4_KINGCOBRA","KINGCOBRA",4,0.0833333333333333,240,"preference"
"ssfOUT_240_12_4_KINGCOBRA.24",0.890411450699898,0.304211129406677,1.47661177199312,"ssf","mf.ss","gamma","vonmises",158,"ssfOUT_240_12_4_KINGCOBRA","KINGCOBRA",4,0.0833333333333333,240,"preference"
"ssfOUT_240_12_4_KINGCOBRA.25",0.878016668164576,0.293503467636808,1.46252986869234,"ssf","mf.ss","gamma","vonmises",500,"ssfOUT_240_12_4_KINGCOBRA","KINGCOBRA",4,0.0833333333333333,240,"preference"
"ssfOUT_240_12_4_KINGCOBRA.26",1.02952983152501,0.423858724492533,1.63520093855748,"ssf","mf.ss","gamma","unif",5,"ssfOUT_240_12_4_KINGCOBRA","KINGCOBRA",4,0.0833333333333333,240,"preference"
"ssfOUT_240_12_4_KINGCOBRA.27",1.03838725713592,0.447240993118727,1.62953352115311,"ssf","mf.ss","gamma","unif",15,"ssfOUT_240_12_4_KINGCOBRA","KINGCOBRA",4,0.0833333333333333,240,"preference"
"ssfOUT_240_12_4_KINGCOBRA.28",0.898908597084428,0.31225075530494,1.48556643886392,"ssf","mf.ss","gamma","unif",50,"ssfOUT_240_12_4_KINGCOBRA","KINGCOBRA",4,0.0833333333333333,240,"preference"
"ssfOUT_240_12_4_KINGCOBRA.29",0.872895226854296,0.287934079929022,1.45785637377957,"ssf","mf.ss","gamma","unif",158,"ssfOUT_240_12_4_KINGCOBRA","KINGCOBRA",4,0.0833333333333333,240,"preference"
"ssfOUT_240_12_4_KINGCOBRA.30",0.873362378029564,0.289099447460158,1.45762530859897,"ssf","mf.ss","gamma","unif",500,"ssfOUT_240_12_4_KINGCOBRA","KINGCOBRA",4,0.0833333333333333,240,"preference"
"ssfOUT_240_12_4_KINGCOBRA.31",1.35048525161117,0.753085258143188,1.94788524507915,"ssf","mf.ss","exp","vonmises",5,"ssfOUT_240_12_4_KINGCOBRA","KINGCOBRA",4,0.0833333333333333,240,"preference"
"ssfOUT_240_12_4_KINGCOBRA.32",1.08158806549712,0.493719035876616,1.66945709511762,"ssf","mf.ss","exp","vonmises",15,"ssfOUT_240_12_4_KINGCOBRA","KINGCOBRA",4,0.0833333333333333,240,"preference"
"ssfOUT_240_12_4_KINGCOBRA.33",1.06298123775844,0.478865928695245,1.64709654682164,"ssf","mf.ss","exp","vonmises",50,"ssfOUT_240_12_4_KINGCOBRA","KINGCOBRA",4,0.0833333333333333,240,"preference"
"ssfOUT_240_12_4_KINGCOBRA.34",1.06153482523886,0.479289876627443,1.64377977385028,"ssf","mf.ss","exp","vonmises",158,"ssfOUT_240_12_4_KINGCOBRA","KINGCOBRA",4,0.0833333333333333,240,"preference"
"ssfOUT_240_12_4_KINGCOBRA.35",1.00905084104851,0.427013343992148,1.59108833810488,"ssf","mf.ss","exp","vonmises",500,"ssfOUT_240_12_4_KINGCOBRA","KINGCOBRA",4,0.0833333333333333,240,"preference"
"ssfOUT_240_12_4_KINGCOBRA.36",0.828606018590672,0.220161910658145,1.4370501265232,"ssf","mf.ss","exp","unif",5,"ssfOUT_240_12_4_KINGCOBRA","KINGCOBRA",4,0.0833333333333333,240,"preference"
"ssfOUT_240_12_4_KINGCOBRA.37",1.10482426493672,0.516569326476492,1.69307920339696,"ssf","mf.ss","exp","unif",15,"ssfOUT_240_12_4_KINGCOBRA","KINGCOBRA",4,0.0833333333333333,240,"preference"
"ssfOUT_240_12_4_KINGCOBRA.38",1.09137822713105,0.507722532876658,1.67503392138545,"ssf","mf.ss","exp","unif",50,"ssfOUT_240_12_4_KINGCOBRA","KINGCOBRA",4,0.0833333333333333,240,"preference"
"ssfOUT_240_12_4_KINGCOBRA.39",1.03606672659707,0.453809167579579,1.61832428561456,"ssf","mf.ss","exp","unif",158,"ssfOUT_240_12_4_KINGCOBRA","KINGCOBRA",4,0.0833333333333333,240,"preference"
"ssfOUT_240_12_4_KINGCOBRA.40",1.04486485905667,0.462926776702121,1.62680294141121,"ssf","mf.ss","exp","unif",500,"ssfOUT_240_12_4_KINGCOBRA","KINGCOBRA",4,0.0833333333333333,240,"preference"
"ssfOUT_240_24_1_BADGER.1",1.46515096114196,0.679867083640084,2.25043483864385,"ssf","mf.is","gamma","vonmises",5,"ssfOUT_240_24_1_BADGER","BADGER",1,0.0416666666666667,240,"preference"
"ssfOUT_240_24_1_BADGER.2",0.99731568924905,0.257394574070231,1.73723680442787,"ssf","mf.is","gamma","vonmises",15,"ssfOUT_240_24_1_BADGER","BADGER",1,0.0416666666666667,240,"preference"
"ssfOUT_240_24_1_BADGER.3",0.910158609502386,0.185251539166869,1.6350656798379,"ssf","mf.is","gamma","vonmises",50,"ssfOUT_240_24_1_BADGER","BADGER",1,0.0416666666666667,240,"preference"
"ssfOUT_240_24_1_BADGER.4",1.10492683818395,0.385888866009644,1.82396481035826,"ssf","mf.is","gamma","vonmises",158,"ssfOUT_240_24_1_BADGER","BADGER",1,0.0416666666666667,240,"preference"
"ssfOUT_240_24_1_BADGER.5",1.08739700130043,0.370216923187046,1.80457707941381,"ssf","mf.is","gamma","vonmises",500,"ssfOUT_240_24_1_BADGER","BADGER",1,0.0416666666666667,240,"preference"
"ssfOUT_240_24_1_BADGER.6",1.19066075195831,0.448097860614179,1.93322364330244,"ssf","mf.is","gamma","unif",5,"ssfOUT_240_24_1_BADGER","BADGER",1,0.0416666666666667,240,"preference"
"ssfOUT_240_24_1_BADGER.7",1.21955798464062,0.491255748650096,1.94786022063114,"ssf","mf.is","gamma","unif",15,"ssfOUT_240_24_1_BADGER","BADGER",1,0.0416666666666667,240,"preference"
"ssfOUT_240_24_1_BADGER.8",1.05982421071401,0.339305650541802,1.78034277088622,"ssf","mf.is","gamma","unif",50,"ssfOUT_240_24_1_BADGER","BADGER",1,0.0416666666666667,240,"preference"
"ssfOUT_240_24_1_BADGER.9",1.07340457764883,0.356164936247162,1.79064421905049,"ssf","mf.is","gamma","unif",158,"ssfOUT_240_24_1_BADGER","BADGER",1,0.0416666666666667,240,"preference"
"ssfOUT_240_24_1_BADGER.10",1.1268581110629,0.410511051604345,1.84320517052146,"ssf","mf.is","gamma","unif",500,"ssfOUT_240_24_1_BADGER","BADGER",1,0.0416666666666667,240,"preference"
"ssfOUT_240_24_1_BADGER.11",1.07311266043357,0.277752454192364,1.86847286667478,"ssf","mf.is","exp","vonmises",5,"ssfOUT_240_24_1_BADGER","BADGER",1,0.0416666666666667,240,"preference"
"ssfOUT_240_24_1_BADGER.12",1.09037680667716,0.346582960475341,1.83417065287897,"ssf","mf.is","exp","vonmises",15,"ssfOUT_240_24_1_BADGER","BADGER",1,0.0416666666666667,240,"preference"
"ssfOUT_240_24_1_BADGER.13",1.00734282694682,0.283256276056095,1.73142937783754,"ssf","mf.is","exp","vonmises",50,"ssfOUT_240_24_1_BADGER","BADGER",1,0.0416666666666667,240,"preference"
"ssfOUT_240_24_1_BADGER.14",1.09228914167086,0.372453103325614,1.8121251800161,"ssf","mf.is","exp","vonmises",158,"ssfOUT_240_24_1_BADGER","BADGER",1,0.0416666666666667,240,"preference"
"ssfOUT_240_24_1_BADGER.15",1.08229862221368,0.365032620873393,1.79956462355396,"ssf","mf.is","exp","vonmises",500,"ssfOUT_240_24_1_BADGER","BADGER",1,0.0416666666666667,240,"preference"
"ssfOUT_240_24_1_BADGER.16",1.076795842282,0.317074083618331,1.83651760094567,"ssf","mf.is","exp","unif",5,"ssfOUT_240_24_1_BADGER","BADGER",1,0.0416666666666667,240,"preference"
"ssfOUT_240_24_1_BADGER.17",1.13810233989556,0.4091827961673,1.86702188362383,"ssf","mf.is","exp","unif",15,"ssfOUT_240_24_1_BADGER","BADGER",1,0.0416666666666667,240,"preference"
"ssfOUT_240_24_1_BADGER.18",1.15686172918239,0.434634768071615,1.87908869029317,"ssf","mf.is","exp","unif",50,"ssfOUT_240_24_1_BADGER","BADGER",1,0.0416666666666667,240,"preference"
"ssfOUT_240_24_1_BADGER.19",1.05366781520141,0.335404712108487,1.77193091829433,"ssf","mf.is","exp","unif",158,"ssfOUT_240_24_1_BADGER","BADGER",1,0.0416666666666667,240,"preference"
"ssfOUT_240_24_1_BADGER.20",1.11425087546552,0.397746676442864,1.83075507448818,"ssf","mf.is","exp","unif",500,"ssfOUT_240_24_1_BADGER","BADGER",1,0.0416666666666667,240,"preference"
"ssfOUT_240_24_1_BADGER.21",0.824962026754815,0.0837028094072606,1.56622124410237,"ssf","mf.ss","gamma","vonmises",5,"ssfOUT_240_24_1_BADGER","BADGER",1,0.0416666666666667,240,"preference"
"ssfOUT_240_24_1_BADGER.22",0.83348274212046,0.108923807026363,1.55804167721456,"ssf","mf.ss","gamma","vonmises",15,"ssfOUT_240_24_1_BADGER","BADGER",1,0.0416666666666667,240,"preference"
"ssfOUT_240_24_1_BADGER.23",0.913641129865902,0.194273231873755,1.63300902785805,"ssf","mf.ss","gamma","vonmises",50,"ssfOUT_240_24_1_BADGER","BADGER",1,0.0416666666666667,240,"preference"
"ssfOUT_240_24_1_BADGER.24",1.02040192693816,0.304186988282588,1.73661686559372,"ssf","mf.ss","gamma","vonmises",158,"ssfOUT_240_24_1_BADGER","BADGER",1,0.0416666666666667,240,"preference"
"ssfOUT_240_24_1_BADGER.25",0.984811522248552,0.269390176213379,1.70023286828373,"ssf","mf.ss","gamma","vonmises",500,"ssfOUT_240_24_1_BADGER","BADGER",1,0.0416666666666667,240,"preference"
"ssfOUT_240_24_1_BADGER.26",1.12190062147166,0.383217216330741,1.86058402661258,"ssf","mf.ss","gamma","unif",5,"ssfOUT_240_24_1_BADGER","BADGER",1,0.0416666666666667,240,"preference"
"ssfOUT_240_24_1_BADGER.27",1.16498596368405,0.441742857947821,1.88822906942028,"ssf","mf.ss","gamma","unif",15,"ssfOUT_240_24_1_BADGER","BADGER",1,0.0416666666666667,240,"preference"
"ssfOUT_240_24_1_BADGER.28",1.04023799553246,0.322657200882543,1.75781879018237,"ssf","mf.ss","gamma","unif",50,"ssfOUT_240_24_1_BADGER","BADGER",1,0.0416666666666667,240,"preference"
"ssfOUT_240_24_1_BADGER.29",1.03281341921706,0.317102478043456,1.74852436039066,"ssf","mf.ss","gamma","unif",158,"ssfOUT_240_24_1_BADGER","BADGER",1,0.0416666666666667,240,"preference"
"ssfOUT_240_24_1_BADGER.30",1.07610174004315,0.361049707308181,1.79115377277811,"ssf","mf.ss","gamma","unif",500,"ssfOUT_240_24_1_BADGER","BADGER",1,0.0416666666666667,240,"preference"
"ssfOUT_240_24_1_BADGER.31",1.07381412526816,0.330960704799711,1.81666754573661,"ssf","mf.ss","exp","vonmises",5,"ssfOUT_240_24_1_BADGER","BADGER",1,0.0416666666666667,240,"preference"
"ssfOUT_240_24_1_BADGER.32",1.08315667344193,0.359056207959733,1.80725713892412,"ssf","mf.ss","exp","vonmises",15,"ssfOUT_240_24_1_BADGER","BADGER",1,0.0416666666666667,240,"preference"
"ssfOUT_240_24_1_BADGER.33",1.00091754156136,0.2806906134972,1.72114446962551,"ssf","mf.ss","exp","vonmises",50,"ssfOUT_240_24_1_BADGER","BADGER",1,0.0416666666666667,240,"preference"
"ssfOUT_240_24_1_BADGER.34",1.00485821284617,0.287700412208931,1.72201601348341,"ssf","mf.ss","exp","vonmises",158,"ssfOUT_240_24_1_BADGER","BADGER",1,0.0416666666666667,240,"preference"
"ssfOUT_240_24_1_BADGER.35",0.98138839437389,0.26515338444377,1.69762340430401,"ssf","mf.ss","exp","vonmises",500,"ssfOUT_240_24_1_BADGER","BADGER",1,0.0416666666666667,240,"preference"
"ssfOUT_240_24_1_BADGER.36",1.02802956179927,0.286916023092235,1.7691431005063,"ssf","mf.ss","exp","unif",5,"ssfOUT_240_24_1_BADGER","BADGER",1,0.0416666666666667,240,"preference"
"ssfOUT_240_24_1_BADGER.37",1.01328618002473,0.289606429488786,1.73696593056067,"ssf","mf.ss","exp","unif",15,"ssfOUT_240_24_1_BADGER","BADGER",1,0.0416666666666667,240,"preference"
"ssfOUT_240_24_1_BADGER.38",1.07983307220349,0.360986305861077,1.79867983854591,"ssf","mf.ss","exp","unif",50,"ssfOUT_240_24_1_BADGER","BADGER",1,0.0416666666666667,240,"preference"
"ssfOUT_240_24_1_BADGER.39",1.05383425711049,0.336205507363592,1.77146300685738,"ssf","mf.ss","exp","unif",158,"ssfOUT_240_24_1_BADGER","BADGER",1,0.0416666666666667,240,"preference"
"ssfOUT_240_24_1_BADGER.40",1.10800597824743,0.391467801445835,1.82454415504903,"ssf","mf.ss","exp","unif",500,"ssfOUT_240_24_1_BADGER","BADGER",1,0.0416666666666667,240,"preference"
"ssfOUT_240_24_1_VULTURE.1",0.687897888482889,0.0766177796438073,1.29917799732197,"ssf","mf.is","gamma","vonmises",5,"ssfOUT_240_24_1_VULTURE","VULTURE",1,0.0416666666666667,240,"preference"
"ssfOUT_240_24_1_VULTURE.2",0.602513082137993,0.0595563366769876,1.145469827599,"ssf","mf.is","gamma","vonmises",15,"ssfOUT_240_24_1_VULTURE","VULTURE",1,0.0416666666666667,240,"preference"
"ssfOUT_240_24_1_VULTURE.3",0.574601844269183,0.0568249659789869,1.09237872255938,"ssf","mf.is","gamma","vonmises",50,"ssfOUT_240_24_1_VULTURE","VULTURE",1,0.0416666666666667,240,"preference"
"ssfOUT_240_24_1_VULTURE.4",0.808142164170337,0.296304887420543,1.31997944092013,"ssf","mf.is","gamma","vonmises",158,"ssfOUT_240_24_1_VULTURE","VULTURE",1,0.0416666666666667,240,"preference"
"ssfOUT_240_24_1_VULTURE.5",0.749793802160846,0.239861482476888,1.2597261218448,"ssf","mf.is","gamma","vonmises",500,"ssfOUT_240_24_1_VULTURE","VULTURE",1,0.0416666666666667,240,"preference"
"ssfOUT_240_24_1_VULTURE.6",0.762322246176328,0.200153489437229,1.32449100291543,"ssf","mf.is","gamma","unif",5,"ssfOUT_240_24_1_VULTURE","VULTURE",1,0.0416666666666667,240,"preference"
"ssfOUT_240_24_1_VULTURE.7",0.661845323960511,0.138248101942105,1.18544254597892,"ssf","mf.is","gamma","unif",15,"ssfOUT_240_24_1_VULTURE","VULTURE",1,0.0416666666666667,240,"preference"
"ssfOUT_240_24_1_VULTURE.8",0.709961317567792,0.196391240753303,1.22353139438228,"ssf","mf.is","gamma","unif",50,"ssfOUT_240_24_1_VULTURE","VULTURE",1,0.0416666666666667,240,"preference"
"ssfOUT_240_24_1_VULTURE.9",0.760426684526057,0.249930360765338,1.27092300828678,"ssf","mf.is","gamma","unif",158,"ssfOUT_240_24_1_VULTURE","VULTURE",1,0.0416666666666667,240,"preference"
"ssfOUT_240_24_1_VULTURE.10",0.730797177748939,0.221249285176141,1.24034507032174,"ssf","mf.is","gamma","unif",500,"ssfOUT_240_24_1_VULTURE","VULTURE",1,0.0416666666666667,240,"preference"
"ssfOUT_240_24_1_VULTURE.11",0.462716194161658,-0.177208040723572,1.10264042904689,"ssf","mf.is","exp","vonmises",5,"ssfOUT_240_24_1_VULTURE","VULTURE",1,0.0416666666666667,240,"no effect"
"ssfOUT_240_24_1_VULTURE.12",1.04081731421211,0.478403998909067,1.60323062951516,"ssf","mf.is","exp","vonmises",15,"ssfOUT_240_24_1_VULTURE","VULTURE",1,0.0416666666666667,240,"preference"
"ssfOUT_240_24_1_VULTURE.13",0.612614566786079,0.0919120578694811,1.13331707570268,"ssf","mf.is","exp","vonmises",50,"ssfOUT_240_24_1_VULTURE","VULTURE",1,0.0416666666666667,240,"preference"
"ssfOUT_240_24_1_VULTURE.14",0.715883802961088,0.203730280491579,1.2280373254306,"ssf","mf.is","exp","vonmises",158,"ssfOUT_240_24_1_VULTURE","VULTURE",1,0.0416666666666667,240,"preference"
"ssfOUT_240_24_1_VULTURE.15",0.758680169447363,0.248434308051179,1.26892603084355,"ssf","mf.is","exp","vonmises",500,"ssfOUT_240_24_1_VULTURE","VULTURE",1,0.0416666666666667,240,"preference"
"ssfOUT_240_24_1_VULTURE.16",0.621686232688165,0.0453921636461274,1.1979803017302,"ssf","mf.is","exp","unif",5,"ssfOUT_240_24_1_VULTURE","VULTURE",1,0.0416666666666667,240,"preference"
"ssfOUT_240_24_1_VULTURE.17",0.642200236739765,0.115907449842226,1.1684930236373,"ssf","mf.is","exp","unif",15,"ssfOUT_240_24_1_VULTURE","VULTURE",1,0.0416666666666667,240,"preference"
"ssfOUT_240_24_1_VULTURE.18",0.807041118087173,0.29340177277529,1.32068046339906,"ssf","mf.is","exp","unif",50,"ssfOUT_240_24_1_VULTURE","VULTURE",1,0.0416666666666667,240,"preference"
"ssfOUT_240_24_1_VULTURE.19",0.641995680943376,0.1309952492402,1.15299611264655,"ssf","mf.is","exp","unif",158,"ssfOUT_240_24_1_VULTURE","VULTURE",1,0.0416666666666667,240,"preference"
"ssfOUT_240_24_1_VULTURE.20",0.757699381199049,0.247729040005134,1.26766972239296,"ssf","mf.is","exp","unif",500,"ssfOUT_240_24_1_VULTURE","VULTURE",1,0.0416666666666667,240,"preference"
"ssfOUT_240_24_1_VULTURE.21",0.32742292773575,-0.226589261574161,0.881435117045661,"ssf","mf.ss","gamma","vonmises",5,"ssfOUT_240_24_1_VULTURE","VULTURE",1,0.0416666666666667,240,"no effect"
"ssfOUT_240_24_1_VULTURE.22",0.404513150168389,-0.119069376712215,0.928095677048993,"ssf","mf.ss","gamma","vonmises",15,"ssfOUT_240_24_1_VULTURE","VULTURE",1,0.0416666666666667,240,"no effect"
"ssfOUT_240_24_1_VULTURE.23",0.345572479363111,-0.166669265706349,0.857814224432571,"ssf","mf.ss","gamma","vonmises",50,"ssfOUT_240_24_1_VULTURE","VULTURE",1,0.0416666666666667,240,"no effect"
"ssfOUT_240_24_1_VULTURE.24",0.517905852521528,0.00826802686570516,1.02754367817735,"ssf","mf.ss","gamma","vonmises",158,"ssfOUT_240_24_1_VULTURE","VULTURE",1,0.0416666666666667,240,"preference"
"ssfOUT_240_24_1_VULTURE.25",0.509703802840738,0.000942038025129488,1.01846556765635,"ssf","mf.ss","gamma","vonmises",500,"ssfOUT_240_24_1_VULTURE","VULTURE",1,0.0416666666666667,240,"preference"
"ssfOUT_240_24_1_VULTURE.26",0.584917879232502,0.0399386218238578,1.12989713664115,"ssf","mf.ss","gamma","unif",5,"ssfOUT_240_24_1_VULTURE","VULTURE",1,0.0416666666666667,240,"preference"
"ssfOUT_240_24_1_VULTURE.27",0.551018361110084,0.0312578298123505,1.07077889240782,"ssf","mf.ss","gamma","unif",15,"ssfOUT_240_24_1_VULTURE","VULTURE",1,0.0416666666666667,240,"preference"
"ssfOUT_240_24_1_VULTURE.28",0.580898170773035,0.0693396898062938,1.09245665173978,"ssf","mf.ss","gamma","unif",50,"ssfOUT_240_24_1_VULTURE","VULTURE",1,0.0416666666666667,240,"preference"
"ssfOUT_240_24_1_VULTURE.29",0.647939383600064,0.138529479309091,1.15734928789104,"ssf","mf.ss","gamma","unif",158,"ssfOUT_240_24_1_VULTURE","VULTURE",1,0.0416666666666667,240,"preference"
"ssfOUT_240_24_1_VULTURE.30",0.613789237369894,0.105155537377796,1.12242293736199,"ssf","mf.ss","gamma","unif",500,"ssfOUT_240_24_1_VULTURE","VULTURE",1,0.0416666666666667,240,"preference"
"ssfOUT_240_24_1_VULTURE.31",0.169847430074185,-0.38542633957054,0.725121199718909,"ssf","mf.ss","exp","vonmises",5,"ssfOUT_240_24_1_VULTURE","VULTURE",1,0.0416666666666667,240,"no effect"
"ssfOUT_240_24_1_VULTURE.32",0.548169750260725,0.0275854019303174,1.06875409859113,"ssf","mf.ss","exp","vonmises",15,"ssfOUT_240_24_1_VULTURE","VULTURE",1,0.0416666666666667,240,"preference"
"ssfOUT_240_24_1_VULTURE.33",0.483388812850787,-0.0292838016632372,0.996061427364811,"ssf","mf.ss","exp","vonmises",50,"ssfOUT_240_24_1_VULTURE","VULTURE",1,0.0416666666666667,240,"no effect"
"ssfOUT_240_24_1_VULTURE.34",0.491232699865142,-0.0193952184405584,1.00186061817084,"ssf","mf.ss","exp","vonmises",158,"ssfOUT_240_24_1_VULTURE","VULTURE",1,0.0416666666666667,240,"no effect"
"ssfOUT_240_24_1_VULTURE.35",0.507691842473627,-0.00231858844207999,1.01770227338933,"ssf","mf.ss","exp","vonmises",500,"ssfOUT_240_24_1_VULTURE","VULTURE",1,0.0416666666666667,240,"no effect"
"ssfOUT_240_24_1_VULTURE.36",0.58027363570468,0.0405725238465648,1.1199747475628,"ssf","mf.ss","exp","unif",5,"ssfOUT_240_24_1_VULTURE","VULTURE",1,0.0416666666666667,240,"preference"
"ssfOUT_240_24_1_VULTURE.37",0.684923406181869,0.164976706939944,1.20487010542379,"ssf","mf.ss","exp","unif",15,"ssfOUT_240_24_1_VULTURE","VULTURE",1,0.0416666666666667,240,"preference"
"ssfOUT_240_24_1_VULTURE.38",0.626370091619923,0.114149794071638,1.13859038916821,"ssf","mf.ss","exp","unif",50,"ssfOUT_240_24_1_VULTURE","VULTURE",1,0.0416666666666667,240,"preference"
"ssfOUT_240_24_1_VULTURE.39",0.521725125848534,0.0107535062890347,1.03269674540803,"ssf","mf.ss","exp","unif",158,"ssfOUT_240_24_1_VULTURE","VULTURE",1,0.0416666666666667,240,"preference"
"ssfOUT_240_24_1_VULTURE.40",0.578482447057232,0.0683615917913728,1.08860330232309,"ssf","mf.ss","exp","unif",500,"ssfOUT_240_24_1_VULTURE","VULTURE",1,0.0416666666666667,240,"preference"
"ssfOUT_240_24_1_KINGCOBRA.1",0.115682186034661,-0.41513875965547,0.646503131724791,"ssf","mf.is","gamma","vonmises",5,"ssfOUT_240_24_1_KINGCOBRA","KINGCOBRA",1,0.0416666666666667,240,"no effect"
"ssfOUT_240_24_1_KINGCOBRA.2",0.106037732789987,-0.383096645475112,0.595172111055086,"ssf","mf.is","gamma","vonmises",15,"ssfOUT_240_24_1_KINGCOBRA","KINGCOBRA",1,0.0416666666666667,240,"no effect"
"ssfOUT_240_24_1_KINGCOBRA.3",-0.0180123155142817,-0.487328411541722,0.451303780513159,"ssf","mf.is","gamma","vonmises",50,"ssfOUT_240_24_1_KINGCOBRA","KINGCOBRA",1,0.0416666666666667,240,"no effect"
"ssfOUT_240_24_1_KINGCOBRA.4",0.0585170148793219,-0.40336298186993,0.520397011628573,"ssf","mf.is","gamma","vonmises",158,"ssfOUT_240_24_1_KINGCOBRA","KINGCOBRA",1,0.0416666666666667,240,"no effect"
"ssfOUT_240_24_1_KINGCOBRA.5",0.0868952140278275,-0.37312224675776,0.546912674813415,"ssf","mf.is","gamma","vonmises",500,"ssfOUT_240_24_1_KINGCOBRA","KINGCOBRA",1,0.0416666666666667,240,"no effect"
"ssfOUT_240_24_1_KINGCOBRA.6",-0.143519670496391,-0.669261981590638,0.382222640597856,"ssf","mf.is","gamma","unif",5,"ssfOUT_240_24_1_KINGCOBRA","KINGCOBRA",1,0.0416666666666667,240,"no effect"
"ssfOUT_240_24_1_KINGCOBRA.7",0.000192596400794213,-0.477777972809311,0.478163165610899,"ssf","mf.is","gamma","unif",15,"ssfOUT_240_24_1_KINGCOBRA","KINGCOBRA",1,0.0416666666666667,240,"no effect"
"ssfOUT_240_24_1_KINGCOBRA.8",-0.0502908616560837,-0.515398918855604,0.414817195543436,"ssf","mf.is","gamma","unif",50,"ssfOUT_240_24_1_KINGCOBRA","KINGCOBRA",1,0.0416666666666667,240,"no effect"
"ssfOUT_240_24_1_KINGCOBRA.9",0.0157823260760308,-0.44521286652468,0.476777518676742,"ssf","mf.is","gamma","unif",158,"ssfOUT_240_24_1_KINGCOBRA","KINGCOBRA",1,0.0416666666666667,240,"no effect"
"ssfOUT_240_24_1_KINGCOBRA.10",-0.00468087899829169,-0.464057421704943,0.454695663708359,"ssf","mf.is","gamma","unif",500,"ssfOUT_240_24_1_KINGCOBRA","KINGCOBRA",1,0.0416666666666667,240,"no effect"
"ssfOUT_240_24_1_KINGCOBRA.11",-0.392507647303133,-0.963899823863299,0.178884529257032,"ssf","mf.is","exp","vonmises",5,"ssfOUT_240_24_1_KINGCOBRA","KINGCOBRA",1,0.0416666666666667,240,"no effect"
"ssfOUT_240_24_1_KINGCOBRA.12",-0.127187739418161,-0.643331905166539,0.388956426330218,"ssf","mf.is","exp","vonmises",15,"ssfOUT_240_24_1_KINGCOBRA","KINGCOBRA",1,0.0416666666666667,240,"no effect"
"ssfOUT_240_24_1_KINGCOBRA.13",-0.047613144028016,-0.517884754239238,0.422658466183206,"ssf","mf.is","exp","vonmises",50,"ssfOUT_240_24_1_KINGCOBRA","KINGCOBRA",1,0.0416666666666667,240,"no effect"
"ssfOUT_240_24_1_KINGCOBRA.14",0.0580205028834458,-0.40546823860299,0.521509244369882,"ssf","mf.is","exp","vonmises",158,"ssfOUT_240_24_1_KINGCOBRA","KINGCOBRA",1,0.0416666666666667,240,"no effect"
"ssfOUT_240_24_1_KINGCOBRA.15",0.065127179663796,-0.394992497797025,0.525246857124617,"ssf","mf.is","exp","vonmises",500,"ssfOUT_240_24_1_KINGCOBRA","KINGCOBRA",1,0.0416666666666667,240,"no effect"
"ssfOUT_240_24_1_KINGCOBRA.16",0.026513491519972,-0.505382761886033,0.558409744925977,"ssf","mf.is","exp","unif",5,"ssfOUT_240_24_1_KINGCOBRA","KINGCOBRA",1,0.0416666666666667,240,"no effect"
"ssfOUT_240_24_1_KINGCOBRA.17",-0.123720396646922,-0.605023173289198,0.357582379995355,"ssf","mf.is","exp","unif",15,"ssfOUT_240_24_1_KINGCOBRA","KINGCOBRA",1,0.0416666666666667,240,"no effect"
"ssfOUT_240_24_1_KINGCOBRA.18",0.0223876592760073,-0.443841836466483,0.488617155018498,"ssf","mf.is","exp","unif",50,"ssfOUT_240_24_1_KINGCOBRA","KINGCOBRA",1,0.0416666666666667,240,"no effect"
"ssfOUT_240_24_1_KINGCOBRA.19",-0.0151984307522575,-0.477473401537362,0.447076540032847,"ssf","mf.is","exp","unif",158,"ssfOUT_240_24_1_KINGCOBRA","KINGCOBRA",1,0.0416666666666667,240,"no effect"
"ssfOUT_240_24_1_KINGCOBRA.20",0.0503042649330919,-0.409832176678521,0.510440706544705,"ssf","mf.is","exp","unif",500,"ssfOUT_240_24_1_KINGCOBRA","KINGCOBRA",1,0.0416666666666667,240,"no effect"
"ssfOUT_240_24_1_KINGCOBRA.21",0.0704906662080139,-0.427905250927937,0.568886583343965,"ssf","mf.ss","gamma","vonmises",5,"ssfOUT_240_24_1_KINGCOBRA","KINGCOBRA",1,0.0416666666666667,240,"no effect"
"ssfOUT_240_24_1_KINGCOBRA.22",-0.0834093632307814,-0.554696315946337,0.387877589484774,"ssf","mf.ss","gamma","vonmises",15,"ssfOUT_240_24_1_KINGCOBRA","KINGCOBRA",1,0.0416666666666667,240,"no effect"
"ssfOUT_240_24_1_KINGCOBRA.23",-0.0969613619867757,-0.560960382510484,0.367037658536933,"ssf","mf.ss","gamma","vonmises",50,"ssfOUT_240_24_1_KINGCOBRA","KINGCOBRA",1,0.0416666666666667,240,"no effect"
"ssfOUT_240_24_1_KINGCOBRA.24",-0.0456548383208489,-0.50496457977099,0.413654903129293,"ssf","mf.ss","gamma","vonmises",158,"ssfOUT_240_24_1_KINGCOBRA","KINGCOBRA",1,0.0416666666666667,240,"no effect"
"ssfOUT_240_24_1_KINGCOBRA.25",-0.0128297015323489,-0.471377268041561,0.445717864976864,"ssf","mf.ss","gamma","vonmises",500,"ssfOUT_240_24_1_KINGCOBRA","KINGCOBRA",1,0.0416666666666667,240,"no effect"
"ssfOUT_240_24_1_KINGCOBRA.26",-0.137694434230817,-0.651447660573751,0.376058792112117,"ssf","mf.ss","gamma","unif",5,"ssfOUT_240_24_1_KINGCOBRA","KINGCOBRA",1,0.0416666666666667,240,"no effect"
"ssfOUT_240_24_1_KINGCOBRA.27",-0.0798507190113391,-0.553446455777559,0.39374501775488,"ssf","mf.ss","gamma","unif",15,"ssfOUT_240_24_1_KINGCOBRA","KINGCOBRA",1,0.0416666666666667,240,"no effect"
"ssfOUT_240_24_1_KINGCOBRA.28",-0.119263050217178,-0.582899978496324,0.344373878061968,"ssf","mf.ss","gamma","unif",50,"ssfOUT_240_24_1_KINGCOBRA","KINGCOBRA",1,0.0416666666666667,240,"no effect"
"ssfOUT_240_24_1_KINGCOBRA.29",-0.0134683802575885,-0.472773715889017,0.44583695537384,"ssf","mf.ss","gamma","unif",158,"ssfOUT_240_24_1_KINGCOBRA","KINGCOBRA",1,0.0416666666666667,240,"no effect"
"ssfOUT_240_24_1_KINGCOBRA.30",-0.0455313017429383,-0.503552155544053,0.412489552058176,"ssf","mf.ss","gamma","unif",500,"ssfOUT_240_24_1_KINGCOBRA","KINGCOBRA",1,0.0416666666666667,240,"no effect"
"ssfOUT_240_24_1_KINGCOBRA.31",-0.109980400454363,-0.618955868453726,0.398995067545001,"ssf","mf.ss","exp","vonmises",5,"ssfOUT_240_24_1_KINGCOBRA","KINGCOBRA",1,0.0416666666666667,240,"no effect"
"ssfOUT_240_24_1_KINGCOBRA.32",-0.113985958032588,-0.591018571807449,0.363046655742274,"ssf","mf.ss","exp","vonmises",15,"ssfOUT_240_24_1_KINGCOBRA","KINGCOBRA",1,0.0416666666666667,240,"no effect"
"ssfOUT_240_24_1_KINGCOBRA.33",-0.00488682568827921,-0.469999998529153,0.460226347152595,"ssf","mf.ss","exp","vonmises",50,"ssfOUT_240_24_1_KINGCOBRA","KINGCOBRA",1,0.0416666666666667,240,"no effect"
"ssfOUT_240_24_1_KINGCOBRA.34",0.000517205949314259,-0.462529952883701,0.463564364782329,"ssf","mf.ss","exp","vonmises",158,"ssfOUT_240_24_1_KINGCOBRA","KINGCOBRA",1,0.0416666666666667,240,"no effect"
"ssfOUT_240_24_1_KINGCOBRA.35",0.0116459684871799,-0.450051776972433,0.473343713946792,"ssf","mf.ss","exp","vonmises",500,"ssfOUT_240_24_1_KINGCOBRA","KINGCOBRA",1,0.0416666666666667,240,"no effect"
"ssfOUT_240_24_1_KINGCOBRA.36",-0.110419942485543,-0.617843258725033,0.397003373753947,"ssf","mf.ss","exp","unif",5,"ssfOUT_240_24_1_KINGCOBRA","KINGCOBRA",1,0.0416666666666667,240,"no effect"
"ssfOUT_240_24_1_KINGCOBRA.37",-0.162723503288422,-0.637802245103652,0.312355238526809,"ssf","mf.ss","exp","unif",15,"ssfOUT_240_24_1_KINGCOBRA","KINGCOBRA",1,0.0416666666666667,240,"no effect"
"ssfOUT_240_24_1_KINGCOBRA.38",0.0632860814469371,-0.402657476015123,0.529229638908998,"ssf","mf.ss","exp","unif",50,"ssfOUT_240_24_1_KINGCOBRA","KINGCOBRA",1,0.0416666666666667,240,"no effect"
"ssfOUT_240_24_1_KINGCOBRA.39",-0.00831623099323438,-0.471015822738494,0.454383360752025,"ssf","mf.ss","exp","unif",158,"ssfOUT_240_24_1_KINGCOBRA","KINGCOBRA",1,0.0416666666666667,240,"no effect"
"ssfOUT_240_24_1_KINGCOBRA.40",0.00118094685639428,-0.460594571167554,0.462956464880343,"ssf","mf.ss","exp","unif",500,"ssfOUT_240_24_1_KINGCOBRA","KINGCOBRA",1,0.0416666666666667,240,"no effect"
"ssfOUT_240_24_2_BADGER.1",0.643032037993135,0.168610789818911,1.11745328616736,"ssf","mf.is","gamma","vonmises",5,"ssfOUT_240_24_2_BADGER","BADGER",2,0.0416666666666667,240,"preference"
"ssfOUT_240_24_2_BADGER.2",0.344467616683129,-0.10162951029874,0.790564743664999,"ssf","mf.is","gamma","vonmises",15,"ssfOUT_240_24_2_BADGER","BADGER",2,0.0416666666666667,240,"no effect"
"ssfOUT_240_24_2_BADGER.3",0.504617830227742,0.0755485181560225,0.933687142299461,"ssf","mf.is","gamma","vonmises",50,"ssfOUT_240_24_2_BADGER","BADGER",2,0.0416666666666667,240,"preference"
"ssfOUT_240_24_2_BADGER.4",0.385989561579984,-0.0374119009656154,0.809391024125584,"ssf","mf.is","gamma","vonmises",158,"ssfOUT_240_24_2_BADGER","BADGER",2,0.0416666666666667,240,"no effect"
"ssfOUT_240_24_2_BADGER.5",0.384782764791461,-0.0377467517767655,0.807312281359688,"ssf","mf.is","gamma","vonmises",500,"ssfOUT_240_24_2_BADGER","BADGER",2,0.0416666666666667,240,"no effect"
"ssfOUT_240_24_2_BADGER.6",0.579213383141102,0.129139146124168,1.02928762015804,"ssf","mf.is","gamma","unif",5,"ssfOUT_240_24_2_BADGER","BADGER",2,0.0416666666666667,240,"preference"
"ssfOUT_240_24_2_BADGER.7",0.443827395524774,0.00856259493607764,0.879092196113469,"ssf","mf.is","gamma","unif",15,"ssfOUT_240_24_2_BADGER","BADGER",2,0.0416666666666667,240,"preference"
"ssfOUT_240_24_2_BADGER.8",0.536330679007275,0.111660515237039,0.961000842777511,"ssf","mf.is","gamma","unif",50,"ssfOUT_240_24_2_BADGER","BADGER",2,0.0416666666666667,240,"preference"
"ssfOUT_240_24_2_BADGER.9",0.341321968210703,-0.0813770606976672,0.764020997119074,"ssf","mf.is","gamma","unif",158,"ssfOUT_240_24_2_BADGER","BADGER",2,0.0416666666666667,240,"no effect"
"ssfOUT_240_24_2_BADGER.10",0.408879144113516,-0.0131733501184747,0.830931638345508,"ssf","mf.is","gamma","unif",500,"ssfOUT_240_24_2_BADGER","BADGER",2,0.0416666666666667,240,"no effect"
"ssfOUT_240_24_2_BADGER.11",0.0648683696630958,-0.442300378978422,0.572037118304614,"ssf","mf.is","exp","vonmises",5,"ssfOUT_240_24_2_BADGER","BADGER",2,0.0416666666666667,240,"no effect"
"ssfOUT_240_24_2_BADGER.12",0.213017088697825,-0.239183539239849,0.665217716635499,"ssf","mf.is","exp","vonmises",15,"ssfOUT_240_24_2_BADGER","BADGER",2,0.0416666666666667,240,"no effect"
"ssfOUT_240_24_2_BADGER.13",0.471956144950218,0.0422850846405883,0.901627205259848,"ssf","mf.is","exp","vonmises",50,"ssfOUT_240_24_2_BADGER","BADGER",2,0.0416666666666667,240,"preference"
"ssfOUT_240_24_2_BADGER.14",0.3879543863493,-0.0366810054742494,0.812589778172849,"ssf","mf.is","exp","vonmises",158,"ssfOUT_240_24_2_BADGER","BADGER",2,0.0416666666666667,240,"no effect"
"ssfOUT_240_24_2_BADGER.15",0.406776112474522,-0.0157830116031968,0.82933523655224,"ssf","mf.is","exp","vonmises",500,"ssfOUT_240_24_2_BADGER","BADGER",2,0.0416666666666667,240,"no effect"
"ssfOUT_240_24_2_BADGER.16",-0.127213466739523,-0.635452118927935,0.381025185448889,"ssf","mf.is","exp","unif",5,"ssfOUT_240_24_2_BADGER","BADGER",2,0.0416666666666667,240,"no effect"
"ssfOUT_240_24_2_BADGER.17",0.224067637202823,-0.215074929936374,0.66321020434202,"ssf","mf.is","exp","unif",15,"ssfOUT_240_24_2_BADGER","BADGER",2,0.0416666666666667,240,"no effect"
"ssfOUT_240_24_2_BADGER.18",0.452709644539208,0.0264198726909428,0.878999416387473,"ssf","mf.is","exp","unif",50,"ssfOUT_240_24_2_BADGER","BADGER",2,0.0416666666666667,240,"preference"
"ssfOUT_240_24_2_BADGER.19",0.407969351356439,-0.0156873487591705,0.831626051472049,"ssf","mf.is","exp","unif",158,"ssfOUT_240_24_2_BADGER","BADGER",2,0.0416666666666667,240,"no effect"
"ssfOUT_240_24_2_BADGER.20",0.446402074243368,0.0243396526446449,0.868464495842092,"ssf","mf.is","exp","unif",500,"ssfOUT_240_24_2_BADGER","BADGER",2,0.0416666666666667,240,"preference"
"ssfOUT_240_24_2_BADGER.21",0.423646420582871,-0.0209686487783822,0.868261489944124,"ssf","mf.ss","gamma","vonmises",5,"ssfOUT_240_24_2_BADGER","BADGER",2,0.0416666666666667,240,"no effect"
"ssfOUT_240_24_2_BADGER.22",0.271046194160756,-0.159591023147001,0.701683411468513,"ssf","mf.ss","gamma","vonmises",15,"ssfOUT_240_24_2_BADGER","BADGER",2,0.0416666666666667,240,"no effect"
"ssfOUT_240_24_2_BADGER.23",0.390633260559568,-0.0328146453114038,0.814081166430539,"ssf","mf.ss","gamma","vonmises",50,"ssfOUT_240_24_2_BADGER","BADGER",2,0.0416666666666667,240,"no effect"
"ssfOUT_240_24_2_BADGER.24",0.355316638522579,-0.0661181554350994,0.776751432480258,"ssf","mf.ss","gamma","vonmises",158,"ssfOUT_240_24_2_BADGER","BADGER",2,0.0416666666666667,240,"no effect"
"ssfOUT_240_24_2_BADGER.25",0.329115647610897,-0.0918863786268792,0.750117673848674,"ssf","mf.ss","gamma","vonmises",500,"ssfOUT_240_24_2_BADGER","BADGER",2,0.0416666666666667,240,"no effect"
"ssfOUT_240_24_2_BADGER.26",0.584761396555394,0.139196120974724,1.03032667213606,"ssf","mf.ss","gamma","unif",5,"ssfOUT_240_24_2_BADGER","BADGER",2,0.0416666666666667,240,"preference"
"ssfOUT_240_24_2_BADGER.27",0.497910807681446,0.0664149157331698,0.929406699629722,"ssf","mf.ss","gamma","unif",15,"ssfOUT_240_24_2_BADGER","BADGER",2,0.0416666666666667,240,"preference"
"ssfOUT_240_24_2_BADGER.28",0.494199376978329,0.0706894486028473,0.917709305353811,"ssf","mf.ss","gamma","unif",50,"ssfOUT_240_24_2_BADGER","BADGER",2,0.0416666666666667,240,"preference"
"ssfOUT_240_24_2_BADGER.29",0.332955211544753,-0.0885731588901663,0.754483581979673,"ssf","mf.ss","gamma","unif",158,"ssfOUT_240_24_2_BADGER","BADGER",2,0.0416666666666667,240,"no effect"
"ssfOUT_240_24_2_BADGER.30",0.389708216547608,-0.0312458466356808,0.810662279730897,"ssf","mf.ss","gamma","unif",500,"ssfOUT_240_24_2_BADGER","BADGER",2,0.0416666666666667,240,"no effect"
"ssfOUT_240_24_2_BADGER.31",0.203398049349896,-0.255884815711969,0.66268091441176,"ssf","mf.ss","exp","vonmises",5,"ssfOUT_240_24_2_BADGER","BADGER",2,0.0416666666666667,240,"no effect"
"ssfOUT_240_24_2_BADGER.32",0.232623658314873,-0.201595479825324,0.66684279645507,"ssf","mf.ss","exp","vonmises",15,"ssfOUT_240_24_2_BADGER","BADGER",2,0.0416666666666667,240,"no effect"
"ssfOUT_240_24_2_BADGER.33",0.395971656843681,-0.0286826214344236,0.820625935121785,"ssf","mf.ss","exp","vonmises",50,"ssfOUT_240_24_2_BADGER","BADGER",2,0.0416666666666667,240,"no effect"
"ssfOUT_240_24_2_BADGER.34",0.316834572500846,-0.107153995924831,0.740823140926522,"ssf","mf.ss","exp","vonmises",158,"ssfOUT_240_24_2_BADGER","BADGER",2,0.0416666666666667,240,"no effect"
"ssfOUT_240_24_2_BADGER.35",0.349544140753596,-0.0738686257003113,0.772956907207503,"ssf","mf.ss","exp","vonmises",500,"ssfOUT_240_24_2_BADGER","BADGER",2,0.0416666666666667,240,"no effect"
"ssfOUT_240_24_2_BADGER.36",-0.113592999075187,-0.582850101722775,0.3556641035724,"ssf","mf.ss","exp","unif",5,"ssfOUT_240_24_2_BADGER","BADGER",2,0.0416666666666667,240,"no effect"
"ssfOUT_240_24_2_BADGER.37",0.303845000699295,-0.128911757817834,0.736601759216424,"ssf","mf.ss","exp","unif",15,"ssfOUT_240_24_2_BADGER","BADGER",2,0.0416666666666667,240,"no effect"
"ssfOUT_240_24_2_BADGER.38",0.414253068960588,-0.0112576974179469,0.839763835339123,"ssf","mf.ss","exp","unif",50,"ssfOUT_240_24_2_BADGER","BADGER",2,0.0416666666666667,240,"no effect"
"ssfOUT_240_24_2_BADGER.39",0.330715603713589,-0.0923444095268655,0.753775616954043,"ssf","mf.ss","exp","unif",158,"ssfOUT_240_24_2_BADGER","BADGER",2,0.0416666666666667,240,"no effect"
"ssfOUT_240_24_2_BADGER.40",0.383154271069112,-0.039697389309458,0.806005931447683,"ssf","mf.ss","exp","unif",500,"ssfOUT_240_24_2_BADGER","BADGER",2,0.0416666666666667,240,"no effect"
"ssfOUT_240_24_2_VULTURE.1",1.49017995654051,0.821996515438174,2.15836339764284,"ssf","mf.is","gamma","vonmises",5,"ssfOUT_240_24_2_VULTURE","VULTURE",2,0.0416666666666667,240,"preference"
"ssfOUT_240_24_2_VULTURE.2",1.1559069637995,0.549976078529815,1.76183784906918,"ssf","mf.is","gamma","vonmises",15,"ssfOUT_240_24_2_VULTURE","VULTURE",2,0.0416666666666667,240,"preference"
"ssfOUT_240_24_2_VULTURE.3",1.19120545578006,0.598888566366841,1.78352234519328,"ssf","mf.is","gamma","vonmises",50,"ssfOUT_240_24_2_VULTURE","VULTURE",2,0.0416666666666667,240,"preference"
"ssfOUT_240_24_2_VULTURE.4",1.07289489730935,0.48511315921812,1.66067663540059,"ssf","mf.is","gamma","vonmises",158,"ssfOUT_240_24_2_VULTURE","VULTURE",2,0.0416666666666667,240,"preference"
"ssfOUT_240_24_2_VULTURE.5",1.14299067510739,0.556972599370353,1.72900875084443,"ssf","mf.is","gamma","vonmises",500,"ssfOUT_240_24_2_VULTURE","VULTURE",2,0.0416666666666667,240,"preference"
"ssfOUT_240_24_2_VULTURE.6",0.967516350633906,0.347244514158845,1.58778818710897,"ssf","mf.is","gamma","unif",5,"ssfOUT_240_24_2_VULTURE","VULTURE",2,0.0416666666666667,240,"preference"
"ssfOUT_240_24_2_VULTURE.7",1.11523307758008,0.520091632061753,1.71037452309841,"ssf","mf.is","gamma","unif",15,"ssfOUT_240_24_2_VULTURE","VULTURE",2,0.0416666666666667,240,"preference"
"ssfOUT_240_24_2_VULTURE.8",1.16978932571296,0.581414061664418,1.7581645897615,"ssf","mf.is","gamma","unif",50,"ssfOUT_240_24_2_VULTURE","VULTURE",2,0.0416666666666667,240,"preference"
"ssfOUT_240_24_2_VULTURE.9",1.17688891548743,0.590327672803687,1.76345015817117,"ssf","mf.is","gamma","unif",158,"ssfOUT_240_24_2_VULTURE","VULTURE",2,0.0416666666666667,240,"preference"
"ssfOUT_240_24_2_VULTURE.10",1.15305955388398,0.567152695195317,1.73896641257265,"ssf","mf.is","gamma","unif",500,"ssfOUT_240_24_2_VULTURE","VULTURE",2,0.0416666666666667,240,"preference"
"ssfOUT_240_24_2_VULTURE.11",1.42923392616687,0.694897222817647,2.1635706295161,"ssf","mf.is","exp","vonmises",5,"ssfOUT_240_24_2_VULTURE","VULTURE",2,0.0416666666666667,240,"preference"
"ssfOUT_240_24_2_VULTURE.12",0.826946744254186,0.200831205410295,1.45306228309808,"ssf","mf.is","exp","vonmises",15,"ssfOUT_240_24_2_VULTURE","VULTURE",2,0.0416666666666667,240,"preference"
"ssfOUT_240_24_2_VULTURE.13",1.10234276042562,0.508046664946339,1.6966388559049,"ssf","mf.is","exp","vonmises",50,"ssfOUT_240_24_2_VULTURE","VULTURE",2,0.0416666666666667,240,"preference"
"ssfOUT_240_24_2_VULTURE.14",1.14787189828031,0.559723864052246,1.73601993250837,"ssf","mf.is","exp","vonmises",158,"ssfOUT_240_24_2_VULTURE","VULTURE",2,0.0416666666666667,240,"preference"
"ssfOUT_240_24_2_VULTURE.15",1.14969906905464,0.562930707187056,1.73646743092223,"ssf","mf.is","exp","vonmises",500,"ssfOUT_240_24_2_VULTURE","VULTURE",2,0.0416666666666667,240,"preference"
"ssfOUT_240_24_2_VULTURE.16",1.30830235025119,0.675933172859399,1.94067152764297,"ssf","mf.is","exp","unif",5,"ssfOUT_240_24_2_VULTURE","VULTURE",2,0.0416666666666667,240,"preference"
"ssfOUT_240_24_2_VULTURE.17",1.18160444626534,0.58051690591474,1.78269198661595,"ssf","mf.is","exp","unif",15,"ssfOUT_240_24_2_VULTURE","VULTURE",2,0.0416666666666667,240,"preference"
"ssfOUT_240_24_2_VULTURE.18",1.1353555372699,0.544664978214545,1.72604609632526,"ssf","mf.is","exp","unif",50,"ssfOUT_240_24_2_VULTURE","VULTURE",2,0.0416666666666667,240,"preference"
"ssfOUT_240_24_2_VULTURE.19",1.09791958433595,0.511189153625461,1.68465001504644,"ssf","mf.is","exp","unif",158,"ssfOUT_240_24_2_VULTURE","VULTURE",2,0.0416666666666667,240,"preference"
"ssfOUT_240_24_2_VULTURE.20",1.15229658755994,0.566305218011294,1.73828795710858,"ssf","mf.is","exp","unif",500,"ssfOUT_240_24_2_VULTURE","VULTURE",2,0.0416666666666667,240,"preference"
"ssfOUT_240_24_2_VULTURE.21",1.09562758593763,0.479940472566089,1.71131469930916,"ssf","mf.ss","gamma","vonmises",5,"ssfOUT_240_24_2_VULTURE","VULTURE",2,0.0416666666666667,240,"preference"
"ssfOUT_240_24_2_VULTURE.22",1.03364700073381,0.440307830221789,1.62698617124584,"ssf","mf.ss","gamma","vonmises",15,"ssfOUT_240_24_2_VULTURE","VULTURE",2,0.0416666666666667,240,"preference"
"ssfOUT_240_24_2_VULTURE.23",0.968444489746198,0.380911598338366,1.55597738115403,"ssf","mf.ss","gamma","vonmises",50,"ssfOUT_240_24_2_VULTURE","VULTURE",2,0.0416666666666667,240,"preference"
"ssfOUT_240_24_2_VULTURE.24",0.904305067823562,0.318556290291801,1.49005384535532,"ssf","mf.ss","gamma","vonmises",158,"ssfOUT_240_24_2_VULTURE","VULTURE",2,0.0416666666666667,240,"preference"
"ssfOUT_240_24_2_VULTURE.25",0.958465239538683,0.373451290291702,1.54347918878566,"ssf","mf.ss","gamma","vonmises",500,"ssfOUT_240_24_2_VULTURE","VULTURE",2,0.0416666666666667,240,"preference"
"ssfOUT_240_24_2_VULTURE.26",0.960490559357464,0.352406792304853,1.56857432641007,"ssf","mf.ss","gamma","unif",5,"ssfOUT_240_24_2_VULTURE","VULTURE",2,0.0416666666666667,240,"preference"
"ssfOUT_240_24_2_VULTURE.27",1.05930618388747,0.46691480209145,1.6516975656835,"ssf","mf.ss","gamma","unif",15,"ssfOUT_240_24_2_VULTURE","VULTURE",2,0.0416666666666667,240,"preference"
"ssfOUT_240_24_2_VULTURE.28",1.07413200137197,0.486992603953902,1.66127139879004,"ssf","mf.ss","gamma","unif",50,"ssfOUT_240_24_2_VULTURE","VULTURE",2,0.0416666666666667,240,"preference"
"ssfOUT_240_24_2_VULTURE.29",1.07033544383,0.484809949264932,1.65586093839506,"ssf","mf.ss","gamma","unif",158,"ssfOUT_240_24_2_VULTURE","VULTURE",2,0.0416666666666667,240,"preference"
"ssfOUT_240_24_2_VULTURE.30",1.06112928058146,0.476134032785456,1.64612452837747,"ssf","mf.ss","gamma","unif",500,"ssfOUT_240_24_2_VULTURE","VULTURE",2,0.0416666666666667,240,"preference"
"ssfOUT_240_24_2_VULTURE.31",0.990615089492266,0.379486915886302,1.60174326309823,"ssf","mf.ss","exp","vonmises",5,"ssfOUT_240_24_2_VULTURE","VULTURE",2,0.0416666666666667,240,"preference"
"ssfOUT_240_24_2_VULTURE.32",0.773653635473799,0.179887922873667,1.36741934807393,"ssf","mf.ss","exp","vonmises",15,"ssfOUT_240_24_2_VULTURE","VULTURE",2,0.0416666666666667,240,"preference"
"ssfOUT_240_24_2_VULTURE.33",0.894970562041498,0.306018495894017,1.48392262818898,"ssf","mf.ss","exp","vonmises",50,"ssfOUT_240_24_2_VULTURE","VULTURE",2,0.0416666666666667,240,"preference"
"ssfOUT_240_24_2_VULTURE.34",0.914125813616614,0.327230152903799,1.50102147432943,"ssf","mf.ss","exp","vonmises",158,"ssfOUT_240_24_2_VULTURE","VULTURE",2,0.0416666666666667,240,"preference"
"ssfOUT_240_24_2_VULTURE.35",0.824843253129484,0.238690705868571,1.4109958003904,"ssf","mf.ss","exp","vonmises",500,"ssfOUT_240_24_2_VULTURE","VULTURE",2,0.0416666666666667,240,"preference"
"ssfOUT_240_24_2_VULTURE.36",0.913484430983027,0.303214416994958,1.5237544449711,"ssf","mf.ss","exp","unif",5,"ssfOUT_240_24_2_VULTURE","VULTURE",2,0.0416666666666667,240,"preference"
"ssfOUT_240_24_2_VULTURE.37",1.01934457761438,0.425127228802657,1.6135619264261,"ssf","mf.ss","exp","unif",15,"ssfOUT_240_24_2_VULTURE","VULTURE",2,0.0416666666666667,240,"preference"
"ssfOUT_240_24_2_VULTURE.38",0.96951927305076,0.380541701986386,1.55849684411513,"ssf","mf.ss","exp","unif",50,"ssfOUT_240_24_2_VULTURE","VULTURE",2,0.0416666666666667,240,"preference"
"ssfOUT_240_24_2_VULTURE.39",0.93922252173896,0.352653612294054,1.52579143118387,"ssf","mf.ss","exp","unif",158,"ssfOUT_240_24_2_VULTURE","VULTURE",2,0.0416666666666667,240,"preference"
"ssfOUT_240_24_2_VULTURE.40",0.970362117998104,0.384181795429,1.55654244056721,"ssf","mf.ss","exp","unif",500,"ssfOUT_240_24_2_VULTURE","VULTURE",2,0.0416666666666667,240,"preference"
"ssfOUT_240_24_2_KINGCOBRA.1",1.3835977189475,0.341283169572109,2.42591226832288,"ssf","mf.is","gamma","vonmises",5,"ssfOUT_240_24_2_KINGCOBRA","KINGCOBRA",2,0.0416666666666667,240,"preference"
"ssfOUT_240_24_2_KINGCOBRA.2",1.59473812915549,0.573838172006032,2.61563808630496,"ssf","mf.is","gamma","vonmises",15,"ssfOUT_240_24_2_KINGCOBRA","KINGCOBRA",2,0.0416666666666667,240,"preference"
"ssfOUT_240_24_2_KINGCOBRA.3",1.74804047067428,0.738343603225972,2.75773733812259,"ssf","mf.is","gamma","vonmises",50,"ssfOUT_240_24_2_KINGCOBRA","KINGCOBRA",2,0.0416666666666667,240,"preference"
"ssfOUT_240_24_2_KINGCOBRA.4",1.78411877303487,0.777779419031117,2.79045812703862,"ssf","mf.is","gamma","vonmises",158,"ssfOUT_240_24_2_KINGCOBRA","KINGCOBRA",2,0.0416666666666667,240,"preference"
"ssfOUT_240_24_2_KINGCOBRA.5",1.75254750627988,0.746604660632509,2.75849035192724,"ssf","mf.is","gamma","vonmises",500,"ssfOUT_240_24_2_KINGCOBRA","KINGCOBRA",2,0.0416666666666667,240,"preference"
"ssfOUT_240_24_2_KINGCOBRA.6",1.73037852986294,0.70564029759615,2.75511676212972,"ssf","mf.is","gamma","unif",5,"ssfOUT_240_24_2_KINGCOBRA","KINGCOBRA",2,0.0416666666666667,240,"preference"
"ssfOUT_240_24_2_KINGCOBRA.7",1.90490588462598,0.892070825610464,2.9177409436415,"ssf","mf.is","gamma","unif",15,"ssfOUT_240_24_2_KINGCOBRA","KINGCOBRA",2,0.0416666666666667,240,"preference"
"ssfOUT_240_24_2_KINGCOBRA.8",1.70705153090506,0.699386238171917,2.71471682363821,"ssf","mf.is","gamma","unif",50,"ssfOUT_240_24_2_KINGCOBRA","KINGCOBRA",2,0.0416666666666667,240,"preference"
"ssfOUT_240_24_2_KINGCOBRA.9",1.75835322745449,0.752210000633993,2.764496454275,"ssf","mf.is","gamma","unif",158,"ssfOUT_240_24_2_KINGCOBRA","KINGCOBRA",2,0.0416666666666667,240,"preference"
"ssfOUT_240_24_2_KINGCOBRA.10",1.73191774431386,0.726093691125728,2.737741797502,"ssf","mf.is","gamma","unif",500,"ssfOUT_240_24_2_KINGCOBRA","KINGCOBRA",2,0.0416666666666667,240,"preference"
"ssfOUT_240_24_2_KINGCOBRA.11",2.11917332595547,1.08400615163842,3.15434050027251,"ssf","mf.is","exp","vonmises",5,"ssfOUT_240_24_2_KINGCOBRA","KINGCOBRA",2,0.0416666666666667,240,"preference"
"ssfOUT_240_24_2_KINGCOBRA.12",1.73203575049611,0.716320072216057,2.74775142877616,"ssf","mf.is","exp","vonmises",15,"ssfOUT_240_24_2_KINGCOBRA","KINGCOBRA",2,0.0416666666666667,240,"preference"
"ssfOUT_240_24_2_KINGCOBRA.13",1.50468710140611,0.495412577354366,2.51396162545784,"ssf","mf.is","exp","vonmises",50,"ssfOUT_240_24_2_KINGCOBRA","KINGCOBRA",2,0.0416666666666667,240,"preference"
"ssfOUT_240_24_2_KINGCOBRA.14",1.8011783820348,0.794424691965962,2.80793207210364,"ssf","mf.is","exp","vonmises",158,"ssfOUT_240_24_2_KINGCOBRA","KINGCOBRA",2,0.0416666666666667,240,"preference"
"ssfOUT_240_24_2_KINGCOBRA.15",1.71625785657041,0.710400790431671,2.72211492270915,"ssf","mf.is","exp","vonmises",500,"ssfOUT_240_24_2_KINGCOBRA","KINGCOBRA",2,0.0416666666666667,240,"preference"
"ssfOUT_240_24_2_KINGCOBRA.16",1.73638226568818,0.712244080152835,2.76052045122352,"ssf","mf.is","exp","unif",5,"ssfOUT_240_24_2_KINGCOBRA","KINGCOBRA",2,0.0416666666666667,240,"preference"
"ssfOUT_240_24_2_KINGCOBRA.17",1.78307232796867,0.766832996279787,2.79931165965755,"ssf","mf.is","exp","unif",15,"ssfOUT_240_24_2_KINGCOBRA","KINGCOBRA",2,0.0416666666666667,240,"preference"
"ssfOUT_240_24_2_KINGCOBRA.18",1.88647507681208,0.877736191454768,2.89521396216938,"ssf","mf.is","exp","unif",50,"ssfOUT_240_24_2_KINGCOBRA","KINGCOBRA",2,0.0416666666666667,240,"preference"
"ssfOUT_240_24_2_KINGCOBRA.19",1.74718052192834,0.740903743609821,2.75345730024685,"ssf","mf.is","exp","unif",158,"ssfOUT_240_24_2_KINGCOBRA","KINGCOBRA",2,0.0416666666666667,240,"preference"
"ssfOUT_240_24_2_KINGCOBRA.20",1.77619085385526,0.770591812748427,2.78178989496208,"ssf","mf.is","exp","unif",500,"ssfOUT_240_24_2_KINGCOBRA","KINGCOBRA",2,0.0416666666666667,240,"preference"
"ssfOUT_240_24_2_KINGCOBRA.21",1.50270297686948,0.477859177306228,2.52754677643273,"ssf","mf.ss","gamma","vonmises",5,"ssfOUT_240_24_2_KINGCOBRA","KINGCOBRA",2,0.0416666666666667,240,"preference"
"ssfOUT_240_24_2_KINGCOBRA.22",1.48669101424416,0.472434628497417,2.5009473999909,"ssf","mf.ss","gamma","vonmises",15,"ssfOUT_240_24_2_KINGCOBRA","KINGCOBRA",2,0.0416666666666667,240,"preference"
"ssfOUT_240_24_2_KINGCOBRA.23",1.68214581886682,0.675044960285599,2.68924667744805,"ssf","mf.ss","gamma","vonmises",50,"ssfOUT_240_24_2_KINGCOBRA","KINGCOBRA",2,0.0416666666666667,240,"preference"
"ssfOUT_240_24_2_KINGCOBRA.24",1.6839065672778,0.678347867499434,2.68946526705616,"ssf","mf.ss","gamma","vonmises",158,"ssfOUT_240_24_2_KINGCOBRA","KINGCOBRA",2,0.0416666666666667,240,"preference"
"ssfOUT_240_24_2_KINGCOBRA.25",1.66736266189302,0.662016911577395,2.67270841220864,"ssf","mf.ss","gamma","vonmises",500,"ssfOUT_240_24_2_KINGCOBRA","KINGCOBRA",2,0.0416666666666667,240,"preference"
"ssfOUT_240_24_2_KINGCOBRA.26",1.72986654154532,0.70743597620323,2.7522971068874,"ssf","mf.ss","gamma","unif",5,"ssfOUT_240_24_2_KINGCOBRA","KINGCOBRA",2,0.0416666666666667,240,"preference"
"ssfOUT_240_24_2_KINGCOBRA.27",1.850477357206,0.838809927546037,2.86214478686596,"ssf","mf.ss","gamma","unif",15,"ssfOUT_240_24_2_KINGCOBRA","KINGCOBRA",2,0.0416666666666667,240,"preference"
"ssfOUT_240_24_2_KINGCOBRA.28",1.68501658482716,0.678217027553402,2.69181614210091,"ssf","mf.ss","gamma","unif",50,"ssfOUT_240_24_2_KINGCOBRA","KINGCOBRA",2,0.0416666666666667,240,"preference"
"ssfOUT_240_24_2_KINGCOBRA.29",1.71776817881186,0.71223490709863,2.72330145052508,"ssf","mf.ss","gamma","unif",158,"ssfOUT_240_24_2_KINGCOBRA","KINGCOBRA",2,0.0416666666666667,240,"preference"
"ssfOUT_240_24_2_KINGCOBRA.30",1.69515616189785,0.689883357802568,2.70042896599313,"ssf","mf.ss","gamma","unif",500,"ssfOUT_240_24_2_KINGCOBRA","KINGCOBRA",2,0.0416666666666667,240,"preference"
"ssfOUT_240_24_2_KINGCOBRA.31",1.96143155498511,0.942480502861514,2.98038260710871,"ssf","mf.ss","exp","vonmises",5,"ssfOUT_240_24_2_KINGCOBRA","KINGCOBRA",2,0.0416666666666667,240,"preference"
"ssfOUT_240_24_2_KINGCOBRA.32",1.82480946074743,0.813588101240022,2.83603082025484,"ssf","mf.ss","exp","vonmises",15,"ssfOUT_240_24_2_KINGCOBRA","KINGCOBRA",2,0.0416666666666667,240,"preference"
"ssfOUT_240_24_2_KINGCOBRA.33",1.51587823451834,0.508438659820931,2.52331780921575,"ssf","mf.ss","exp","vonmises",50,"ssfOUT_240_24_2_KINGCOBRA","KINGCOBRA",2,0.0416666666666667,240,"preference"
"ssfOUT_240_24_2_KINGCOBRA.34",1.68159493512621,0.675591381531737,2.68759848872068,"ssf","mf.ss","exp","vonmises",158,"ssfOUT_240_24_2_KINGCOBRA","KINGCOBRA",2,0.0416666666666667,240,"preference"
"ssfOUT_240_24_2_KINGCOBRA.35",1.66086756035428,0.655395037449414,2.66634008325914,"ssf","mf.ss","exp","vonmises",500,"ssfOUT_240_24_2_KINGCOBRA","KINGCOBRA",2,0.0416666666666667,240,"preference"
"ssfOUT_240_24_2_KINGCOBRA.36",1.8572086621625,0.838687947763544,2.87572937656146,"ssf","mf.ss","exp","unif",5,"ssfOUT_240_24_2_KINGCOBRA","KINGCOBRA",2,0.0416666666666667,240,"preference"
"ssfOUT_240_24_2_KINGCOBRA.37",1.60594256734709,0.589588892365686,2.6222962423285,"ssf","mf.ss","exp","unif",15,"ssfOUT_240_24_2_KINGCOBRA","KINGCOBRA",2,0.0416666666666667,240,"preference"
"ssfOUT_240_24_2_KINGCOBRA.38",1.79297304969455,0.785758648103313,2.80018745128578,"ssf","mf.ss","exp","unif",50,"ssfOUT_240_24_2_KINGCOBRA","KINGCOBRA",2,0.0416666666666667,240,"preference"
"ssfOUT_240_24_2_KINGCOBRA.39",1.71549068150801,0.709166749798646,2.72181461321737,"ssf","mf.ss","exp","unif",158,"ssfOUT_240_24_2_KINGCOBRA","KINGCOBRA",2,0.0416666666666667,240,"preference"
"ssfOUT_240_24_2_KINGCOBRA.40",1.71828822110414,0.712869142830891,2.72370729937738,"ssf","mf.ss","exp","unif",500,"ssfOUT_240_24_2_KINGCOBRA","KINGCOBRA",2,0.0416666666666667,240,"preference"
"ssfOUT_240_24_3_BADGER.1",-0.534691375496859,-0.956173615145218,-0.113209135848499,"ssf","mf.is","gamma","vonmises",5,"ssfOUT_240_24_3_BADGER","BADGER",3,0.0416666666666667,240,"avoidance"
"ssfOUT_240_24_3_BADGER.2",-0.224348135440901,-0.583433276097888,0.134737005216087,"ssf","mf.is","gamma","vonmises",15,"ssfOUT_240_24_3_BADGER","BADGER",3,0.0416666666666667,240,"no effect"
"ssfOUT_240_24_3_BADGER.3",-0.309569622986289,-0.656050178229507,0.0369109322569289,"ssf","mf.is","gamma","vonmises",50,"ssfOUT_240_24_3_BADGER","BADGER",3,0.0416666666666667,240,"no effect"
"ssfOUT_240_24_3_BADGER.4",-0.319535615066389,-0.656820317037137,0.0177490869043593,"ssf","mf.is","gamma","vonmises",158,"ssfOUT_240_24_3_BADGER","BADGER",3,0.0416666666666667,240,"no effect"
"ssfOUT_240_24_3_BADGER.5",-0.34920255217861,-0.684351207479033,-0.0140538968781865,"ssf","mf.is","gamma","vonmises",500,"ssfOUT_240_24_3_BADGER","BADGER",3,0.0416666666666667,240,"avoidance"
"ssfOUT_240_24_3_BADGER.6",-0.24795432844135,-0.619555185510491,0.12364652862779,"ssf","mf.is","gamma","unif",5,"ssfOUT_240_24_3_BADGER","BADGER",3,0.0416666666666667,240,"no effect"
"ssfOUT_240_24_3_BADGER.7",-0.418627850124576,-0.76937894542462,-0.0678767548245328,"ssf","mf.is","gamma","unif",15,"ssfOUT_240_24_3_BADGER","BADGER",3,0.0416666666666667,240,"avoidance"
"ssfOUT_240_24_3_BADGER.8",-0.387220523286759,-0.727201225433375,-0.0472398211401437,"ssf","mf.is","gamma","unif",50,"ssfOUT_240_24_3_BADGER","BADGER",3,0.0416666666666667,240,"avoidance"
"ssfOUT_240_24_3_BADGER.9",-0.416289871010032,-0.752605610317353,-0.0799741317027114,"ssf","mf.is","gamma","unif",158,"ssfOUT_240_24_3_BADGER","BADGER",3,0.0416666666666667,240,"avoidance"
"ssfOUT_240_24_3_BADGER.10",-0.362509230225852,-0.69747973040831,-0.0275387300433951,"ssf","mf.is","gamma","unif",500,"ssfOUT_240_24_3_BADGER","BADGER",3,0.0416666666666667,240,"avoidance"
"ssfOUT_240_24_3_BADGER.11",-0.344266657327022,-0.780739769609154,0.0922064549551103,"ssf","mf.is","exp","vonmises",5,"ssfOUT_240_24_3_BADGER","BADGER",3,0.0416666666666667,240,"no effect"
"ssfOUT_240_24_3_BADGER.12",-0.16897977550303,-0.539114094872932,0.201154543866873,"ssf","mf.is","exp","vonmises",15,"ssfOUT_240_24_3_BADGER","BADGER",3,0.0416666666666667,240,"no effect"
"ssfOUT_240_24_3_BADGER.13",-0.236632665996725,-0.583763358940688,0.110498026947239,"ssf","mf.is","exp","vonmises",50,"ssfOUT_240_24_3_BADGER","BADGER",3,0.0416666666666667,240,"no effect"
"ssfOUT_240_24_3_BADGER.14",-0.342240315818391,-0.680047451586135,-0.00443318005064769,"ssf","mf.is","exp","vonmises",158,"ssfOUT_240_24_3_BADGER","BADGER",3,0.0416666666666667,240,"avoidance"
"ssfOUT_240_24_3_BADGER.15",-0.305310795312679,-0.640596326042839,0.0299747354174797,"ssf","mf.is","exp","vonmises",500,"ssfOUT_240_24_3_BADGER","BADGER",3,0.0416666666666667,240,"no effect"
"ssfOUT_240_24_3_BADGER.16",-0.91546039115045,-1.34451217874236,-0.486408603558543,"ssf","mf.is","exp","unif",5,"ssfOUT_240_24_3_BADGER","BADGER",3,0.0416666666666667,240,"avoidance"
"ssfOUT_240_24_3_BADGER.17",-0.134730316670628,-0.487918151029856,0.2184575176886,"ssf","mf.is","exp","unif",15,"ssfOUT_240_24_3_BADGER","BADGER",3,0.0416666666666667,240,"no effect"
"ssfOUT_240_24_3_BADGER.18",-0.303250230657687,-0.645401631515256,0.0389011701998817,"ssf","mf.is","exp","unif",50,"ssfOUT_240_24_3_BADGER","BADGER",3,0.0416666666666667,240,"no effect"
"ssfOUT_240_24_3_BADGER.19",-0.387595576715946,-0.723700303492072,-0.051490849939819,"ssf","mf.is","exp","unif",158,"ssfOUT_240_24_3_BADGER","BADGER",3,0.0416666666666667,240,"avoidance"
"ssfOUT_240_24_3_BADGER.20",-0.371318060087877,-0.70650462362817,-0.0361314965475844,"ssf","mf.is","exp","unif",500,"ssfOUT_240_24_3_BADGER","BADGER",3,0.0416666666666667,240,"avoidance"
"ssfOUT_240_24_3_BADGER.21",-0.661242705689681,-1.02998612074927,-0.292499290630091,"ssf","mf.ss","gamma","vonmises",5,"ssfOUT_240_24_3_BADGER","BADGER",3,0.0416666666666667,240,"avoidance"
"ssfOUT_240_24_3_BADGER.22",-0.374779517959045,-0.705693096334285,-0.0438659395838043,"ssf","mf.ss","gamma","vonmises",15,"ssfOUT_240_24_3_BADGER","BADGER",3,0.0416666666666667,240,"avoidance"
"ssfOUT_240_24_3_BADGER.23",-0.499386655614045,-0.822112915449916,-0.176660395778174,"ssf","mf.ss","gamma","vonmises",50,"ssfOUT_240_24_3_BADGER","BADGER",3,0.0416666666666667,240,"avoidance"
"ssfOUT_240_24_3_BADGER.24",-0.529218174449774,-0.848941202897025,-0.209495146002523,"ssf","mf.ss","gamma","vonmises",158,"ssfOUT_240_24_3_BADGER","BADGER",3,0.0416666666666667,240,"avoidance"
"ssfOUT_240_24_3_BADGER.25",-0.537623701459899,-0.856617844100254,-0.218629558819544,"ssf","mf.ss","gamma","vonmises",500,"ssfOUT_240_24_3_BADGER","BADGER",3,0.0416666666666667,240,"avoidance"
"ssfOUT_240_24_3_BADGER.26",-0.344257545101435,-0.696957357379366,0.00844226717649676,"ssf","mf.ss","gamma","unif",5,"ssfOUT_240_24_3_BADGER","BADGER",3,0.0416666666666667,240,"no effect"
"ssfOUT_240_24_3_BADGER.27",-0.522880526747882,-0.856765814933816,-0.188995238561947,"ssf","mf.ss","gamma","unif",15,"ssfOUT_240_24_3_BADGER","BADGER",3,0.0416666666666667,240,"avoidance"
"ssfOUT_240_24_3_BADGER.28",-0.488878893640075,-0.812670413387643,-0.165087373892506,"ssf","mf.ss","gamma","unif",50,"ssfOUT_240_24_3_BADGER","BADGER",3,0.0416666666666667,240,"avoidance"
"ssfOUT_240_24_3_BADGER.29",-0.519664369905483,-0.839690447634552,-0.199638292176413,"ssf","mf.ss","gamma","unif",158,"ssfOUT_240_24_3_BADGER","BADGER",3,0.0416666666666667,240,"avoidance"
"ssfOUT_240_24_3_BADGER.30",-0.500342331942859,-0.819726321587166,-0.180958342298552,"ssf","mf.ss","gamma","unif",500,"ssfOUT_240_24_3_BADGER","BADGER",3,0.0416666666666667,240,"avoidance"
"ssfOUT_240_24_3_BADGER.31",-0.563959164924011,-0.926081809797015,-0.201836520051007,"ssf","mf.ss","exp","vonmises",5,"ssfOUT_240_24_3_BADGER","BADGER",3,0.0416666666666667,240,"avoidance"
"ssfOUT_240_24_3_BADGER.32",-0.362313369159125,-0.693920153426094,-0.0307065848921548,"ssf","mf.ss","exp","vonmises",15,"ssfOUT_240_24_3_BADGER","BADGER",3,0.0416666666666667,240,"avoidance"
"ssfOUT_240_24_3_BADGER.33",-0.348866448138953,-0.674037000165874,-0.0236958961120314,"ssf","mf.ss","exp","vonmises",50,"ssfOUT_240_24_3_BADGER","BADGER",3,0.0416666666666667,240,"avoidance"
"ssfOUT_240_24_3_BADGER.34",-0.423291896385043,-0.746578451009521,-0.100005341760565,"ssf","mf.ss","exp","vonmises",158,"ssfOUT_240_24_3_BADGER","BADGER",3,0.0416666666666667,240,"avoidance"
"ssfOUT_240_24_3_BADGER.35",-0.434176970594066,-0.756588623079524,-0.111765318108608,"ssf","mf.ss","exp","vonmises",500,"ssfOUT_240_24_3_BADGER","BADGER",3,0.0416666666666667,240,"avoidance"
"ssfOUT_240_24_3_BADGER.36",-0.914849905284876,-1.29852528813384,-0.531174522435908,"ssf","mf.ss","exp","unif",5,"ssfOUT_240_24_3_BADGER","BADGER",3,0.0416666666666667,240,"avoidance"
"ssfOUT_240_24_3_BADGER.37",-0.215665995428577,-0.54917734530337,0.117845354446216,"ssf","mf.ss","exp","unif",15,"ssfOUT_240_24_3_BADGER","BADGER",3,0.0416666666666667,240,"no effect"
"ssfOUT_240_24_3_BADGER.38",-0.376422179638559,-0.704644351313807,-0.0482000079633106,"ssf","mf.ss","exp","unif",50,"ssfOUT_240_24_3_BADGER","BADGER",3,0.0416666666666667,240,"avoidance"
"ssfOUT_240_24_3_BADGER.39",-0.439626616199939,-0.762205473646458,-0.117047758753419,"ssf","mf.ss","exp","unif",158,"ssfOUT_240_24_3_BADGER","BADGER",3,0.0416666666666667,240,"avoidance"
"ssfOUT_240_24_3_BADGER.40",-0.423411135650189,-0.746105257892257,-0.100717013408122,"ssf","mf.ss","exp","unif",500,"ssfOUT_240_24_3_BADGER","BADGER",3,0.0416666666666667,240,"avoidance"
"ssfOUT_240_24_3_VULTURE.1",0.509600908637864,-0.00908665256349117,1.02828846983922,"ssf","mf.is","gamma","vonmises",5,"ssfOUT_240_24_3_VULTURE","VULTURE",3,0.0416666666666667,240,"no effect"
"ssfOUT_240_24_3_VULTURE.2",0.464624599648183,0.01768887562004,0.911560323676325,"ssf","mf.is","gamma","vonmises",15,"ssfOUT_240_24_3_VULTURE","VULTURE",3,0.0416666666666667,240,"preference"
"ssfOUT_240_24_3_VULTURE.3",0.46139660545433,0.0296884964907247,0.893104714417935,"ssf","mf.is","gamma","vonmises",50,"ssfOUT_240_24_3_VULTURE","VULTURE",3,0.0416666666666667,240,"preference"
"ssfOUT_240_24_3_VULTURE.4",0.43100827123481,0.0072611591653049,0.854755383304315,"ssf","mf.is","gamma","vonmises",158,"ssfOUT_240_24_3_VULTURE","VULTURE",3,0.0416666666666667,240,"preference"
"ssfOUT_240_24_3_VULTURE.5",0.360143155894797,-0.0609981236943087,0.781284435483902,"ssf","mf.is","gamma","vonmises",500,"ssfOUT_240_24_3_VULTURE","VULTURE",3,0.0416666666666667,240,"no effect"
"ssfOUT_240_24_3_VULTURE.6",0.422360740605672,-0.0378828950156403,0.882604376226984,"ssf","mf.is","gamma","unif",5,"ssfOUT_240_24_3_VULTURE","VULTURE",3,0.0416666666666667,240,"no effect"
"ssfOUT_240_24_3_VULTURE.7",0.368962162093904,-0.0661938174862272,0.804118141674036,"ssf","mf.is","gamma","unif",15,"ssfOUT_240_24_3_VULTURE","VULTURE",3,0.0416666666666667,240,"no effect"
"ssfOUT_240_24_3_VULTURE.8",0.460736549360622,0.0366048052441418,0.884868293477102,"ssf","mf.is","gamma","unif",50,"ssfOUT_240_24_3_VULTURE","VULTURE",3,0.0416666666666667,240,"preference"
"ssfOUT_240_24_3_VULTURE.9",0.450611260434251,0.0293035651567273,0.871918955711775,"ssf","mf.is","gamma","unif",158,"ssfOUT_240_24_3_VULTURE","VULTURE",3,0.0416666666666667,240,"preference"
"ssfOUT_240_24_3_VULTURE.10",0.394837293372963,-0.0257570712740985,0.815431658020024,"ssf","mf.is","gamma","unif",500,"ssfOUT_240_24_3_VULTURE","VULTURE",3,0.0416666666666667,240,"no effect"
"ssfOUT_240_24_3_VULTURE.11",-0.0272684621950385,-0.557901714744339,0.503364790354262,"ssf","mf.is","exp","vonmises",5,"ssfOUT_240_24_3_VULTURE","VULTURE",3,0.0416666666666667,240,"no effect"
"ssfOUT_240_24_3_VULTURE.12",0.568840883441894,0.107773287522372,1.02990847936142,"ssf","mf.is","exp","vonmises",15,"ssfOUT_240_24_3_VULTURE","VULTURE",3,0.0416666666666667,240,"preference"
"ssfOUT_240_24_3_VULTURE.13",0.328853388328629,-0.101755095782642,0.7594618724399,"ssf","mf.is","exp","vonmises",50,"ssfOUT_240_24_3_VULTURE","VULTURE",3,0.0416666666666667,240,"no effect"
"ssfOUT_240_24_3_VULTURE.14",0.455611382690628,0.0306447491755942,0.880578016205662,"ssf","mf.is","exp","vonmises",158,"ssfOUT_240_24_3_VULTURE","VULTURE",3,0.0416666666666667,240,"preference"
"ssfOUT_240_24_3_VULTURE.15",0.41243644754039,-0.00925624999598557,0.834129145076765,"ssf","mf.is","exp","vonmises",500,"ssfOUT_240_24_3_VULTURE","VULTURE",3,0.0416666666666667,240,"no effect"
"ssfOUT_240_24_3_VULTURE.16",0.514422287647692,0.0233485892074743,1.00549598608791,"ssf","mf.is","exp","unif",5,"ssfOUT_240_24_3_VULTURE","VULTURE",3,0.0416666666666667,240,"preference"
"ssfOUT_240_24_3_VULTURE.17",0.361162624658923,-0.0812435363517122,0.803568785669558,"ssf","mf.is","exp","unif",15,"ssfOUT_240_24_3_VULTURE","VULTURE",3,0.0416666666666667,240,"no effect"
"ssfOUT_240_24_3_VULTURE.18",0.557093528262801,0.131804871624314,0.982382184901288,"ssf","mf.is","exp","unif",50,"ssfOUT_240_24_3_VULTURE","VULTURE",3,0.0416666666666667,240,"preference"
"ssfOUT_240_24_3_VULTURE.19",0.352375433491669,-0.0697605973213872,0.774511464304726,"ssf","mf.is","exp","unif",158,"ssfOUT_240_24_3_VULTURE","VULTURE",3,0.0416666666666667,240,"no effect"
"ssfOUT_240_24_3_VULTURE.20",0.441518895170939,0.0206895272445741,0.862348263097304,"ssf","mf.is","exp","unif",500,"ssfOUT_240_24_3_VULTURE","VULTURE",3,0.0416666666666667,240,"preference"
"ssfOUT_240_24_3_VULTURE.21",0.31185035975572,-0.136492451272773,0.760193170784213,"ssf","mf.ss","gamma","vonmises",5,"ssfOUT_240_24_3_VULTURE","VULTURE",3,0.0416666666666667,240,"no effect"
"ssfOUT_240_24_3_VULTURE.22",0.207648936508137,-0.222380661299668,0.637678534315942,"ssf","mf.ss","gamma","vonmises",15,"ssfOUT_240_24_3_VULTURE","VULTURE",3,0.0416666666666667,240,"no effect"
"ssfOUT_240_24_3_VULTURE.23",0.240170838102325,-0.182066998134091,0.662408674338742,"ssf","mf.ss","gamma","vonmises",50,"ssfOUT_240_24_3_VULTURE","VULTURE",3,0.0416666666666667,240,"no effect"
"ssfOUT_240_24_3_VULTURE.24",0.210927137733204,-0.209585619917473,0.631439895383882,"ssf","mf.ss","gamma","vonmises",158,"ssfOUT_240_24_3_VULTURE","VULTURE",3,0.0416666666666667,240,"no effect"
"ssfOUT_240_24_3_VULTURE.25",0.165131717064604,-0.254416657005677,0.584680091134885,"ssf","mf.ss","gamma","vonmises",500,"ssfOUT_240_24_3_VULTURE","VULTURE",3,0.0416666666666667,240,"no effect"
"ssfOUT_240_24_3_VULTURE.26",0.295028380506728,-0.158925528732149,0.748982289745605,"ssf","mf.ss","gamma","unif",5,"ssfOUT_240_24_3_VULTURE","VULTURE",3,0.0416666666666667,240,"no effect"
"ssfOUT_240_24_3_VULTURE.27",0.276964901596603,-0.153721740159665,0.707651543352871,"ssf","mf.ss","gamma","unif",15,"ssfOUT_240_24_3_VULTURE","VULTURE",3,0.0416666666666667,240,"no effect"
"ssfOUT_240_24_3_VULTURE.28",0.34321638929448,-0.0791346295559847,0.765567408144944,"ssf","mf.ss","gamma","unif",50,"ssfOUT_240_24_3_VULTURE","VULTURE",3,0.0416666666666667,240,"no effect"
"ssfOUT_240_24_3_VULTURE.29",0.361675152887569,-0.0582057860684083,0.781556091843547,"ssf","mf.ss","gamma","unif",158,"ssfOUT_240_24_3_VULTURE","VULTURE",3,0.0416666666666667,240,"no effect"
"ssfOUT_240_24_3_VULTURE.30",0.322789663635988,-0.0966683306779491,0.742247657949925,"ssf","mf.ss","gamma","unif",500,"ssfOUT_240_24_3_VULTURE","VULTURE",3,0.0416666666666667,240,"no effect"
"ssfOUT_240_24_3_VULTURE.31",0.353924430827976,-0.108994199953466,0.816843061609419,"ssf","mf.ss","exp","vonmises",5,"ssfOUT_240_24_3_VULTURE","VULTURE",3,0.0416666666666667,240,"no effect"
"ssfOUT_240_24_3_VULTURE.32",0.379407286567513,-0.0513194098121885,0.810133982947214,"ssf","mf.ss","exp","vonmises",15,"ssfOUT_240_24_3_VULTURE","VULTURE",3,0.0416666666666667,240,"no effect"
"ssfOUT_240_24_3_VULTURE.33",0.182913601861418,-0.240394985885114,0.606222189607949,"ssf","mf.ss","exp","vonmises",50,"ssfOUT_240_24_3_VULTURE","VULTURE",3,0.0416666666666667,240,"no effect"
"ssfOUT_240_24_3_VULTURE.34",0.173102648112876,-0.248137613274471,0.594342909500222,"ssf","mf.ss","exp","vonmises",158,"ssfOUT_240_24_3_VULTURE","VULTURE",3,0.0416666666666667,240,"no effect"
"ssfOUT_240_24_3_VULTURE.35",0.178505318190238,-0.242165899727558,0.599176536108034,"ssf","mf.ss","exp","vonmises",500,"ssfOUT_240_24_3_VULTURE","VULTURE",3,0.0416666666666667,240,"no effect"
"ssfOUT_240_24_3_VULTURE.36",0.132198848031834,-0.325168171540026,0.589565867603693,"ssf","mf.ss","exp","unif",5,"ssfOUT_240_24_3_VULTURE","VULTURE",3,0.0416666666666667,240,"no effect"
"ssfOUT_240_24_3_VULTURE.37",0.227880319696626,-0.202666147093333,0.658426786486586,"ssf","mf.ss","exp","unif",15,"ssfOUT_240_24_3_VULTURE","VULTURE",3,0.0416666666666667,240,"no effect"
"ssfOUT_240_24_3_VULTURE.38",0.375793783663084,-0.0481884726384026,0.79977603996457,"ssf","mf.ss","exp","unif",50,"ssfOUT_240_24_3_VULTURE","VULTURE",3,0.0416666666666667,240,"no effect"
"ssfOUT_240_24_3_VULTURE.39",0.211560808413769,-0.210590027355006,0.633711644182544,"ssf","mf.ss","exp","unif",158,"ssfOUT_240_24_3_VULTURE","VULTURE",3,0.0416666666666667,240,"no effect"
"ssfOUT_240_24_3_VULTURE.40",0.258442164236141,-0.162614657029442,0.679498985501724,"ssf","mf.ss","exp","unif",500,"ssfOUT_240_24_3_VULTURE","VULTURE",3,0.0416666666666667,240,"no effect"
"ssfOUT_240_24_3_KINGCOBRA.1",-0.986750182924014,-1.55754526747481,-0.415955098373218,"ssf","mf.is","gamma","vonmises",5,"ssfOUT_240_24_3_KINGCOBRA","KINGCOBRA",3,0.0416666666666667,240,"avoidance"
"ssfOUT_240_24_3_KINGCOBRA.2",-0.559485226777593,-1.05978171116843,-0.0591887423867549,"ssf","mf.is","gamma","vonmises",15,"ssfOUT_240_24_3_KINGCOBRA","KINGCOBRA",3,0.0416666666666667,240,"avoidance"
"ssfOUT_240_24_3_KINGCOBRA.3",-0.274218711979578,-0.75307326291276,0.204635838953603,"ssf","mf.is","gamma","vonmises",50,"ssfOUT_240_24_3_KINGCOBRA","KINGCOBRA",3,0.0416666666666667,240,"no effect"
"ssfOUT_240_24_3_KINGCOBRA.4",-0.273836723835795,-0.738756645136042,0.191083197464453,"ssf","mf.is","gamma","vonmises",158,"ssfOUT_240_24_3_KINGCOBRA","KINGCOBRA",3,0.0416666666666667,240,"no effect"
"ssfOUT_240_24_3_KINGCOBRA.5",-0.221303413593396,-0.683403528502043,0.24079670131525,"ssf","mf.is","gamma","vonmises",500,"ssfOUT_240_24_3_KINGCOBRA","KINGCOBRA",3,0.0416666666666667,240,"no effect"
"ssfOUT_240_24_3_KINGCOBRA.6",-0.401771208464246,-0.95089945337712,0.147357036448629,"ssf","mf.is","gamma","unif",5,"ssfOUT_240_24_3_KINGCOBRA","KINGCOBRA",3,0.0416666666666667,240,"no effect"
"ssfOUT_240_24_3_KINGCOBRA.7",-0.353755656024619,-0.84564880757488,0.138137495525641,"ssf","mf.is","gamma","unif",15,"ssfOUT_240_24_3_KINGCOBRA","KINGCOBRA",3,0.0416666666666667,240,"no effect"
"ssfOUT_240_24_3_KINGCOBRA.8",-0.375396422604075,-0.846202870458042,0.0954100252498926,"ssf","mf.is","gamma","unif",50,"ssfOUT_240_24_3_KINGCOBRA","KINGCOBRA",3,0.0416666666666667,240,"no effect"
"ssfOUT_240_24_3_KINGCOBRA.9",-0.295434984575413,-0.75807916516445,0.167209196013623,"ssf","mf.is","gamma","unif",158,"ssfOUT_240_24_3_KINGCOBRA","KINGCOBRA",3,0.0416666666666667,240,"no effect"
"ssfOUT_240_24_3_KINGCOBRA.10",-0.280494615957648,-0.742211129664802,0.181221897749506,"ssf","mf.is","gamma","unif",500,"ssfOUT_240_24_3_KINGCOBRA","KINGCOBRA",3,0.0416666666666667,240,"no effect"
"ssfOUT_240_24_3_KINGCOBRA.11",-0.673896001424641,-1.25729275420338,-0.0904992486459046,"ssf","mf.is","exp","vonmises",5,"ssfOUT_240_24_3_KINGCOBRA","KINGCOBRA",3,0.0416666666666667,240,"avoidance"
"ssfOUT_240_24_3_KINGCOBRA.12",-0.448976578334246,-0.970648864581385,0.0726957079128929,"ssf","mf.is","exp","vonmises",15,"ssfOUT_240_24_3_KINGCOBRA","KINGCOBRA",3,0.0416666666666667,240,"no effect"
"ssfOUT_240_24_3_KINGCOBRA.13",-0.0870564371909769,-0.566273939528926,0.392161065146972,"ssf","mf.is","exp","vonmises",50,"ssfOUT_240_24_3_KINGCOBRA","KINGCOBRA",3,0.0416666666666667,240,"no effect"
"ssfOUT_240_24_3_KINGCOBRA.14",-0.135378686531487,-0.601386957937435,0.330629584874461,"ssf","mf.is","exp","vonmises",158,"ssfOUT_240_24_3_KINGCOBRA","KINGCOBRA",3,0.0416666666666667,240,"no effect"
"ssfOUT_240_24_3_KINGCOBRA.15",-0.237459333844523,-0.700335322178366,0.225416654489319,"ssf","mf.is","exp","vonmises",500,"ssfOUT_240_24_3_KINGCOBRA","KINGCOBRA",3,0.0416666666666667,240,"no effect"
"ssfOUT_240_24_3_KINGCOBRA.16",-1.04139252688203,-1.61738333793313,-0.465401715830927,"ssf","mf.is","exp","unif",5,"ssfOUT_240_24_3_KINGCOBRA","KINGCOBRA",3,0.0416666666666667,240,"avoidance"
"ssfOUT_240_24_3_KINGCOBRA.17",-0.44220254179605,-0.947770485572788,0.0633654019806872,"ssf","mf.is","exp","unif",15,"ssfOUT_240_24_3_KINGCOBRA","KINGCOBRA",3,0.0416666666666667,240,"no effect"
"ssfOUT_240_24_3_KINGCOBRA.18",-0.309066250921459,-0.778376780810542,0.160244278967624,"ssf","mf.is","exp","unif",50,"ssfOUT_240_24_3_KINGCOBRA","KINGCOBRA",3,0.0416666666666667,240,"no effect"
"ssfOUT_240_24_3_KINGCOBRA.19",-0.171461082323578,-0.635592180991298,0.292670016344143,"ssf","mf.is","exp","unif",158,"ssfOUT_240_24_3_KINGCOBRA","KINGCOBRA",3,0.0416666666666667,240,"no effect"
"ssfOUT_240_24_3_KINGCOBRA.20",-0.272132643292639,-0.734529891451659,0.190264604866381,"ssf","mf.is","exp","unif",500,"ssfOUT_240_24_3_KINGCOBRA","KINGCOBRA",3,0.0416666666666667,240,"no effect"
"ssfOUT_240_24_3_KINGCOBRA.21",-0.450534224937147,-0.991341783413381,0.0902733335390872,"ssf","mf.ss","gamma","vonmises",5,"ssfOUT_240_24_3_KINGCOBRA","KINGCOBRA",3,0.0416666666666667,240,"no effect"
"ssfOUT_240_24_3_KINGCOBRA.22",-0.414592390146461,-0.898624288433992,0.0694395081410694,"ssf","mf.ss","gamma","vonmises",15,"ssfOUT_240_24_3_KINGCOBRA","KINGCOBRA",3,0.0416666666666667,240,"no effect"
"ssfOUT_240_24_3_KINGCOBRA.23",-0.490214060588702,-0.960406735676707,-0.0200213855006983,"ssf","mf.ss","gamma","vonmises",50,"ssfOUT_240_24_3_KINGCOBRA","KINGCOBRA",3,0.0416666666666667,240,"avoidance"
"ssfOUT_240_24_3_KINGCOBRA.24",-0.541583824432536,-1.00158554611056,-0.0815821027545161,"ssf","mf.ss","gamma","vonmises",158,"ssfOUT_240_24_3_KINGCOBRA","KINGCOBRA",3,0.0416666666666667,240,"avoidance"
"ssfOUT_240_24_3_KINGCOBRA.25",-0.514139351779121,-0.97251291265096,-0.055765790907282,"ssf","mf.ss","gamma","vonmises",500,"ssfOUT_240_24_3_KINGCOBRA","KINGCOBRA",3,0.0416666666666667,240,"avoidance"
"ssfOUT_240_24_3_KINGCOBRA.26",-0.280223817692454,-0.816517327605806,0.256069692220897,"ssf","mf.ss","gamma","unif",5,"ssfOUT_240_24_3_KINGCOBRA","KINGCOBRA",3,0.0416666666666667,240,"no effect"
"ssfOUT_240_24_3_KINGCOBRA.27",-0.307687061273685,-0.791654122142693,0.176279999595324,"ssf","mf.ss","gamma","unif",15,"ssfOUT_240_24_3_KINGCOBRA","KINGCOBRA",3,0.0416666666666667,240,"no effect"
"ssfOUT_240_24_3_KINGCOBRA.28",-0.49508071316319,-0.960033495580029,-0.0301279307463501,"ssf","mf.ss","gamma","unif",50,"ssfOUT_240_24_3_KINGCOBRA","KINGCOBRA",3,0.0416666666666667,240,"avoidance"
"ssfOUT_240_24_3_KINGCOBRA.29",-0.441198059788384,-0.899962694327187,0.0175665747504201,"ssf","mf.ss","gamma","unif",158,"ssfOUT_240_24_3_KINGCOBRA","KINGCOBRA",3,0.0416666666666667,240,"no effect"
"ssfOUT_240_24_3_KINGCOBRA.30",-0.427008053009165,-0.885312972815053,0.0312968667967221,"ssf","mf.ss","gamma","unif",500,"ssfOUT_240_24_3_KINGCOBRA","KINGCOBRA",3,0.0416666666666667,240,"no effect"
"ssfOUT_240_24_3_KINGCOBRA.31",-0.335018012946994,-0.863222759446703,0.193186733552715,"ssf","mf.ss","exp","vonmises",5,"ssfOUT_240_24_3_KINGCOBRA","KINGCOBRA",3,0.0416666666666667,240,"no effect"
"ssfOUT_240_24_3_KINGCOBRA.32",-0.442678674699929,-0.925067281052115,0.0397099316522563,"ssf","mf.ss","exp","vonmises",15,"ssfOUT_240_24_3_KINGCOBRA","KINGCOBRA",3,0.0416666666666667,240,"no effect"
"ssfOUT_240_24_3_KINGCOBRA.33",-0.251720265730392,-0.718179195253183,0.214738663792399,"ssf","mf.ss","exp","vonmises",50,"ssfOUT_240_24_3_KINGCOBRA","KINGCOBRA",3,0.0416666666666667,240,"no effect"
"ssfOUT_240_24_3_KINGCOBRA.34",-0.330148531695827,-0.791488881851688,0.131191818460034,"ssf","mf.ss","exp","vonmises",158,"ssfOUT_240_24_3_KINGCOBRA","KINGCOBRA",3,0.0416666666666667,240,"no effect"
"ssfOUT_240_24_3_KINGCOBRA.35",-0.457345773477265,-0.916730629406182,0.00203908245165119,"ssf","mf.ss","exp","vonmises",500,"ssfOUT_240_24_3_KINGCOBRA","KINGCOBRA",3,0.0416666666666667,240,"no effect"
"ssfOUT_240_24_3_KINGCOBRA.36",-0.586120780072911,-1.13264129098656,-0.0396002691592598,"ssf","mf.ss","exp","unif",5,"ssfOUT_240_24_3_KINGCOBRA","KINGCOBRA",3,0.0416666666666667,240,"avoidance"
"ssfOUT_240_24_3_KINGCOBRA.37",-0.347520381779364,-0.835958162686806,0.140917399128079,"ssf","mf.ss","exp","unif",15,"ssfOUT_240_24_3_KINGCOBRA","KINGCOBRA",3,0.0416666666666667,240,"no effect"
"ssfOUT_240_24_3_KINGCOBRA.38",-0.322843948582277,-0.78681219758458,0.141124300420026,"ssf","mf.ss","exp","unif",50,"ssfOUT_240_24_3_KINGCOBRA","KINGCOBRA",3,0.0416666666666667,240,"no effect"
"ssfOUT_240_24_3_KINGCOBRA.39",-0.256819033445107,-0.717606705178473,0.203968638288258,"ssf","mf.ss","exp","unif",158,"ssfOUT_240_24_3_KINGCOBRA","KINGCOBRA",3,0.0416666666666667,240,"no effect"
"ssfOUT_240_24_3_KINGCOBRA.40",-0.313014730356288,-0.772869194603297,0.146839733890722,"ssf","mf.ss","exp","unif",500,"ssfOUT_240_24_3_KINGCOBRA","KINGCOBRA",3,0.0416666666666667,240,"no effect"
"ssfOUT_240_24_4_BADGER.1",-0.937367012228594,-1.3718037274708,-0.502930296986393,"ssf","mf.is","gamma","vonmises",5,"ssfOUT_240_24_4_BADGER","BADGER",4,0.0416666666666667,240,"avoidance"
"ssfOUT_240_24_4_BADGER.2",-0.667444126625095,-1.0292024920053,-0.305685761244892,"ssf","mf.is","gamma","vonmises",15,"ssfOUT_240_24_4_BADGER","BADGER",4,0.0416666666666667,240,"avoidance"
"ssfOUT_240_24_4_BADGER.3",-0.930592889972682,-1.2721536212559,-0.589032158689468,"ssf","mf.is","gamma","vonmises",50,"ssfOUT_240_24_4_BADGER","BADGER",4,0.0416666666666667,240,"avoidance"
"ssfOUT_240_24_4_BADGER.4",-0.770132729162596,-1.09768206759986,-0.442583390725337,"ssf","mf.is","gamma","vonmises",158,"ssfOUT_240_24_4_BADGER","BADGER",4,0.0416666666666667,240,"avoidance"
"ssfOUT_240_24_4_BADGER.5",-0.766671210239195,-1.09099610547675,-0.442346315001635,"ssf","mf.is","gamma","vonmises",500,"ssfOUT_240_24_4_BADGER","BADGER",4,0.0416666666666667,240,"avoidance"
"ssfOUT_240_24_4_BADGER.6",-0.886912874342116,-1.2789801841556,-0.494845564528627,"ssf","mf.is","gamma","unif",5,"ssfOUT_240_24_4_BADGER","BADGER",4,0.0416666666666667,240,"avoidance"
"ssfOUT_240_24_4_BADGER.7",-1.1480408406953,-1.49666264192635,-0.799419039464247,"ssf","mf.is","gamma","unif",15,"ssfOUT_240_24_4_BADGER","BADGER",4,0.0416666666666667,240,"avoidance"
"ssfOUT_240_24_4_BADGER.8",-0.816078813997839,-1.14735976075843,-0.484797867237244,"ssf","mf.is","gamma","unif",50,"ssfOUT_240_24_4_BADGER","BADGER",4,0.0416666666666667,240,"avoidance"
"ssfOUT_240_24_4_BADGER.9",-0.774192767296473,-1.09909060137487,-0.44929493321808,"ssf","mf.is","gamma","unif",158,"ssfOUT_240_24_4_BADGER","BADGER",4,0.0416666666666667,240,"avoidance"
"ssfOUT_240_24_4_BADGER.10",-0.8239588406161,-1.14740942423239,-0.500508256999807,"ssf","mf.is","gamma","unif",500,"ssfOUT_240_24_4_BADGER","BADGER",4,0.0416666666666667,240,"avoidance"
"ssfOUT_240_24_4_BADGER.11",-1.16721830349183,-1.62486077022112,-0.709575836762536,"ssf","mf.is","exp","vonmises",5,"ssfOUT_240_24_4_BADGER","BADGER",4,0.0416666666666667,240,"avoidance"
"ssfOUT_240_24_4_BADGER.12",-0.865082519260717,-1.23795965497428,-0.492205383547153,"ssf","mf.is","exp","vonmises",15,"ssfOUT_240_24_4_BADGER","BADGER",4,0.0416666666666667,240,"avoidance"
"ssfOUT_240_24_4_BADGER.13",-0.808388272502573,-1.14478460028601,-0.471991944719133,"ssf","mf.is","exp","vonmises",50,"ssfOUT_240_24_4_BADGER","BADGER",4,0.0416666666666667,240,"avoidance"
"ssfOUT_240_24_4_BADGER.14",-0.892217853257635,-1.22007573748511,-0.564359969030164,"ssf","mf.is","exp","vonmises",158,"ssfOUT_240_24_4_BADGER","BADGER",4,0.0416666666666667,240,"avoidance"
"ssfOUT_240_24_4_BADGER.15",-0.750454836036064,-1.07541817070201,-0.425491501370118,"ssf","mf.is","exp","vonmises",500,"ssfOUT_240_24_4_BADGER","BADGER",4,0.0416666666666667,240,"avoidance"
"ssfOUT_240_24_4_BADGER.16",-0.670838451751776,-1.07203814615425,-0.269638757349305,"ssf","mf.is","exp","unif",5,"ssfOUT_240_24_4_BADGER","BADGER",4,0.0416666666666667,240,"avoidance"
"ssfOUT_240_24_4_BADGER.17",-0.932675283759304,-1.29256162028956,-0.572788947229045,"ssf","mf.is","exp","unif",15,"ssfOUT_240_24_4_BADGER","BADGER",4,0.0416666666666667,240,"avoidance"
"ssfOUT_240_24_4_BADGER.18",-0.687225115646766,-1.01608755968445,-0.358362671609086,"ssf","mf.is","exp","unif",50,"ssfOUT_240_24_4_BADGER","BADGER",4,0.0416666666666667,240,"avoidance"
"ssfOUT_240_24_4_BADGER.19",-0.819475191941909,-1.14536166249414,-0.493588721389674,"ssf","mf.is","exp","unif",158,"ssfOUT_240_24_4_BADGER","BADGER",4,0.0416666666666667,240,"avoidance"
"ssfOUT_240_24_4_BADGER.20",-0.748519910025304,-1.07209380472815,-0.424946015322454,"ssf","mf.is","exp","unif",500,"ssfOUT_240_24_4_BADGER","BADGER",4,0.0416666666666667,240,"avoidance"
"ssfOUT_240_24_4_BADGER.21",-0.788796116883625,-1.16254664375423,-0.415045590013025,"ssf","mf.ss","gamma","vonmises",5,"ssfOUT_240_24_4_BADGER","BADGER",4,0.0416666666666667,240,"avoidance"
"ssfOUT_240_24_4_BADGER.22",-0.634685087595118,-0.971431146995291,-0.297939028194946,"ssf","mf.ss","gamma","vonmises",15,"ssfOUT_240_24_4_BADGER","BADGER",4,0.0416666666666667,240,"avoidance"
"ssfOUT_240_24_4_BADGER.23",-0.769378814798574,-1.09663493664668,-0.442122692950472,"ssf","mf.ss","gamma","vonmises",50,"ssfOUT_240_24_4_BADGER","BADGER",4,0.0416666666666667,240,"avoidance"
"ssfOUT_240_24_4_BADGER.24",-0.756253581841439,-1.07939761727788,-0.433109546405001,"ssf","mf.ss","gamma","vonmises",158,"ssfOUT_240_24_4_BADGER","BADGER",4,0.0416666666666667,240,"avoidance"
"ssfOUT_240_24_4_BADGER.25",-0.741622606111778,-1.06313301196385,-0.420112200259703,"ssf","mf.ss","gamma","vonmises",500,"ssfOUT_240_24_4_BADGER","BADGER",4,0.0416666666666667,240,"avoidance"
"ssfOUT_240_24_4_BADGER.26",-0.756791330988471,-1.12975578921526,-0.383826872761682,"ssf","mf.ss","gamma","unif",5,"ssfOUT_240_24_4_BADGER","BADGER",4,0.0416666666666667,240,"avoidance"
"ssfOUT_240_24_4_BADGER.27",-0.953512412650926,-1.29277134102593,-0.614253484275922,"ssf","mf.ss","gamma","unif",15,"ssfOUT_240_24_4_BADGER","BADGER",4,0.0416666666666667,240,"avoidance"
"ssfOUT_240_24_4_BADGER.28",-0.746802018091468,-1.07289144527171,-0.420712590911222,"ssf","mf.ss","gamma","unif",50,"ssfOUT_240_24_4_BADGER","BADGER",4,0.0416666666666667,240,"avoidance"
"ssfOUT_240_24_4_BADGER.29",-0.745858702996557,-1.06841826999702,-0.42329913599609,"ssf","mf.ss","gamma","unif",158,"ssfOUT_240_24_4_BADGER","BADGER",4,0.0416666666666667,240,"avoidance"
"ssfOUT_240_24_4_BADGER.30",-0.793211910625277,-1.11462231844319,-0.471801502807362,"ssf","mf.ss","gamma","unif",500,"ssfOUT_240_24_4_BADGER","BADGER",4,0.0416666666666667,240,"avoidance"
"ssfOUT_240_24_4_BADGER.31",-0.671295354382811,-1.04796285527519,-0.294627853490434,"ssf","mf.ss","exp","vonmises",5,"ssfOUT_240_24_4_BADGER","BADGER",4,0.0416666666666667,240,"avoidance"
"ssfOUT_240_24_4_BADGER.32",-0.641983889998386,-0.978912950437759,-0.305054829559013,"ssf","mf.ss","exp","vonmises",15,"ssfOUT_240_24_4_BADGER","BADGER",4,0.0416666666666667,240,"avoidance"
"ssfOUT_240_24_4_BADGER.33",-0.657994761214377,-0.985680503212082,-0.330309019216673,"ssf","mf.ss","exp","vonmises",50,"ssfOUT_240_24_4_BADGER","BADGER",4,0.0416666666666667,240,"avoidance"
"ssfOUT_240_24_4_BADGER.34",-0.624218702365919,-0.949245275533313,-0.299192129198526,"ssf","mf.ss","exp","vonmises",158,"ssfOUT_240_24_4_BADGER","BADGER",4,0.0416666666666667,240,"avoidance"
"ssfOUT_240_24_4_BADGER.35",-0.645900834526573,-0.970094628852162,-0.321707040200983,"ssf","mf.ss","exp","vonmises",500,"ssfOUT_240_24_4_BADGER","BADGER",4,0.0416666666666667,240,"avoidance"
"ssfOUT_240_24_4_BADGER.36",-0.61423833987871,-0.980309551616227,-0.248167128141193,"ssf","mf.ss","exp","unif",5,"ssfOUT_240_24_4_BADGER","BADGER",4,0.0416666666666667,240,"avoidance"
"ssfOUT_240_24_4_BADGER.37",-0.738083455940331,-1.08103161257981,-0.39513529930085,"ssf","mf.ss","exp","unif",15,"ssfOUT_240_24_4_BADGER","BADGER",4,0.0416666666666667,240,"avoidance"
"ssfOUT_240_24_4_BADGER.38",-0.621728533551876,-0.948414113580378,-0.295042953523375,"ssf","mf.ss","exp","unif",50,"ssfOUT_240_24_4_BADGER","BADGER",4,0.0416666666666667,240,"avoidance"
"ssfOUT_240_24_4_BADGER.39",-0.659308356873256,-0.984966573991555,-0.333650139754957,"ssf","mf.ss","exp","unif",158,"ssfOUT_240_24_4_BADGER","BADGER",4,0.0416666666666667,240,"avoidance"
"ssfOUT_240_24_4_BADGER.40",-0.606264416483787,-0.930500618062086,-0.282028214905488,"ssf","mf.ss","exp","unif",500,"ssfOUT_240_24_4_BADGER","BADGER",4,0.0416666666666667,240,"avoidance"
"ssfOUT_240_24_4_VULTURE.1",0.837607373457488,0.315199165965958,1.36001558094902,"ssf","mf.is","gamma","vonmises",5,"ssfOUT_240_24_4_VULTURE","VULTURE",4,0.0416666666666667,240,"preference"
"ssfOUT_240_24_4_VULTURE.2",0.390858048896964,-0.0920611781690069,0.873777275962934,"ssf","mf.is","gamma","vonmises",15,"ssfOUT_240_24_4_VULTURE","VULTURE",4,0.0416666666666667,240,"no effect"
"ssfOUT_240_24_4_VULTURE.3",0.545449076218011,0.0792160908105221,1.0116820616255,"ssf","mf.is","gamma","vonmises",50,"ssfOUT_240_24_4_VULTURE","VULTURE",4,0.0416666666666667,240,"preference"
"ssfOUT_240_24_4_VULTURE.4",0.620894169558856,0.159830321821118,1.08195801729659,"ssf","mf.is","gamma","vonmises",158,"ssfOUT_240_24_4_VULTURE","VULTURE",4,0.0416666666666667,240,"preference"
"ssfOUT_240_24_4_VULTURE.5",0.537141890659547,0.0779761676872583,0.996307613631835,"ssf","mf.is","gamma","vonmises",500,"ssfOUT_240_24_4_VULTURE","VULTURE",4,0.0416666666666667,240,"preference"
"ssfOUT_240_24_4_VULTURE.6",0.443792817264898,-0.0469940763319927,0.934579710861788,"ssf","mf.is","gamma","unif",5,"ssfOUT_240_24_4_VULTURE","VULTURE",4,0.0416666666666667,240,"no effect"
"ssfOUT_240_24_4_VULTURE.7",0.458663467029003,-0.0163175863066793,0.933644520364685,"ssf","mf.is","gamma","unif",15,"ssfOUT_240_24_4_VULTURE","VULTURE",4,0.0416666666666667,240,"no effect"
"ssfOUT_240_24_4_VULTURE.8",0.643323903473936,0.181547042096497,1.10510076485137,"ssf","mf.is","gamma","unif",50,"ssfOUT_240_24_4_VULTURE","VULTURE",4,0.0416666666666667,240,"preference"
"ssfOUT_240_24_4_VULTURE.9",0.502612349781343,0.0432569438882195,0.961967755674466,"ssf","mf.is","gamma","unif",158,"ssfOUT_240_24_4_VULTURE","VULTURE",4,0.0416666666666667,240,"preference"
"ssfOUT_240_24_4_VULTURE.10",0.55970606836636,0.100795110677023,1.0186170260557,"ssf","mf.is","gamma","unif",500,"ssfOUT_240_24_4_VULTURE","VULTURE",4,0.0416666666666667,240,"preference"
"ssfOUT_240_24_4_VULTURE.11",0.5385389685455,-0.0523447808493357,1.12942271794034,"ssf","mf.is","exp","vonmises",5,"ssfOUT_240_24_4_VULTURE","VULTURE",4,0.0416666666666667,240,"no effect"
"ssfOUT_240_24_4_VULTURE.12",0.696579901332049,0.206603295957076,1.18655650670702,"ssf","mf.is","exp","vonmises",15,"ssfOUT_240_24_4_VULTURE","VULTURE",4,0.0416666666666667,240,"preference"
"ssfOUT_240_24_4_VULTURE.13",0.452141968288578,-0.0224800886057416,0.926764025182898,"ssf","mf.is","exp","vonmises",50,"ssfOUT_240_24_4_VULTURE","VULTURE",4,0.0416666666666667,240,"no effect"
"ssfOUT_240_24_4_VULTURE.14",0.523552063488921,0.0617937534587984,0.985310373519044,"ssf","mf.is","exp","vonmises",158,"ssfOUT_240_24_4_VULTURE","VULTURE",4,0.0416666666666667,240,"preference"
"ssfOUT_240_24_4_VULTURE.15",0.549654507263233,0.0900808341867867,1.00922818033968,"ssf","mf.is","exp","vonmises",500,"ssfOUT_240_24_4_VULTURE","VULTURE",4,0.0416666666666667,240,"preference"
"ssfOUT_240_24_4_VULTURE.16",0.46887935124994,-0.0464097962646509,0.984168498764531,"ssf","mf.is","exp","unif",5,"ssfOUT_240_24_4_VULTURE","VULTURE",4,0.0416666666666667,240,"no effect"
"ssfOUT_240_24_4_VULTURE.17",0.7010308365167,0.223573369913038,1.17848830312036,"ssf","mf.is","exp","unif",15,"ssfOUT_240_24_4_VULTURE","VULTURE",4,0.0416666666666667,240,"preference"
"ssfOUT_240_24_4_VULTURE.18",0.602040454644941,0.139884799621329,1.06419610966855,"ssf","mf.is","exp","unif",50,"ssfOUT_240_24_4_VULTURE","VULTURE",4,0.0416666666666667,240,"preference"
"ssfOUT_240_24_4_VULTURE.19",0.550171874761922,0.0901406999241985,1.01020304959964,"ssf","mf.is","exp","unif",158,"ssfOUT_240_24_4_VULTURE","VULTURE",4,0.0416666666666667,240,"preference"
"ssfOUT_240_24_4_VULTURE.20",0.592571756810781,0.133745898920926,1.05139761470064,"ssf","mf.is","exp","unif",500,"ssfOUT_240_24_4_VULTURE","VULTURE",4,0.0416666666666667,240,"preference"
"ssfOUT_240_24_4_VULTURE.21",0.657381789235578,0.177302428654552,1.1374611498166,"ssf","mf.ss","gamma","vonmises",5,"ssfOUT_240_24_4_VULTURE","VULTURE",4,0.0416666666666667,240,"preference"
"ssfOUT_240_24_4_VULTURE.22",0.360474555101096,-0.108328244649561,0.829277354851753,"ssf","mf.ss","gamma","vonmises",15,"ssfOUT_240_24_4_VULTURE","VULTURE",4,0.0416666666666667,240,"no effect"
"ssfOUT_240_24_4_VULTURE.23",0.489642454115775,0.0282614827526792,0.95102342547887,"ssf","mf.ss","gamma","vonmises",50,"ssfOUT_240_24_4_VULTURE","VULTURE",4,0.0416666666666667,240,"preference"
"ssfOUT_240_24_4_VULTURE.24",0.553461687407413,0.0945187672132202,1.0124046076016,"ssf","mf.ss","gamma","vonmises",158,"ssfOUT_240_24_4_VULTURE","VULTURE",4,0.0416666666666667,240,"preference"
"ssfOUT_240_24_4_VULTURE.25",0.486823574316356,0.0283889280059025,0.94525822062681,"ssf","mf.ss","gamma","vonmises",500,"ssfOUT_240_24_4_VULTURE","VULTURE",4,0.0416666666666667,240,"preference"
"ssfOUT_240_24_4_VULTURE.26",0.489961612735495,0.00734240522151047,0.97258082024948,"ssf","mf.ss","gamma","unif",5,"ssfOUT_240_24_4_VULTURE","VULTURE",4,0.0416666666666667,240,"preference"
"ssfOUT_240_24_4_VULTURE.27",0.452598844406187,-0.0167944052837004,0.921992094096075,"ssf","mf.ss","gamma","unif",15,"ssfOUT_240_24_4_VULTURE","VULTURE",4,0.0416666666666667,240,"no effect"
"ssfOUT_240_24_4_VULTURE.28",0.583188491797814,0.122796804001753,1.04358017959387,"ssf","mf.ss","gamma","unif",50,"ssfOUT_240_24_4_VULTURE","VULTURE",4,0.0416666666666667,240,"preference"
"ssfOUT_240_24_4_VULTURE.29",0.50024067535925,0.041415994230723,0.959065356487778,"ssf","mf.ss","gamma","unif",158,"ssfOUT_240_24_4_VULTURE","VULTURE",4,0.0416666666666667,240,"preference"
"ssfOUT_240_24_4_VULTURE.30",0.528046200274675,0.0697242075461652,0.986368193003185,"ssf","mf.ss","gamma","unif",500,"ssfOUT_240_24_4_VULTURE","VULTURE",4,0.0416666666666667,240,"preference"
"ssfOUT_240_24_4_VULTURE.31",0.266979480319759,-0.230631366302729,0.764590326942246,"ssf","mf.ss","exp","vonmises",5,"ssfOUT_240_24_4_VULTURE","VULTURE",4,0.0416666666666667,240,"no effect"
"ssfOUT_240_24_4_VULTURE.32",0.565088672289894,0.0975874813103696,1.03258986326942,"ssf","mf.ss","exp","vonmises",15,"ssfOUT_240_24_4_VULTURE","VULTURE",4,0.0416666666666667,240,"preference"
"ssfOUT_240_24_4_VULTURE.33",0.43970439864317,-0.0224826357120725,0.901891432998412,"ssf","mf.ss","exp","vonmises",50,"ssfOUT_240_24_4_VULTURE","VULTURE",4,0.0416666666666667,240,"no effect"
"ssfOUT_240_24_4_VULTURE.34",0.487406696472198,0.0275585986463796,0.947254794298016,"ssf","mf.ss","exp","vonmises",158,"ssfOUT_240_24_4_VULTURE","VULTURE",4,0.0416666666666667,240,"preference"
"ssfOUT_240_24_4_VULTURE.35",0.461498521612682,0.0021840668424748,0.920812976382889,"ssf","mf.ss","exp","vonmises",500,"ssfOUT_240_24_4_VULTURE","VULTURE",4,0.0416666666666667,240,"preference"
"ssfOUT_240_24_4_VULTURE.36",0.327695910994954,-0.166137311697353,0.821529133687261,"ssf","mf.ss","exp","unif",5,"ssfOUT_240_24_4_VULTURE","VULTURE",4,0.0416666666666667,240,"no effect"
"ssfOUT_240_24_4_VULTURE.37",0.432191918500393,-0.0386225351071421,0.903006372107928,"ssf","mf.ss","exp","unif",15,"ssfOUT_240_24_4_VULTURE","VULTURE",4,0.0416666666666667,240,"no effect"
"ssfOUT_240_24_4_VULTURE.38",0.494482987997714,0.0331689869840804,0.955796989011348,"ssf","mf.ss","exp","unif",50,"ssfOUT_240_24_4_VULTURE","VULTURE",4,0.0416666666666667,240,"preference"
"ssfOUT_240_24_4_VULTURE.39",0.450217493206608,-0.00970135705912034,0.910136343472336,"ssf","mf.ss","exp","unif",158,"ssfOUT_240_24_4_VULTURE","VULTURE",4,0.0416666666666667,240,"no effect"
"ssfOUT_240_24_4_VULTURE.40",0.497613884381438,0.0382759328431799,0.956951835919696,"ssf","mf.ss","exp","unif",500,"ssfOUT_240_24_4_VULTURE","VULTURE",4,0.0416666666666667,240,"preference"
"ssfOUT_240_24_4_KINGCOBRA.1",17.3389704512492,-2834.9231910475,2869.60113194999,"ssf","mf.is","gamma","vonmises",5,"ssfOUT_240_24_4_KINGCOBRA","KINGCOBRA",4,0.0416666666666667,240,"no effect"
"ssfOUT_240_24_4_KINGCOBRA.2",17.0437482023772,-2618.94996814438,2653.03746454913,"ssf","mf.is","gamma","vonmises",15,"ssfOUT_240_24_4_KINGCOBRA","KINGCOBRA",4,0.0416666666666667,240,"no effect"
"ssfOUT_240_24_4_KINGCOBRA.3",16.2159122656355,-1419.81088012558,1452.24270465685,"ssf","mf.is","gamma","vonmises",50,"ssfOUT_240_24_4_KINGCOBRA","KINGCOBRA",4,0.0416666666666667,240,"no effect"
"ssfOUT_240_24_4_KINGCOBRA.4",16.1612797287812,-1464.98814657755,1497.31070603511,"ssf","mf.is","gamma","vonmises",158,"ssfOUT_240_24_4_KINGCOBRA","KINGCOBRA",4,0.0416666666666667,240,"no effect"
"ssfOUT_240_24_4_KINGCOBRA.5",16.1380624125007,-1422.26584483753,1454.54196966253,"ssf","mf.is","gamma","vonmises",500,"ssfOUT_240_24_4_KINGCOBRA","KINGCOBRA",4,0.0416666666666667,240,"no effect"
"ssfOUT_240_24_4_KINGCOBRA.6",17.2918127237179,-2436.04465393056,2470.628279378,"ssf","mf.is","gamma","unif",5,"ssfOUT_240_24_4_KINGCOBRA","KINGCOBRA",4,0.0416666666666667,240,"no effect"
"ssfOUT_240_24_4_KINGCOBRA.7",17.1713649108244,-2454.03622955511,2488.37895937676,"ssf","mf.is","gamma","unif",15,"ssfOUT_240_24_4_KINGCOBRA","KINGCOBRA",4,0.0416666666666667,240,"no effect"
"ssfOUT_240_24_4_KINGCOBRA.8",16.0562936754277,-1399.0564716707,1431.16905902156,"ssf","mf.is","gamma","unif",50,"ssfOUT_240_24_4_KINGCOBRA","KINGCOBRA",4,0.0416666666666667,240,"no effect"
"ssfOUT_240_24_4_KINGCOBRA.9",16.0695226751689,-1327.24564192779,1359.38468727813,"ssf","mf.is","gamma","unif",158,"ssfOUT_240_24_4_KINGCOBRA","KINGCOBRA",4,0.0416666666666667,240,"no effect"
"ssfOUT_240_24_4_KINGCOBRA.10",16.080960334962,-1354.18875712433,1386.35067779426,"ssf","mf.is","gamma","unif",500,"ssfOUT_240_24_4_KINGCOBRA","KINGCOBRA",4,0.0416666666666667,240,"no effect"
"ssfOUT_240_24_4_KINGCOBRA.11",17.2383782957817,-2815.01803352597,2849.49479011753,"ssf","mf.is","exp","vonmises",5,"ssfOUT_240_24_4_KINGCOBRA","KINGCOBRA",4,0.0416666666666667,240,"no effect"
"ssfOUT_240_24_4_KINGCOBRA.12",17.2744161863489,-2471.97241629103,2506.52124866373,"ssf","mf.is","exp","vonmises",15,"ssfOUT_240_24_4_KINGCOBRA","KINGCOBRA",4,0.0416666666666667,240,"no effect"
"ssfOUT_240_24_4_KINGCOBRA.13",16.1189969978903,-1509.26684857357,1541.50484256935,"ssf","mf.is","exp","vonmises",50,"ssfOUT_240_24_4_KINGCOBRA","KINGCOBRA",4,0.0416666666666667,240,"no effect"
"ssfOUT_240_24_4_KINGCOBRA.14",16.1800349542064,-1480.55210582567,1512.91217573408,"ssf","mf.is","exp","vonmises",158,"ssfOUT_240_24_4_KINGCOBRA","KINGCOBRA",4,0.0416666666666667,240,"no effect"
"ssfOUT_240_24_4_KINGCOBRA.15",16.2270691471437,-1469.3376087099,1501.79174700419,"ssf","mf.is","exp","vonmises",500,"ssfOUT_240_24_4_KINGCOBRA","KINGCOBRA",4,0.0416666666666667,240,"no effect"
"ssfOUT_240_24_4_KINGCOBRA.16",17.4364507179256,-2804.37487524823,2839.24777668408,"ssf","mf.is","exp","unif",5,"ssfOUT_240_24_4_KINGCOBRA","KINGCOBRA",4,0.0416666666666667,240,"no effect"
"ssfOUT_240_24_4_KINGCOBRA.17",17.1766349512458,-2542.32859015098,2576.68186005347,"ssf","mf.is","exp","unif",15,"ssfOUT_240_24_4_KINGCOBRA","KINGCOBRA",4,0.0416666666666667,240,"no effect"
"ssfOUT_240_24_4_KINGCOBRA.18",16.1324374021931,-1411.31519802212,1443.58007282651,"ssf","mf.is","exp","unif",50,"ssfOUT_240_24_4_KINGCOBRA","KINGCOBRA",4,0.0416666666666667,240,"no effect"
"ssfOUT_240_24_4_KINGCOBRA.19",16.1637334280023,-1397.22873876331,1429.55620561932,"ssf","mf.is","exp","unif",158,"ssfOUT_240_24_4_KINGCOBRA","KINGCOBRA",4,0.0416666666666667,240,"no effect"
"ssfOUT_240_24_4_KINGCOBRA.20",16.1604896057109,-1405.78712389793,1438.10810310935,"ssf","mf.is","exp","unif",500,"ssfOUT_240_24_4_KINGCOBRA","KINGCOBRA",4,0.0416666666666667,240,"no effect"
"ssfOUT_240_24_4_KINGCOBRA.21",17.2325036806141,-2780.34706639549,2814.81207375672,"ssf","mf.ss","gamma","vonmises",5,"ssfOUT_240_24_4_KINGCOBRA","KINGCOBRA",4,0.0416666666666667,240,"no effect"
"ssfOUT_240_24_4_KINGCOBRA.22",17.0526128043649,-2589.58085696824,2623.68608257697,"ssf","mf.ss","gamma","vonmises",15,"ssfOUT_240_24_4_KINGCOBRA","KINGCOBRA",4,0.0416666666666667,240,"no effect"
"ssfOUT_240_24_4_KINGCOBRA.23",16.0046395078173,-1385.59395750893,1417.60323652456,"ssf","mf.ss","gamma","vonmises",50,"ssfOUT_240_24_4_KINGCOBRA","KINGCOBRA",4,0.0416666666666667,240,"no effect"
"ssfOUT_240_24_4_KINGCOBRA.24",15.9592579904285,-1464.57156282675,1496.49007880761,"ssf","mf.ss","gamma","vonmises",158,"ssfOUT_240_24_4_KINGCOBRA","KINGCOBRA",4,0.0416666666666667,240,"no effect"
"ssfOUT_240_24_4_KINGCOBRA.25",15.9553743554231,-1418.45101007103,1450.36175878187,"ssf","mf.ss","gamma","vonmises",500,"ssfOUT_240_24_4_KINGCOBRA","KINGCOBRA",4,0.0416666666666667,240,"no effect"
"ssfOUT_240_24_4_KINGCOBRA.26",17.2895488552249,-2366.8688359617,2401.44793367215,"ssf","mf.ss","gamma","unif",5,"ssfOUT_240_24_4_KINGCOBRA","KINGCOBRA",4,0.0416666666666667,240,"no effect"
"ssfOUT_240_24_4_KINGCOBRA.27",17.0961362550992,-2429.2130892118,2463.40536172199,"ssf","mf.ss","gamma","unif",15,"ssfOUT_240_24_4_KINGCOBRA","KINGCOBRA",4,0.0416666666666667,240,"no effect"
"ssfOUT_240_24_4_KINGCOBRA.28",15.9894260064927,-1393.07989112765,1425.05874314064,"ssf","mf.ss","gamma","unif",50,"ssfOUT_240_24_4_KINGCOBRA","KINGCOBRA",4,0.0416666666666667,240,"no effect"
"ssfOUT_240_24_4_KINGCOBRA.29",15.9772658323047,-1320.08874524893,1352.04327691354,"ssf","mf.ss","gamma","unif",158,"ssfOUT_240_24_4_KINGCOBRA","KINGCOBRA",4,0.0416666666666667,240,"no effect"
"ssfOUT_240_24_4_KINGCOBRA.30",15.9727511133312,-1347.88365443957,1379.82915666624,"ssf","mf.ss","gamma","unif",500,"ssfOUT_240_24_4_KINGCOBRA","KINGCOBRA",4,0.0416666666666667,240,"no effect"
"ssfOUT_240_24_4_KINGCOBRA.31",17.2478141963723,-2849.15515742565,2883.65078581839,"ssf","mf.ss","exp","vonmises",5,"ssfOUT_240_24_4_KINGCOBRA","KINGCOBRA",4,0.0416666666666667,240,"no effect"
"ssfOUT_240_24_4_KINGCOBRA.32",17.0763681304958,-2466.27907833994,2500.43181460094,"ssf","mf.ss","exp","vonmises",15,"ssfOUT_240_24_4_KINGCOBRA","KINGCOBRA",4,0.0416666666666667,240,"no effect"
"ssfOUT_240_24_4_KINGCOBRA.33",15.9753279299237,-1535.82246956032,1567.77312542017,"ssf","mf.ss","exp","vonmises",50,"ssfOUT_240_24_4_KINGCOBRA","KINGCOBRA",4,0.0416666666666667,240,"no effect"
"ssfOUT_240_24_4_KINGCOBRA.34",15.9634870120015,-1460.04667659989,1491.9736506239,"ssf","mf.ss","exp","vonmises",158,"ssfOUT_240_24_4_KINGCOBRA","KINGCOBRA",4,0.0416666666666667,240,"no effect"
"ssfOUT_240_24_4_KINGCOBRA.35",15.9580426818331,-1452.39860039773,1484.3146857614,"ssf","mf.ss","exp","vonmises",500,"ssfOUT_240_24_4_KINGCOBRA","KINGCOBRA",4,0.0416666666666667,240,"no effect"
"ssfOUT_240_24_4_KINGCOBRA.36",17.2413345882971,-2714.67895426714,2749.16162344373,"ssf","mf.ss","exp","unif",5,"ssfOUT_240_24_4_KINGCOBRA","KINGCOBRA",4,0.0416666666666667,240,"no effect"
"ssfOUT_240_24_4_KINGCOBRA.37",17.048021750827,-2504.78833915362,2538.88438265528,"ssf","mf.ss","exp","unif",15,"ssfOUT_240_24_4_KINGCOBRA","KINGCOBRA",4,0.0416666666666667,240,"no effect"
"ssfOUT_240_24_4_KINGCOBRA.38",16.0028151144949,-1391.55595689431,1423.5615871233,"ssf","mf.ss","exp","unif",50,"ssfOUT_240_24_4_KINGCOBRA","KINGCOBRA",4,0.0416666666666667,240,"no effect"
"ssfOUT_240_24_4_KINGCOBRA.39",15.9873880577709,-1382.4761249,1414.45090101554,"ssf","mf.ss","exp","unif",158,"ssfOUT_240_24_4_KINGCOBRA","KINGCOBRA",4,0.0416666666666667,240,"no effect"
"ssfOUT_240_24_4_KINGCOBRA.40",15.9717826177354,-1385.4280926659,1417.37165790137,"ssf","mf.ss","exp","unif",500,"ssfOUT_240_24_4_KINGCOBRA","KINGCOBRA",4,0.0416666666666667,240,"no effect"
"ssfOUT_240_48_1_BADGER.1",2.08209276542492,0.987659233064193,3.17652629778565,"ssf","mf.is","gamma","vonmises",5,"ssfOUT_240_48_1_BADGER","BADGER",1,0.0208333333333333,240,"preference"
"ssfOUT_240_48_1_BADGER.2",1.18884106210994,0.153188577874168,2.22449354634572,"ssf","mf.is","gamma","vonmises",15,"ssfOUT_240_48_1_BADGER","BADGER",1,0.0208333333333333,240,"preference"
"ssfOUT_240_48_1_BADGER.3",1.0999817277141,0.0758527075094919,2.1241107479187,"ssf","mf.is","gamma","vonmises",50,"ssfOUT_240_48_1_BADGER","BADGER",1,0.0208333333333333,240,"preference"
"ssfOUT_240_48_1_BADGER.4",1.11099291201313,0.0956133889180639,2.1263724351082,"ssf","mf.is","gamma","vonmises",158,"ssfOUT_240_48_1_BADGER","BADGER",1,0.0208333333333333,240,"preference"
"ssfOUT_240_48_1_BADGER.5",1.1087014725829,0.0945043289560221,2.12289861620979,"ssf","mf.is","gamma","vonmises",500,"ssfOUT_240_48_1_BADGER","BADGER",1,0.0208333333333333,240,"preference"
"ssfOUT_240_48_1_BADGER.6",1.16413854652441,0.109831135912176,2.21844595713665,"ssf","mf.is","gamma","unif",5,"ssfOUT_240_48_1_BADGER","BADGER",1,0.0208333333333333,240,"preference"
"ssfOUT_240_48_1_BADGER.7",1.00947552563733,-0.0175556995157666,2.03650675079042,"ssf","mf.is","gamma","unif",15,"ssfOUT_240_48_1_BADGER","BADGER",1,0.0208333333333333,240,"no effect"
"ssfOUT_240_48_1_BADGER.8",1.04987921913798,0.02948510013837,2.0702733381376,"ssf","mf.is","gamma","unif",50,"ssfOUT_240_48_1_BADGER","BADGER",1,0.0208333333333333,240,"preference"
"ssfOUT_240_48_1_BADGER.9",1.13000291520385,0.115046482471467,2.14495934793623,"ssf","mf.is","gamma","unif",158,"ssfOUT_240_48_1_BADGER","BADGER",1,0.0208333333333333,240,"preference"
"ssfOUT_240_48_1_BADGER.10",1.16570042794817,0.151961276124627,2.17943957977172,"ssf","mf.is","gamma","unif",500,"ssfOUT_240_48_1_BADGER","BADGER",1,0.0208333333333333,240,"preference"
"ssfOUT_240_48_1_BADGER.11",0.808405997152961,-0.273131741903518,1.88994373620944,"ssf","mf.is","exp","vonmises",5,"ssfOUT_240_48_1_BADGER","BADGER",1,0.0208333333333333,240,"no effect"
"ssfOUT_240_48_1_BADGER.12",1.61673811563804,0.554928051851925,2.67854817942415,"ssf","mf.is","exp","vonmises",15,"ssfOUT_240_48_1_BADGER","BADGER",1,0.0208333333333333,240,"preference"
"ssfOUT_240_48_1_BADGER.13",1.22107549463173,0.198741424486383,2.24340956477707,"ssf","mf.is","exp","vonmises",50,"ssfOUT_240_48_1_BADGER","BADGER",1,0.0208333333333333,240,"preference"
"ssfOUT_240_48_1_BADGER.14",1.16696954768643,0.150065534239173,2.18387356113369,"ssf","mf.is","exp","vonmises",158,"ssfOUT_240_48_1_BADGER","BADGER",1,0.0208333333333333,240,"preference"
"ssfOUT_240_48_1_BADGER.15",1.11288190674885,0.0993952443332924,2.12636856916441,"ssf","mf.is","exp","vonmises",500,"ssfOUT_240_48_1_BADGER","BADGER",1,0.0208333333333333,240,"preference"
"ssfOUT_240_48_1_BADGER.16",1.15073656134743,0.092872259287186,2.20860086340768,"ssf","mf.is","exp","unif",5,"ssfOUT_240_48_1_BADGER","BADGER",1,0.0208333333333333,240,"preference"
"ssfOUT_240_48_1_BADGER.17",1.06477721065461,0.0385684622699518,2.09098595903927,"ssf","mf.is","exp","unif",15,"ssfOUT_240_48_1_BADGER","BADGER",1,0.0208333333333333,240,"preference"
"ssfOUT_240_48_1_BADGER.18",1.20964594768367,0.189235161335503,2.23005673403184,"ssf","mf.is","exp","unif",50,"ssfOUT_240_48_1_BADGER","BADGER",1,0.0208333333333333,240,"preference"
"ssfOUT_240_48_1_BADGER.19",1.14658739707236,0.130913393612249,2.16226140053248,"ssf","mf.is","exp","unif",158,"ssfOUT_240_48_1_BADGER","BADGER",1,0.0208333333333333,240,"preference"
"ssfOUT_240_48_1_BADGER.20",1.06318391756348,0.0495990551194729,2.0767687800075,"ssf","mf.is","exp","unif",500,"ssfOUT_240_48_1_BADGER","BADGER",1,0.0208333333333333,240,"preference"
"ssfOUT_240_48_1_BADGER.21",1.28727503736293,0.248334975408157,2.32621509931769,"ssf","mf.ss","gamma","vonmises",5,"ssfOUT_240_48_1_BADGER","BADGER",1,0.0208333333333333,240,"preference"
"ssfOUT_240_48_1_BADGER.22",1.18479047585034,0.163686224868418,2.20589472683226,"ssf","mf.ss","gamma","vonmises",15,"ssfOUT_240_48_1_BADGER","BADGER",1,0.0208333333333333,240,"preference"
"ssfOUT_240_48_1_BADGER.23",1.02124813658375,0.00595396659213487,2.03654230657537,"ssf","mf.ss","gamma","vonmises",50,"ssfOUT_240_48_1_BADGER","BADGER",1,0.0208333333333333,240,"preference"
"ssfOUT_240_48_1_BADGER.24",1.05154088712786,0.0382327666293552,2.06484900762636,"ssf","mf.ss","gamma","vonmises",158,"ssfOUT_240_48_1_BADGER","BADGER",1,0.0208333333333333,240,"preference"
"ssfOUT_240_48_1_BADGER.25",0.991498927527296,-0.0203379388396024,2.0033357938942,"ssf","mf.ss","gamma","vonmises",500,"ssfOUT_240_48_1_BADGER","BADGER",1,0.0208333333333333,240,"no effect"
"ssfOUT_240_48_1_BADGER.26",0.931298808603677,-0.10801974289685,1.9706173601042,"ssf","mf.ss","gamma","unif",5,"ssfOUT_240_48_1_BADGER","BADGER",1,0.0208333333333333,240,"no effect"
"ssfOUT_240_48_1_BADGER.27",1.07420007730076,0.0497646294322989,2.09863552516923,"ssf","mf.ss","gamma","unif",15,"ssfOUT_240_48_1_BADGER","BADGER",1,0.0208333333333333,240,"preference"
"ssfOUT_240_48_1_BADGER.28",1.00535728792768,-0.00929554351016204,2.02001011936553,"ssf","mf.ss","gamma","unif",50,"ssfOUT_240_48_1_BADGER","BADGER",1,0.0208333333333333,240,"no effect"
"ssfOUT_240_48_1_BADGER.29",1.02782437781198,0.0154167244356627,2.04023203118829,"ssf","mf.ss","gamma","unif",158,"ssfOUT_240_48_1_BADGER","BADGER",1,0.0208333333333333,240,"preference"
"ssfOUT_240_48_1_BADGER.30",1.10272967745553,0.0912573788364532,2.1142019760746,"ssf","mf.ss","gamma","unif",500,"ssfOUT_240_48_1_BADGER","BADGER",1,0.0208333333333333,240,"preference"
"ssfOUT_240_48_1_BADGER.31",0.996142258416912,-0.0492674373163943,2.04155195415022,"ssf","mf.ss","exp","vonmises",5,"ssfOUT_240_48_1_BADGER","BADGER",1,0.0208333333333333,240,"no effect"
"ssfOUT_240_48_1_BADGER.32",0.971562798894235,-0.0500844071245748,1.99321000491305,"ssf","mf.ss","exp","vonmises",15,"ssfOUT_240_48_1_BADGER","BADGER",1,0.0208333333333333,240,"no effect"
"ssfOUT_240_48_1_BADGER.33",1.01855264251725,0.00465808218240071,2.0324472028521,"ssf","mf.ss","exp","vonmises",50,"ssfOUT_240_48_1_BADGER","BADGER",1,0.0208333333333333,240,"preference"
"ssfOUT_240_48_1_BADGER.34",1.05499813479877,0.0400830645690482,2.06991320502849,"ssf","mf.ss","exp","vonmises",158,"ssfOUT_240_48_1_BADGER","BADGER",1,0.0208333333333333,240,"preference"
"ssfOUT_240_48_1_BADGER.35",1.01543657170991,0.00163377595432013,2.0292393674655,"ssf","mf.ss","exp","vonmises",500,"ssfOUT_240_48_1_BADGER","BADGER",1,0.0208333333333333,240,"preference"
"ssfOUT_240_48_1_BADGER.36",1.36516344947951,0.322711084890551,2.40761581406847,"ssf","mf.ss","exp","unif",5,"ssfOUT_240_48_1_BADGER","BADGER",1,0.0208333333333333,240,"preference"
"ssfOUT_240_48_1_BADGER.37",1.01473210083362,-0.00729264369534266,2.03675684536259,"ssf","mf.ss","exp","unif",15,"ssfOUT_240_48_1_BADGER","BADGER",1,0.0208333333333333,240,"no effect"
"ssfOUT_240_48_1_BADGER.38",1.0348508711848,0.0190052137995311,2.05069652857006,"ssf","mf.ss","exp","unif",50,"ssfOUT_240_48_1_BADGER","BADGER",1,0.0208333333333333,240,"preference"
"ssfOUT_240_48_1_BADGER.39",1.0850927745839,0.0708601977059176,2.09932535146189,"ssf","mf.ss","exp","unif",158,"ssfOUT_240_48_1_BADGER","BADGER",1,0.0208333333333333,240,"preference"
"ssfOUT_240_48_1_BADGER.40",1.01504274681369,0.00192574853878358,2.02815974508859,"ssf","mf.ss","exp","unif",500,"ssfOUT_240_48_1_BADGER","BADGER",1,0.0208333333333333,240,"preference"
"ssfOUT_240_48_1_VULTURE.1",1.12891407378075,0.0258175625073578,2.23201058505415,"ssf","mf.is","gamma","vonmises",5,"ssfOUT_240_48_1_VULTURE","VULTURE",1,0.0208333333333333,240,"preference"
"ssfOUT_240_48_1_VULTURE.2",1.18329588806835,0.0635807116016185,2.30301106453508,"ssf","mf.is","gamma","vonmises",15,"ssfOUT_240_48_1_VULTURE","VULTURE",1,0.0208333333333333,240,"preference"
"ssfOUT_240_48_1_VULTURE.3",1.37505399460596,0.34615055013336,2.40395743907857,"ssf","mf.is","gamma","vonmises",50,"ssfOUT_240_48_1_VULTURE","VULTURE",1,0.0208333333333333,240,"preference"
"ssfOUT_240_48_1_VULTURE.4",1.46682495591958,0.451173774821199,2.48247613701797,"ssf","mf.is","gamma","vonmises",158,"ssfOUT_240_48_1_VULTURE","VULTURE",1,0.0208333333333333,240,"preference"
"ssfOUT_240_48_1_VULTURE.5",1.38367165893539,0.372555151915942,2.39478816595485,"ssf","mf.is","gamma","vonmises",500,"ssfOUT_240_48_1_VULTURE","VULTURE",1,0.0208333333333333,240,"preference"
"ssfOUT_240_48_1_VULTURE.6",1.27053556013286,0.216867904092121,2.3242032161736,"ssf","mf.is","gamma","unif",5,"ssfOUT_240_48_1_VULTURE","VULTURE",1,0.0208333333333333,240,"preference"
"ssfOUT_240_48_1_VULTURE.7",1.50599033150284,0.480435497422827,2.53154516558285,"ssf","mf.is","gamma","unif",15,"ssfOUT_240_48_1_VULTURE","VULTURE",1,0.0208333333333333,240,"preference"
"ssfOUT_240_48_1_VULTURE.8",1.37611496778215,0.362073177362046,2.39015675820225,"ssf","mf.is","gamma","unif",50,"ssfOUT_240_48_1_VULTURE","VULTURE",1,0.0208333333333333,240,"preference"
"ssfOUT_240_48_1_VULTURE.9",1.43236023813044,0.421061682931929,2.44365879332895,"ssf","mf.is","gamma","unif",158,"ssfOUT_240_48_1_VULTURE","VULTURE",1,0.0208333333333333,240,"preference"
"ssfOUT_240_48_1_VULTURE.10",1.43724421663612,0.427441864639962,2.44704656863228,"ssf","mf.is","gamma","unif",500,"ssfOUT_240_48_1_VULTURE","VULTURE",1,0.0208333333333333,240,"preference"
"ssfOUT_240_48_1_VULTURE.11",1.32013386022626,0.179315898283868,2.46095182216865,"ssf","mf.is","exp","vonmises",5,"ssfOUT_240_48_1_VULTURE","VULTURE",1,0.0208333333333333,240,"preference"
"ssfOUT_240_48_1_VULTURE.12",1.39315989596731,0.335918973269309,2.45040081866531,"ssf","mf.is","exp","vonmises",15,"ssfOUT_240_48_1_VULTURE","VULTURE",1,0.0208333333333333,240,"preference"
"ssfOUT_240_48_1_VULTURE.13",1.47183387579577,0.44582192154128,2.49784583005026,"ssf","mf.is","exp","vonmises",50,"ssfOUT_240_48_1_VULTURE","VULTURE",1,0.0208333333333333,240,"preference"
"ssfOUT_240_48_1_VULTURE.14",1.49827019362721,0.480745379697135,2.51579500755728,"ssf","mf.is","exp","vonmises",158,"ssfOUT_240_48_1_VULTURE","VULTURE",1,0.0208333333333333,240,"preference"
"ssfOUT_240_48_1_VULTURE.15",1.45626005361812,0.445056407492054,2.46746369974418,"ssf","mf.is","exp","vonmises",500,"ssfOUT_240_48_1_VULTURE","VULTURE",1,0.0208333333333333,240,"preference"
"ssfOUT_240_48_1_VULTURE.16",1.5984627419589,0.528914444825568,2.66801103909223,"ssf","mf.is","exp","unif",5,"ssfOUT_240_48_1_VULTURE","VULTURE",1,0.0208333333333333,240,"preference"
"ssfOUT_240_48_1_VULTURE.17",1.17669512584268,0.136968916369634,2.21642133531572,"ssf","mf.is","exp","unif",15,"ssfOUT_240_48_1_VULTURE","VULTURE",1,0.0208333333333333,240,"preference"
"ssfOUT_240_48_1_VULTURE.18",1.63734107333255,0.621321451075367,2.65336069558974,"ssf","mf.is","exp","unif",50,"ssfOUT_240_48_1_VULTURE","VULTURE",1,0.0208333333333333,240,"preference"
"ssfOUT_240_48_1_VULTURE.19",1.42606553150536,0.414341419468612,2.4377896435421,"ssf","mf.is","exp","unif",158,"ssfOUT_240_48_1_VULTURE","VULTURE",1,0.0208333333333333,240,"preference"
"ssfOUT_240_48_1_VULTURE.20",1.46705729352546,0.456955139188824,2.47715944786209,"ssf","mf.is","exp","unif",500,"ssfOUT_240_48_1_VULTURE","VULTURE",1,0.0208333333333333,240,"preference"
"ssfOUT_240_48_1_VULTURE.21",1.08200833983501,0.0417660371298425,2.12225064254019,"ssf","mf.ss","gamma","vonmises",5,"ssfOUT_240_48_1_VULTURE","VULTURE",1,0.0208333333333333,240,"preference"
"ssfOUT_240_48_1_VULTURE.22",0.888196960470011,-0.140525737630219,1.91691965857024,"ssf","mf.ss","gamma","vonmises",15,"ssfOUT_240_48_1_VULTURE","VULTURE",1,0.0208333333333333,240,"no effect"
"ssfOUT_240_48_1_VULTURE.23",1.19960137944631,0.188268668130261,2.21093409076235,"ssf","mf.ss","gamma","vonmises",50,"ssfOUT_240_48_1_VULTURE","VULTURE",1,0.0208333333333333,240,"preference"
"ssfOUT_240_48_1_VULTURE.24",1.10306854227271,0.0927920972172476,2.11334498732817,"ssf","mf.ss","gamma","vonmises",158,"ssfOUT_240_48_1_VULTURE","VULTURE",1,0.0208333333333333,240,"preference"
"ssfOUT_240_48_1_VULTURE.25",1.152242095161,0.143230259957676,2.16125393036433,"ssf","mf.ss","gamma","vonmises",500,"ssfOUT_240_48_1_VULTURE","VULTURE",1,0.0208333333333333,240,"preference"
"ssfOUT_240_48_1_VULTURE.26",1.13223837337803,0.0953944011890897,2.16908234556697,"ssf","mf.ss","gamma","unif",5,"ssfOUT_240_48_1_VULTURE","VULTURE",1,0.0208333333333333,240,"preference"
"ssfOUT_240_48_1_VULTURE.27",1.28722884391567,0.266657575605723,2.30780011222561,"ssf","mf.ss","gamma","unif",15,"ssfOUT_240_48_1_VULTURE","VULTURE",1,0.0208333333333333,240,"preference"
"ssfOUT_240_48_1_VULTURE.28",1.28462539636639,0.273473477596345,2.29577731513644,"ssf","mf.ss","gamma","unif",50,"ssfOUT_240_48_1_VULTURE","VULTURE",1,0.0208333333333333,240,"preference"
"ssfOUT_240_48_1_VULTURE.29",1.26976609749365,0.260200190495524,2.27933200449178,"ssf","mf.ss","gamma","unif",158,"ssfOUT_240_48_1_VULTURE","VULTURE",1,0.0208333333333333,240,"preference"
"ssfOUT_240_48_1_VULTURE.30",1.31202485753183,0.30333566200982,2.32071405305385,"ssf","mf.ss","gamma","unif",500,"ssfOUT_240_48_1_VULTURE","VULTURE",1,0.0208333333333333,240,"preference"
"ssfOUT_240_48_1_VULTURE.31",0.980164599980592,-0.111961136291832,2.07229033625302,"ssf","mf.ss","exp","vonmises",5,"ssfOUT_240_48_1_VULTURE","VULTURE",1,0.0208333333333333,240,"no effect"
"ssfOUT_240_48_1_VULTURE.32",1.20703164780538,0.186057353897157,2.2280059417136,"ssf","mf.ss","exp","vonmises",15,"ssfOUT_240_48_1_VULTURE","VULTURE",1,0.0208333333333333,240,"preference"
"ssfOUT_240_48_1_VULTURE.33",1.26141116770684,0.248675675459562,2.27414665995412,"ssf","mf.ss","exp","vonmises",50,"ssfOUT_240_48_1_VULTURE","VULTURE",1,0.0208333333333333,240,"preference"
"ssfOUT_240_48_1_VULTURE.34",1.23394777710378,0.223619630185952,2.24427592402161,"ssf","mf.ss","exp","vonmises",158,"ssfOUT_240_48_1_VULTURE","VULTURE",1,0.0208333333333333,240,"preference"
"ssfOUT_240_48_1_VULTURE.35",1.19048262327704,0.180770076008018,2.20019517054607,"ssf","mf.ss","exp","vonmises",500,"ssfOUT_240_48_1_VULTURE","VULTURE",1,0.0208333333333333,240,"preference"
"ssfOUT_240_48_1_VULTURE.36",1.17638856171876,0.140074757226727,2.2127023662108,"ssf","mf.ss","exp","unif",5,"ssfOUT_240_48_1_VULTURE","VULTURE",1,0.0208333333333333,240,"preference"
"ssfOUT_240_48_1_VULTURE.37",1.19029266687611,0.166686946845197,2.21389838690702,"ssf","mf.ss","exp","unif",15,"ssfOUT_240_48_1_VULTURE","VULTURE",1,0.0208333333333333,240,"preference"
"ssfOUT_240_48_1_VULTURE.38",1.41718028497499,0.403719160501738,2.43064140944824,"ssf","mf.ss","exp","unif",50,"ssfOUT_240_48_1_VULTURE","VULTURE",1,0.0208333333333333,240,"preference"
"ssfOUT_240_48_1_VULTURE.39",1.23014233768575,0.219412534625259,2.24087214074625,"ssf","mf.ss","exp","unif",158,"ssfOUT_240_48_1_VULTURE","VULTURE",1,0.0208333333333333,240,"preference"
"ssfOUT_240_48_1_VULTURE.40",1.26405626943378,0.253752444304776,2.27436009456278,"ssf","mf.ss","exp","unif",500,"ssfOUT_240_48_1_VULTURE","VULTURE",1,0.0208333333333333,240,"preference"
"ssfOUT_240_48_1_KINGCOBRA.1",0.371032096129744,-0.574639154118147,1.31670334637764,"ssf","mf.is","gamma","vonmises",5,"ssfOUT_240_48_1_KINGCOBRA","KINGCOBRA",1,0.0208333333333333,240,"no effect"
"ssfOUT_240_48_1_KINGCOBRA.2",-0.0883379770494768,-0.80782350575142,0.631147551652466,"ssf","mf.is","gamma","vonmises",15,"ssfOUT_240_48_1_KINGCOBRA","KINGCOBRA",1,0.0208333333333333,240,"no effect"
"ssfOUT_240_48_1_KINGCOBRA.3",-0.284374592059655,-0.917881209738973,0.349132025619663,"ssf","mf.is","gamma","vonmises",50,"ssfOUT_240_48_1_KINGCOBRA","KINGCOBRA",1,0.0208333333333333,240,"no effect"
"ssfOUT_240_48_1_KINGCOBRA.4",0.00831555508956623,-0.598853760144936,0.615484870324069,"ssf","mf.is","gamma","vonmises",158,"ssfOUT_240_48_1_KINGCOBRA","KINGCOBRA",1,0.0208333333333333,240,"no effect"
"ssfOUT_240_48_1_KINGCOBRA.5",-0.261077906662986,-0.860895890363297,0.338740077037325,"ssf","mf.is","gamma","vonmises",500,"ssfOUT_240_48_1_KINGCOBRA","KINGCOBRA",1,0.0208333333333333,240,"no effect"
"ssfOUT_240_48_1_KINGCOBRA.6",-0.197980495636576,-0.90699787249971,0.511036881226559,"ssf","mf.is","gamma","unif",5,"ssfOUT_240_48_1_KINGCOBRA","KINGCOBRA",1,0.0208333333333333,240,"no effect"
"ssfOUT_240_48_1_KINGCOBRA.7",0.0670646720149703,-0.558753301850878,0.692882645880819,"ssf","mf.is","gamma","unif",15,"ssfOUT_240_48_1_KINGCOBRA","KINGCOBRA",1,0.0208333333333333,240,"no effect"
"ssfOUT_240_48_1_KINGCOBRA.8",-0.280903084497586,-0.887107257290984,0.325301088295812,"ssf","mf.is","gamma","unif",50,"ssfOUT_240_48_1_KINGCOBRA","KINGCOBRA",1,0.0208333333333333,240,"no effect"
"ssfOUT_240_48_1_KINGCOBRA.9",-0.112596106344917,-0.714126505176034,0.4889342924862,"ssf","mf.is","gamma","unif",158,"ssfOUT_240_48_1_KINGCOBRA","KINGCOBRA",1,0.0208333333333333,240,"no effect"
"ssfOUT_240_48_1_KINGCOBRA.10",-0.206174132817324,-0.804805449823373,0.392457184188724,"ssf","mf.is","gamma","unif",500,"ssfOUT_240_48_1_KINGCOBRA","KINGCOBRA",1,0.0208333333333333,240,"no effect"
"ssfOUT_240_48_1_KINGCOBRA.11",0.11664535400259,-1.01883545999909,1.25212616800427,"ssf","mf.is","exp","vonmises",5,"ssfOUT_240_48_1_KINGCOBRA","KINGCOBRA",1,0.0208333333333333,240,"no effect"
"ssfOUT_240_48_1_KINGCOBRA.12",-0.749357006245362,-1.52103922181387,0.022325209323146,"ssf","mf.is","exp","vonmises",15,"ssfOUT_240_48_1_KINGCOBRA","KINGCOBRA",1,0.0208333333333333,240,"no effect"
"ssfOUT_240_48_1_KINGCOBRA.13",-0.181562433927604,-0.840136810109705,0.477011942254498,"ssf","mf.is","exp","vonmises",50,"ssfOUT_240_48_1_KINGCOBRA","KINGCOBRA",1,0.0208333333333333,240,"no effect"
"ssfOUT_240_48_1_KINGCOBRA.14",-0.328336699393996,-0.946754261361347,0.290080862573356,"ssf","mf.is","exp","vonmises",158,"ssfOUT_240_48_1_KINGCOBRA","KINGCOBRA",1,0.0208333333333333,240,"no effect"
"ssfOUT_240_48_1_KINGCOBRA.15",-0.169913958272389,-0.771756148709537,0.431928232164759,"ssf","mf.is","exp","vonmises",500,"ssfOUT_240_48_1_KINGCOBRA","KINGCOBRA",1,0.0208333333333333,240,"no effect"
"ssfOUT_240_48_1_KINGCOBRA.16",-0.257907943960135,-1.03160892293283,0.515793035012564,"ssf","mf.is","exp","unif",5,"ssfOUT_240_48_1_KINGCOBRA","KINGCOBRA",1,0.0208333333333333,240,"no effect"
"ssfOUT_240_48_1_KINGCOBRA.17",0.111281540144644,-0.539877495652485,0.762440575941772,"ssf","mf.is","exp","unif",15,"ssfOUT_240_48_1_KINGCOBRA","KINGCOBRA",1,0.0208333333333333,240,"no effect"
"ssfOUT_240_48_1_KINGCOBRA.18",-0.0683007067094259,-0.680975558295453,0.544374144876601,"ssf","mf.is","exp","unif",50,"ssfOUT_240_48_1_KINGCOBRA","KINGCOBRA",1,0.0208333333333333,240,"no effect"
"ssfOUT_240_48_1_KINGCOBRA.19",-0.218286284933747,-0.820543034268764,0.383970464401271,"ssf","mf.is","exp","unif",158,"ssfOUT_240_48_1_KINGCOBRA","KINGCOBRA",1,0.0208333333333333,240,"no effect"
"ssfOUT_240_48_1_KINGCOBRA.20",-0.245999946944247,-0.846855164163288,0.354855270274795,"ssf","mf.is","exp","unif",500,"ssfOUT_240_48_1_KINGCOBRA","KINGCOBRA",1,0.0208333333333333,240,"no effect"
"ssfOUT_240_48_1_KINGCOBRA.21",-0.356269836837405,-1.02912797772006,0.31658830404525,"ssf","mf.ss","gamma","vonmises",5,"ssfOUT_240_48_1_KINGCOBRA","KINGCOBRA",1,0.0208333333333333,240,"no effect"
"ssfOUT_240_48_1_KINGCOBRA.22",-0.248863764567324,-0.868581397640372,0.370853868505725,"ssf","mf.ss","gamma","vonmises",15,"ssfOUT_240_48_1_KINGCOBRA","KINGCOBRA",1,0.0208333333333333,240,"no effect"
"ssfOUT_240_48_1_KINGCOBRA.23",-0.495640066457623,-1.10196594384921,0.110685810933966,"ssf","mf.ss","gamma","vonmises",50,"ssfOUT_240_48_1_KINGCOBRA","KINGCOBRA",1,0.0208333333333333,240,"no effect"
"ssfOUT_240_48_1_KINGCOBRA.24",-0.494944614108236,-1.09296452809215,0.103075299875674,"ssf","mf.ss","gamma","vonmises",158,"ssfOUT_240_48_1_KINGCOBRA","KINGCOBRA",1,0.0208333333333333,240,"no effect"
"ssfOUT_240_48_1_KINGCOBRA.25",-0.496061679972895,-1.09359522528482,0.101471865339025,"ssf","mf.ss","gamma","vonmises",500,"ssfOUT_240_48_1_KINGCOBRA","KINGCOBRA",1,0.0208333333333333,240,"no effect"
"ssfOUT_240_48_1_KINGCOBRA.26",-0.497641632947383,-1.17004918574318,0.174765919848417,"ssf","mf.ss","gamma","unif",5,"ssfOUT_240_48_1_KINGCOBRA","KINGCOBRA",1,0.0208333333333333,240,"no effect"
"ssfOUT_240_48_1_KINGCOBRA.27",-0.173307409062459,-0.793001148299174,0.446386330174257,"ssf","mf.ss","gamma","unif",15,"ssfOUT_240_48_1_KINGCOBRA","KINGCOBRA",1,0.0208333333333333,240,"no effect"
"ssfOUT_240_48_1_KINGCOBRA.28",-0.378176426651463,-0.979471190116444,0.223118336813519,"ssf","mf.ss","gamma","unif",50,"ssfOUT_240_48_1_KINGCOBRA","KINGCOBRA",1,0.0208333333333333,240,"no effect"
"ssfOUT_240_48_1_KINGCOBRA.29",-0.289611149220482,-0.886379239280758,0.307156940839795,"ssf","mf.ss","gamma","unif",158,"ssfOUT_240_48_1_KINGCOBRA","KINGCOBRA",1,0.0208333333333333,240,"no effect"
"ssfOUT_240_48_1_KINGCOBRA.30",-0.326853413722194,-0.922253786457424,0.268546959013035,"ssf","mf.ss","gamma","unif",500,"ssfOUT_240_48_1_KINGCOBRA","KINGCOBRA",1,0.0208333333333333,240,"no effect"
"ssfOUT_240_48_1_KINGCOBRA.31",-0.539290042557627,-1.223415886297,0.144835801181746,"ssf","mf.ss","exp","vonmises",5,"ssfOUT_240_48_1_KINGCOBRA","KINGCOBRA",1,0.0208333333333333,240,"no effect"
"ssfOUT_240_48_1_KINGCOBRA.32",-0.200597046346047,-0.828990571667246,0.427796478975153,"ssf","mf.ss","exp","vonmises",15,"ssfOUT_240_48_1_KINGCOBRA","KINGCOBRA",1,0.0208333333333333,240,"no effect"
"ssfOUT_240_48_1_KINGCOBRA.33",-0.273993627264095,-0.885581726945406,0.337594472417215,"ssf","mf.ss","exp","vonmises",50,"ssfOUT_240_48_1_KINGCOBRA","KINGCOBRA",1,0.0208333333333333,240,"no effect"
"ssfOUT_240_48_1_KINGCOBRA.34",-0.3226692529845,-0.931296632153322,0.285958126184323,"ssf","mf.ss","exp","vonmises",158,"ssfOUT_240_48_1_KINGCOBRA","KINGCOBRA",1,0.0208333333333333,240,"no effect"
"ssfOUT_240_48_1_KINGCOBRA.35",-0.263074502392861,-0.871322448479053,0.345173443693332,"ssf","mf.ss","exp","vonmises",500,"ssfOUT_240_48_1_KINGCOBRA","KINGCOBRA",1,0.0208333333333333,240,"no effect"
"ssfOUT_240_48_1_KINGCOBRA.36",-0.400305930235541,-1.07710399282966,0.276492132358573,"ssf","mf.ss","exp","unif",5,"ssfOUT_240_48_1_KINGCOBRA","KINGCOBRA",1,0.0208333333333333,240,"no effect"
"ssfOUT_240_48_1_KINGCOBRA.37",-0.0730189525896124,-0.688805479861252,0.542767574682027,"ssf","mf.ss","exp","unif",15,"ssfOUT_240_48_1_KINGCOBRA","KINGCOBRA",1,0.0208333333333333,240,"no effect"
"ssfOUT_240_48_1_KINGCOBRA.38",-0.170604120741687,-0.777191460135795,0.435983218652421,"ssf","mf.ss","exp","unif",50,"ssfOUT_240_48_1_KINGCOBRA","KINGCOBRA",1,0.0208333333333333,240,"no effect"
"ssfOUT_240_48_1_KINGCOBRA.39",-0.22508782915376,-0.828697763660205,0.378522105352685,"ssf","mf.ss","exp","unif",158,"ssfOUT_240_48_1_KINGCOBRA","KINGCOBRA",1,0.0208333333333333,240,"no effect"
"ssfOUT_240_48_1_KINGCOBRA.40",-0.271303410789156,-0.874473733445936,0.331866911867624,"ssf","mf.ss","exp","unif",500,"ssfOUT_240_48_1_KINGCOBRA","KINGCOBRA",1,0.0208333333333333,240,"no effect"
"ssfOUT_240_48_2_BADGER.1",-0.0576003008625176,-0.66779774027545,0.552597138550415,"ssf","mf.is","gamma","vonmises",5,"ssfOUT_240_48_2_BADGER","BADGER",2,0.0208333333333333,240,"no effect"
"ssfOUT_240_48_2_BADGER.2",-0.425005473225047,-0.955746513512529,0.105735567062435,"ssf","mf.is","gamma","vonmises",15,"ssfOUT_240_48_2_BADGER","BADGER",2,0.0208333333333333,240,"no effect"
"ssfOUT_240_48_2_BADGER.3",-0.192012552708878,-0.677485790252154,0.293460684834398,"ssf","mf.is","gamma","vonmises",50,"ssfOUT_240_48_2_BADGER","BADGER",2,0.0208333333333333,240,"no effect"
"ssfOUT_240_48_2_BADGER.4",-0.166951702875616,-0.642935356542963,0.309031950791732,"ssf","mf.is","gamma","vonmises",158,"ssfOUT_240_48_2_BADGER","BADGER",2,0.0208333333333333,240,"no effect"
"ssfOUT_240_48_2_BADGER.5",-0.185799426051672,-0.658052319863717,0.286453467760372,"ssf","mf.is","gamma","vonmises",500,"ssfOUT_240_48_2_BADGER","BADGER",2,0.0208333333333333,240,"no effect"
"ssfOUT_240_48_2_BADGER.6",-0.356708142412102,-0.901086061813093,0.18766977698889,"ssf","mf.is","gamma","unif",5,"ssfOUT_240_48_2_BADGER","BADGER",2,0.0208333333333333,240,"no effect"
"ssfOUT_240_48_2_BADGER.7",-0.528601573736963,-1.03648153825787,-0.0207216092160508,"ssf","mf.is","gamma","unif",15,"ssfOUT_240_48_2_BADGER","BADGER",2,0.0208333333333333,240,"avoidance"
"ssfOUT_240_48_2_BADGER.8",-0.139791682933,-0.617020300845314,0.337436934979314,"ssf","mf.is","gamma","unif",50,"ssfOUT_240_48_2_BADGER","BADGER",2,0.0208333333333333,240,"no effect"
"ssfOUT_240_48_2_BADGER.9",-0.165323100981604,-0.63887647439848,0.308230272435271,"ssf","mf.is","gamma","unif",158,"ssfOUT_240_48_2_BADGER","BADGER",2,0.0208333333333333,240,"no effect"
"ssfOUT_240_48_2_BADGER.10",-0.153426456408623,-0.625621517980293,0.318768605163046,"ssf","mf.is","gamma","unif",500,"ssfOUT_240_48_2_BADGER","BADGER",2,0.0208333333333333,240,"no effect"
"ssfOUT_240_48_2_BADGER.11",-0.333085510829701,-0.931759224773605,0.265588203114203,"ssf","mf.is","exp","vonmises",5,"ssfOUT_240_48_2_BADGER","BADGER",2,0.0208333333333333,240,"no effect"
"ssfOUT_240_48_2_BADGER.12",-0.226880792428989,-0.749043559894151,0.295281975036172,"ssf","mf.is","exp","vonmises",15,"ssfOUT_240_48_2_BADGER","BADGER",2,0.0208333333333333,240,"no effect"
"ssfOUT_240_48_2_BADGER.13",-0.390512150108527,-0.882460887403841,0.101436587186788,"ssf","mf.is","exp","vonmises",50,"ssfOUT_240_48_2_BADGER","BADGER",2,0.0208333333333333,240,"no effect"
"ssfOUT_240_48_2_BADGER.14",-0.0751175593676165,-0.55372956765057,0.403494448915337,"ssf","mf.is","exp","vonmises",158,"ssfOUT_240_48_2_BADGER","BADGER",2,0.0208333333333333,240,"no effect"
"ssfOUT_240_48_2_BADGER.15",-0.141505495253821,-0.613968354762174,0.330957364254533,"ssf","mf.is","exp","vonmises",500,"ssfOUT_240_48_2_BADGER","BADGER",2,0.0208333333333333,240,"no effect"
"ssfOUT_240_48_2_BADGER.16",-0.866461204279266,-1.51043399001745,-0.222488418541085,"ssf","mf.is","exp","unif",5,"ssfOUT_240_48_2_BADGER","BADGER",2,0.0208333333333333,240,"avoidance"
"ssfOUT_240_48_2_BADGER.17",-0.330143411205765,-0.828371394759562,0.168084572348032,"ssf","mf.is","exp","unif",15,"ssfOUT_240_48_2_BADGER","BADGER",2,0.0208333333333333,240,"no effect"
"ssfOUT_240_48_2_BADGER.18",-0.270894646246182,-0.752043419659247,0.210254127166882,"ssf","mf.is","exp","unif",50,"ssfOUT_240_48_2_BADGER","BADGER",2,0.0208333333333333,240,"no effect"
"ssfOUT_240_48_2_BADGER.19",-0.142887409394728,-0.617136928183172,0.331362109393717,"ssf","mf.is","exp","unif",158,"ssfOUT_240_48_2_BADGER","BADGER",2,0.0208333333333333,240,"no effect"
"ssfOUT_240_48_2_BADGER.20",-0.218125126073426,-0.690202330168792,0.25395207802194,"ssf","mf.is","exp","unif",500,"ssfOUT_240_48_2_BADGER","BADGER",2,0.0208333333333333,240,"no effect"
"ssfOUT_240_48_2_BADGER.21",-0.243693523500665,-0.763983624259626,0.276596577258297,"ssf","mf.ss","gamma","vonmises",5,"ssfOUT_240_48_2_BADGER","BADGER",2,0.0208333333333333,240,"no effect"
"ssfOUT_240_48_2_BADGER.22",-0.277045123584222,-0.763803945479752,0.209713698311309,"ssf","mf.ss","gamma","vonmises",15,"ssfOUT_240_48_2_BADGER","BADGER",2,0.0208333333333333,240,"no effect"
"ssfOUT_240_48_2_BADGER.23",-0.159997822475287,-0.636233064788224,0.316237419837649,"ssf","mf.ss","gamma","vonmises",50,"ssfOUT_240_48_2_BADGER","BADGER",2,0.0208333333333333,240,"no effect"
"ssfOUT_240_48_2_BADGER.24",-0.154633593290162,-0.627203714431921,0.317936527851598,"ssf","mf.ss","gamma","vonmises",158,"ssfOUT_240_48_2_BADGER","BADGER",2,0.0208333333333333,240,"no effect"
"ssfOUT_240_48_2_BADGER.25",-0.195386513039087,-0.665743501768989,0.274970475690816,"ssf","mf.ss","gamma","vonmises",500,"ssfOUT_240_48_2_BADGER","BADGER",2,0.0208333333333333,240,"no effect"
"ssfOUT_240_48_2_BADGER.26",-0.157421379671012,-0.686876099775314,0.372033340433291,"ssf","mf.ss","gamma","unif",5,"ssfOUT_240_48_2_BADGER","BADGER",2,0.0208333333333333,240,"no effect"
"ssfOUT_240_48_2_BADGER.27",-0.376248945475393,-0.870646904435032,0.118149013484247,"ssf","mf.ss","gamma","unif",15,"ssfOUT_240_48_2_BADGER","BADGER",2,0.0208333333333333,240,"no effect"
"ssfOUT_240_48_2_BADGER.28",-0.150871306459833,-0.625779907806171,0.324037294886506,"ssf","mf.ss","gamma","unif",50,"ssfOUT_240_48_2_BADGER","BADGER",2,0.0208333333333333,240,"no effect"
"ssfOUT_240_48_2_BADGER.29",-0.208130301459594,-0.679600855890266,0.263340252971079,"ssf","mf.ss","gamma","unif",158,"ssfOUT_240_48_2_BADGER","BADGER",2,0.0208333333333333,240,"no effect"
"ssfOUT_240_48_2_BADGER.30",-0.155558919843524,-0.625734672627572,0.314616832940523,"ssf","mf.ss","gamma","unif",500,"ssfOUT_240_48_2_BADGER","BADGER",2,0.0208333333333333,240,"no effect"
"ssfOUT_240_48_2_BADGER.31",0.234854416606198,-0.279994253826632,0.749703087039027,"ssf","mf.ss","exp","vonmises",5,"ssfOUT_240_48_2_BADGER","BADGER",2,0.0208333333333333,240,"no effect"
"ssfOUT_240_48_2_BADGER.32",0.0149525504982877,-0.475663786140973,0.505568887137549,"ssf","mf.ss","exp","vonmises",15,"ssfOUT_240_48_2_BADGER","BADGER",2,0.0208333333333333,240,"no effect"
"ssfOUT_240_48_2_BADGER.33",-0.192629384054707,-0.671790052121,0.286531284011586,"ssf","mf.ss","exp","vonmises",50,"ssfOUT_240_48_2_BADGER","BADGER",2,0.0208333333333333,240,"no effect"
"ssfOUT_240_48_2_BADGER.34",-0.117745909577521,-0.593604661647977,0.358112842492935,"ssf","mf.ss","exp","vonmises",158,"ssfOUT_240_48_2_BADGER","BADGER",2,0.0208333333333333,240,"no effect"
"ssfOUT_240_48_2_BADGER.35",-0.0505468107073273,-0.527048805801213,0.425955184386559,"ssf","mf.ss","exp","vonmises",500,"ssfOUT_240_48_2_BADGER","BADGER",2,0.0208333333333333,240,"no effect"
"ssfOUT_240_48_2_BADGER.36",-0.311311407598097,-0.84875993071916,0.226137115522966,"ssf","mf.ss","exp","unif",5,"ssfOUT_240_48_2_BADGER","BADGER",2,0.0208333333333333,240,"no effect"
"ssfOUT_240_48_2_BADGER.37",-0.346572404086704,-0.836236630398567,0.143091822225159,"ssf","mf.ss","exp","unif",15,"ssfOUT_240_48_2_BADGER","BADGER",2,0.0208333333333333,240,"no effect"
"ssfOUT_240_48_2_BADGER.38",-0.0933959394041921,-0.574800046477954,0.38800816766957,"ssf","mf.ss","exp","unif",50,"ssfOUT_240_48_2_BADGER","BADGER",2,0.0208333333333333,240,"no effect"
"ssfOUT_240_48_2_BADGER.39",-0.101478940265095,-0.578044151511134,0.375086270980944,"ssf","mf.ss","exp","unif",158,"ssfOUT_240_48_2_BADGER","BADGER",2,0.0208333333333333,240,"no effect"
"ssfOUT_240_48_2_BADGER.40",-0.160618671177342,-0.634892133175861,0.313654790821177,"ssf","mf.ss","exp","unif",500,"ssfOUT_240_48_2_BADGER","BADGER",2,0.0208333333333333,240,"no effect"
"ssfOUT_240_48_2_VULTURE.1",0.504839857678956,-0.254518140987831,1.26419785634574,"ssf","mf.is","gamma","vonmises",5,"ssfOUT_240_48_2_VULTURE","VULTURE",2,0.0208333333333333,240,"no effect"
"ssfOUT_240_48_2_VULTURE.2",0.649457692198306,0.00936042092811729,1.28955496346849,"ssf","mf.is","gamma","vonmises",15,"ssfOUT_240_48_2_VULTURE","VULTURE",2,0.0208333333333333,240,"preference"
"ssfOUT_240_48_2_VULTURE.3",0.35826927100819,-0.253927776229249,0.970466318245629,"ssf","mf.is","gamma","vonmises",50,"ssfOUT_240_48_2_VULTURE","VULTURE",2,0.0208333333333333,240,"no effect"
"ssfOUT_240_48_2_VULTURE.4",0.564345785504646,-0.0355195510748886,1.16421112208418,"ssf","mf.is","gamma","vonmises",158,"ssfOUT_240_48_2_VULTURE","VULTURE",2,0.0208333333333333,240,"no effect"
"ssfOUT_240_48_2_VULTURE.5",0.516106589324759,-0.0804033836539788,1.1126165623035,"ssf","mf.is","gamma","vonmises",500,"ssfOUT_240_48_2_VULTURE","VULTURE",2,0.0208333333333333,240,"no effect"
"ssfOUT_240_48_2_VULTURE.6",0.54571694465325,-0.131586623709438,1.22302051301594,"ssf","mf.is","gamma","unif",5,"ssfOUT_240_48_2_VULTURE","VULTURE",2,0.0208333333333333,240,"no effect"
"ssfOUT_240_48_2_VULTURE.7",0.648791514709153,0.0319003459481121,1.26568268347019,"ssf","mf.is","gamma","unif",15,"ssfOUT_240_48_2_VULTURE","VULTURE",2,0.0208333333333333,240,"preference"
"ssfOUT_240_48_2_VULTURE.8",0.380907827539257,-0.218912966375805,0.980728621454319,"ssf","mf.is","gamma","unif",50,"ssfOUT_240_48_2_VULTURE","VULTURE",2,0.0208333333333333,240,"no effect"
"ssfOUT_240_48_2_VULTURE.9",0.590507481111501,-0.00526385536943585,1.18627881759244,"ssf","mf.is","gamma","unif",158,"ssfOUT_240_48_2_VULTURE","VULTURE",2,0.0208333333333333,240,"no effect"
"ssfOUT_240_48_2_VULTURE.10",0.549262920136757,-0.0455287375831861,1.1440545778567,"ssf","mf.is","gamma","unif",500,"ssfOUT_240_48_2_VULTURE","VULTURE",2,0.0208333333333333,240,"no effect"
"ssfOUT_240_48_2_VULTURE.11",0.10183132429235,-0.732411224565906,0.936073873150605,"ssf","mf.is","exp","vonmises",5,"ssfOUT_240_48_2_VULTURE","VULTURE",2,0.0208333333333333,240,"no effect"
"ssfOUT_240_48_2_VULTURE.12",-0.126340527878903,-0.806810790013199,0.554129734255392,"ssf","mf.is","exp","vonmises",15,"ssfOUT_240_48_2_VULTURE","VULTURE",2,0.0208333333333333,240,"no effect"
"ssfOUT_240_48_2_VULTURE.13",0.30941466015893,-0.302547869418927,0.921377189736787,"ssf","mf.is","exp","vonmises",50,"ssfOUT_240_48_2_VULTURE","VULTURE",2,0.0208333333333333,240,"no effect"
"ssfOUT_240_48_2_VULTURE.14",0.493298052591807,-0.108630855026834,1.09522696021045,"ssf","mf.is","exp","vonmises",158,"ssfOUT_240_48_2_VULTURE","VULTURE",2,0.0208333333333333,240,"no effect"
"ssfOUT_240_48_2_VULTURE.15",0.523328239290976,-0.0726012030502573,1.11925768163221,"ssf","mf.is","exp","vonmises",500,"ssfOUT_240_48_2_VULTURE","VULTURE",2,0.0208333333333333,240,"no effect"
"ssfOUT_240_48_2_VULTURE.16",0.103326263656462,-0.575821342012226,0.78247386932515,"ssf","mf.is","exp","unif",5,"ssfOUT_240_48_2_VULTURE","VULTURE",2,0.0208333333333333,240,"no effect"
"ssfOUT_240_48_2_VULTURE.17",0.458164128146552,-0.169053613572818,1.08538186986592,"ssf","mf.is","exp","unif",15,"ssfOUT_240_48_2_VULTURE","VULTURE",2,0.0208333333333333,240,"no effect"
"ssfOUT_240_48_2_VULTURE.18",0.425987543299486,-0.174817617649186,1.02679270424816,"ssf","mf.is","exp","unif",50,"ssfOUT_240_48_2_VULTURE","VULTURE",2,0.0208333333333333,240,"no effect"
"ssfOUT_240_48_2_VULTURE.19",0.473859843694843,-0.123210246106773,1.07092993349646,"ssf","mf.is","exp","unif",158,"ssfOUT_240_48_2_VULTURE","VULTURE",2,0.0208333333333333,240,"no effect"
"ssfOUT_240_48_2_VULTURE.20",0.486544987657841,-0.108542318369771,1.08163229368545,"ssf","mf.is","exp","unif",500,"ssfOUT_240_48_2_VULTURE","VULTURE",2,0.0208333333333333,240,"no effect"
"ssfOUT_240_48_2_VULTURE.21",0.60461598469929,-0.0341423738868546,1.24337434328543,"ssf","mf.ss","gamma","vonmises",5,"ssfOUT_240_48_2_VULTURE","VULTURE",2,0.0208333333333333,240,"no effect"
"ssfOUT_240_48_2_VULTURE.22",0.461472886483428,-0.143229878717343,1.0661756516842,"ssf","mf.ss","gamma","vonmises",15,"ssfOUT_240_48_2_VULTURE","VULTURE",2,0.0208333333333333,240,"no effect"
"ssfOUT_240_48_2_VULTURE.23",0.0911961379847418,-0.507243479059947,0.689635755029431,"ssf","mf.ss","gamma","vonmises",50,"ssfOUT_240_48_2_VULTURE","VULTURE",2,0.0208333333333333,240,"no effect"
"ssfOUT_240_48_2_VULTURE.24",0.261119789254345,-0.333071628718971,0.855311207227661,"ssf","mf.ss","gamma","vonmises",158,"ssfOUT_240_48_2_VULTURE","VULTURE",2,0.0208333333333333,240,"no effect"
"ssfOUT_240_48_2_VULTURE.25",0.231707328664341,-0.360948206217477,0.824362863546159,"ssf","mf.ss","gamma","vonmises",500,"ssfOUT_240_48_2_VULTURE","VULTURE",2,0.0208333333333333,240,"no effect"
"ssfOUT_240_48_2_VULTURE.26",0.242620092560985,-0.416481720979205,0.901721906101175,"ssf","mf.ss","gamma","unif",5,"ssfOUT_240_48_2_VULTURE","VULTURE",2,0.0208333333333333,240,"no effect"
"ssfOUT_240_48_2_VULTURE.27",0.460962789888265,-0.149958890757213,1.07188447053374,"ssf","mf.ss","gamma","unif",15,"ssfOUT_240_48_2_VULTURE","VULTURE",2,0.0208333333333333,240,"no effect"
"ssfOUT_240_48_2_VULTURE.28",0.349576579263846,-0.247594285138405,0.946747443666097,"ssf","mf.ss","gamma","unif",50,"ssfOUT_240_48_2_VULTURE","VULTURE",2,0.0208333333333333,240,"no effect"
"ssfOUT_240_48_2_VULTURE.29",0.443826787085975,-0.149338605495255,1.0369921796672,"ssf","mf.ss","gamma","unif",158,"ssfOUT_240_48_2_VULTURE","VULTURE",2,0.0208333333333333,240,"no effect"
"ssfOUT_240_48_2_VULTURE.30",0.407321488420767,-0.185554637609382,1.00019761445092,"ssf","mf.ss","gamma","unif",500,"ssfOUT_240_48_2_VULTURE","VULTURE",2,0.0208333333333333,240,"no effect"
"ssfOUT_240_48_2_VULTURE.31",0.00806053752136448,-0.653332808249694,0.669453883292423,"ssf","mf.ss","exp","vonmises",5,"ssfOUT_240_48_2_VULTURE","VULTURE",2,0.0208333333333333,240,"no effect"
"ssfOUT_240_48_2_VULTURE.32",-0.0771700251705676,-0.692980079404457,0.538640029063322,"ssf","mf.ss","exp","vonmises",15,"ssfOUT_240_48_2_VULTURE","VULTURE",2,0.0208333333333333,240,"no effect"
"ssfOUT_240_48_2_VULTURE.33",0.180245995097499,-0.418734683376629,0.779226673571627,"ssf","mf.ss","exp","vonmises",50,"ssfOUT_240_48_2_VULTURE","VULTURE",2,0.0208333333333333,240,"no effect"
"ssfOUT_240_48_2_VULTURE.34",0.198415182918615,-0.3974967964933,0.79432716233053,"ssf","mf.ss","exp","vonmises",158,"ssfOUT_240_48_2_VULTURE","VULTURE",2,0.0208333333333333,240,"no effect"
"ssfOUT_240_48_2_VULTURE.35",0.156679364452939,-0.438866885087944,0.752225613993822,"ssf","mf.ss","exp","vonmises",500,"ssfOUT_240_48_2_VULTURE","VULTURE",2,0.0208333333333333,240,"no effect"
"ssfOUT_240_48_2_VULTURE.36",0.0374331093848109,-0.605821051078015,0.680687269847637,"ssf","mf.ss","exp","unif",5,"ssfOUT_240_48_2_VULTURE","VULTURE",2,0.0208333333333333,240,"no effect"
"ssfOUT_240_48_2_VULTURE.37",0.440355272284326,-0.172343380181932,1.05305392475058,"ssf","mf.ss","exp","unif",15,"ssfOUT_240_48_2_VULTURE","VULTURE",2,0.0208333333333333,240,"no effect"
"ssfOUT_240_48_2_VULTURE.38",0.310677346266979,-0.291756773305729,0.913111465839688,"ssf","mf.ss","exp","unif",50,"ssfOUT_240_48_2_VULTURE","VULTURE",2,0.0208333333333333,240,"no effect"
"ssfOUT_240_48_2_VULTURE.39",0.290171808664319,-0.30722767529993,0.887571292628567,"ssf","mf.ss","exp","unif",158,"ssfOUT_240_48_2_VULTURE","VULTURE",2,0.0208333333333333,240,"no effect"
"ssfOUT_240_48_2_VULTURE.40",0.316802673406718,-0.279022152637649,0.912627499451084,"ssf","mf.ss","exp","unif",500,"ssfOUT_240_48_2_VULTURE","VULTURE",2,0.0208333333333333,240,"no effect"
"ssfOUT_240_48_2_KINGCOBRA.1",0.809712813313481,-0.317064582455463,1.93649020908242,"ssf","mf.is","gamma","vonmises",5,"ssfOUT_240_48_2_KINGCOBRA","KINGCOBRA",2,0.0208333333333333,240,"no effect"
"ssfOUT_240_48_2_KINGCOBRA.2",1.20270420737019,0.166020744546278,2.2393876701941,"ssf","mf.is","gamma","vonmises",15,"ssfOUT_240_48_2_KINGCOBRA","KINGCOBRA",2,0.0208333333333333,240,"preference"
"ssfOUT_240_48_2_KINGCOBRA.3",0.875265782796746,-0.143339815830736,1.89387138142423,"ssf","mf.is","gamma","vonmises",50,"ssfOUT_240_48_2_KINGCOBRA","KINGCOBRA",2,0.0208333333333333,240,"no effect"
"ssfOUT_240_48_2_KINGCOBRA.4",1.0830585366705,0.0690574752558912,2.09705959808511,"ssf","mf.is","gamma","vonmises",158,"ssfOUT_240_48_2_KINGCOBRA","KINGCOBRA",2,0.0208333333333333,240,"preference"
"ssfOUT_240_48_2_KINGCOBRA.5",0.918050375961416,-0.0942683275083188,1.93036907943115,"ssf","mf.is","gamma","vonmises",500,"ssfOUT_240_48_2_KINGCOBRA","KINGCOBRA",2,0.0208333333333333,240,"no effect"
"ssfOUT_240_48_2_KINGCOBRA.6",0.893201200893139,-0.178559149188759,1.96496155097504,"ssf","mf.is","gamma","unif",5,"ssfOUT_240_48_2_KINGCOBRA","KINGCOBRA",2,0.0208333333333333,240,"no effect"
"ssfOUT_240_48_2_KINGCOBRA.7",0.852621711461008,-0.176137222508121,1.88138064543014,"ssf","mf.is","gamma","unif",15,"ssfOUT_240_48_2_KINGCOBRA","KINGCOBRA",2,0.0208333333333333,240,"no effect"
"ssfOUT_240_48_2_KINGCOBRA.8",1.02306669927979,0.00807007040318442,2.0380633281564,"ssf","mf.is","gamma","unif",50,"ssfOUT_240_48_2_KINGCOBRA","KINGCOBRA",2,0.0208333333333333,240,"preference"
"ssfOUT_240_48_2_KINGCOBRA.9",1.08056233127334,0.0672232093599086,2.09390145318677,"ssf","mf.is","gamma","unif",158,"ssfOUT_240_48_2_KINGCOBRA","KINGCOBRA",2,0.0208333333333333,240,"preference"
"ssfOUT_240_48_2_KINGCOBRA.10",1.00953578294708,-0.00255272490530456,2.02162429079947,"ssf","mf.is","gamma","unif",500,"ssfOUT_240_48_2_KINGCOBRA","KINGCOBRA",2,0.0208333333333333,240,"no effect"
"ssfOUT_240_48_2_KINGCOBRA.11",1.07589700392404,-0.105935372336203,2.25772938018427,"ssf","mf.is","exp","vonmises",5,"ssfOUT_240_48_2_KINGCOBRA","KINGCOBRA",2,0.0208333333333333,240,"no effect"
"ssfOUT_240_48_2_KINGCOBRA.12",0.879829317228508,-0.170596654577494,1.93025528903451,"ssf","mf.is","exp","vonmises",15,"ssfOUT_240_48_2_KINGCOBRA","KINGCOBRA",2,0.0208333333333333,240,"no effect"
"ssfOUT_240_48_2_KINGCOBRA.13",1.14551305220174,0.125147245962444,2.16587885844104,"ssf","mf.is","exp","vonmises",50,"ssfOUT_240_48_2_KINGCOBRA","KINGCOBRA",2,0.0208333333333333,240,"preference"
"ssfOUT_240_48_2_KINGCOBRA.14",0.827532791821121,-0.188217750272265,1.84328333391451,"ssf","mf.is","exp","vonmises",158,"ssfOUT_240_48_2_KINGCOBRA","KINGCOBRA",2,0.0208333333333333,240,"no effect"
"ssfOUT_240_48_2_KINGCOBRA.15",0.925866699699156,-0.0871005303223292,1.93883392972064,"ssf","mf.is","exp","vonmises",500,"ssfOUT_240_48_2_KINGCOBRA","KINGCOBRA",2,0.0208333333333333,240,"no effect"
"ssfOUT_240_48_2_KINGCOBRA.16",0.726183748040357,-0.350873104973814,1.80324060105453,"ssf","mf.is","exp","unif",5,"ssfOUT_240_48_2_KINGCOBRA","KINGCOBRA",2,0.0208333333333333,240,"no effect"
"ssfOUT_240_48_2_KINGCOBRA.17",1.00896415486442,-0.0230163753646815,2.04094468509352,"ssf","mf.is","exp","unif",15,"ssfOUT_240_48_2_KINGCOBRA","KINGCOBRA",2,0.0208333333333333,240,"no effect"
"ssfOUT_240_48_2_KINGCOBRA.18",0.959448245801358,-0.059821322667198,1.97871781426991,"ssf","mf.is","exp","unif",50,"ssfOUT_240_48_2_KINGCOBRA","KINGCOBRA",2,0.0208333333333333,240,"no effect"
"ssfOUT_240_48_2_KINGCOBRA.19",0.981257369281917,-0.0324031199268759,1.99491785849071,"ssf","mf.is","exp","unif",158,"ssfOUT_240_48_2_KINGCOBRA","KINGCOBRA",2,0.0208333333333333,240,"no effect"
"ssfOUT_240_48_2_KINGCOBRA.20",1.03527039974399,0.0232785705801632,2.04726222890782,"ssf","mf.is","exp","unif",500,"ssfOUT_240_48_2_KINGCOBRA","KINGCOBRA",2,0.0208333333333333,240,"preference"
"ssfOUT_240_48_2_KINGCOBRA.21",0.749738332589385,-0.300802573768749,1.80027923894752,"ssf","mf.ss","gamma","vonmises",5,"ssfOUT_240_48_2_KINGCOBRA","KINGCOBRA",2,0.0208333333333333,240,"no effect"
"ssfOUT_240_48_2_KINGCOBRA.22",1.1041339261077,0.0837331407022139,2.12453471151318,"ssf","mf.ss","gamma","vonmises",15,"ssfOUT_240_48_2_KINGCOBRA","KINGCOBRA",2,0.0208333333333333,240,"preference"
"ssfOUT_240_48_2_KINGCOBRA.23",0.938399716594928,-0.0751035826954903,1.95190301588535,"ssf","mf.ss","gamma","vonmises",50,"ssfOUT_240_48_2_KINGCOBRA","KINGCOBRA",2,0.0208333333333333,240,"no effect"
"ssfOUT_240_48_2_KINGCOBRA.24",0.970144912345483,-0.0415074758350659,1.98179730052603,"ssf","mf.ss","gamma","vonmises",158,"ssfOUT_240_48_2_KINGCOBRA","KINGCOBRA",2,0.0208333333333333,240,"no effect"
"ssfOUT_240_48_2_KINGCOBRA.25",0.860151223818431,-0.150670829474263,1.87097327711113,"ssf","mf.ss","gamma","vonmises",500,"ssfOUT_240_48_2_KINGCOBRA","KINGCOBRA",2,0.0208333333333333,240,"no effect"
"ssfOUT_240_48_2_KINGCOBRA.26",0.914431884456239,-0.144246997277727,1.9731107661902,"ssf","mf.ss","gamma","unif",5,"ssfOUT_240_48_2_KINGCOBRA","KINGCOBRA",2,0.0208333333333333,240,"no effect"
"ssfOUT_240_48_2_KINGCOBRA.27",0.994236402355469,-0.0265155954165605,2.0149884001275,"ssf","mf.ss","gamma","unif",15,"ssfOUT_240_48_2_KINGCOBRA","KINGCOBRA",2,0.0208333333333333,240,"no effect"
"ssfOUT_240_48_2_KINGCOBRA.28",1.01917770253225,0.00535704986276242,2.03299835520175,"ssf","mf.ss","gamma","unif",50,"ssfOUT_240_48_2_KINGCOBRA","KINGCOBRA",2,0.0208333333333333,240,"preference"
"ssfOUT_240_48_2_KINGCOBRA.29",1.02106893900506,0.00972259035025091,2.03241528765987,"ssf","mf.ss","gamma","unif",158,"ssfOUT_240_48_2_KINGCOBRA","KINGCOBRA",2,0.0208333333333333,240,"preference"
"ssfOUT_240_48_2_KINGCOBRA.30",0.946695661712417,-0.0638809889750864,1.95727231239992,"ssf","mf.ss","gamma","unif",500,"ssfOUT_240_48_2_KINGCOBRA","KINGCOBRA",2,0.0208333333333333,240,"no effect"
"ssfOUT_240_48_2_KINGCOBRA.31",0.832207384331126,-0.24509257421824,1.90950734288049,"ssf","mf.ss","exp","vonmises",5,"ssfOUT_240_48_2_KINGCOBRA","KINGCOBRA",2,0.0208333333333333,240,"no effect"
"ssfOUT_240_48_2_KINGCOBRA.32",0.809377464500031,-0.21395258389983,1.83270751289989,"ssf","mf.ss","exp","vonmises",15,"ssfOUT_240_48_2_KINGCOBRA","KINGCOBRA",2,0.0208333333333333,240,"no effect"
"ssfOUT_240_48_2_KINGCOBRA.33",1.08356614137531,0.0688490172478211,2.0982832655028,"ssf","mf.ss","exp","vonmises",50,"ssfOUT_240_48_2_KINGCOBRA","KINGCOBRA",2,0.0208333333333333,240,"preference"
"ssfOUT_240_48_2_KINGCOBRA.34",0.885445178370646,-0.127398726475764,1.89828908321706,"ssf","mf.ss","exp","vonmises",158,"ssfOUT_240_48_2_KINGCOBRA","KINGCOBRA",2,0.0208333333333333,240,"no effect"
"ssfOUT_240_48_2_KINGCOBRA.35",0.911006743412007,-0.10114305139705,1.92315653822107,"ssf","mf.ss","exp","vonmises",500,"ssfOUT_240_48_2_KINGCOBRA","KINGCOBRA",2,0.0208333333333333,240,"no effect"
"ssfOUT_240_48_2_KINGCOBRA.36",0.604783363142114,-0.450196372029935,1.65976309831416,"ssf","mf.ss","exp","unif",5,"ssfOUT_240_48_2_KINGCOBRA","KINGCOBRA",2,0.0208333333333333,240,"no effect"
"ssfOUT_240_48_2_KINGCOBRA.37",1.06081532061964,0.0355605315805576,2.08607010965873,"ssf","mf.ss","exp","unif",15,"ssfOUT_240_48_2_KINGCOBRA","KINGCOBRA",2,0.0208333333333333,240,"preference"
"ssfOUT_240_48_2_KINGCOBRA.38",0.992738213143931,-0.022370229282631,2.00784665557049,"ssf","mf.ss","exp","unif",50,"ssfOUT_240_48_2_KINGCOBRA","KINGCOBRA",2,0.0208333333333333,240,"no effect"
"ssfOUT_240_48_2_KINGCOBRA.39",0.935356934118548,-0.0774235438042964,1.94813741204139,"ssf","mf.ss","exp","unif",158,"ssfOUT_240_48_2_KINGCOBRA","KINGCOBRA",2,0.0208333333333333,240,"no effect"
"ssfOUT_240_48_2_KINGCOBRA.40",1.03373488695966,0.0222466540200925,2.04522311989924,"ssf","mf.ss","exp","unif",500,"ssfOUT_240_48_2_KINGCOBRA","KINGCOBRA",2,0.0208333333333333,240,"preference"
"ssfOUT_240_48_3_BADGER.1",-0.0808233142044081,-0.722068994564777,0.560422366155961,"ssf","mf.is","gamma","vonmises",5,"ssfOUT_240_48_3_BADGER","BADGER",3,0.0208333333333333,240,"no effect"
"ssfOUT_240_48_3_BADGER.2",-0.208176070074913,-0.743908306180259,0.327556166030433,"ssf","mf.is","gamma","vonmises",15,"ssfOUT_240_48_3_BADGER","BADGER",3,0.0208333333333333,240,"no effect"
"ssfOUT_240_48_3_BADGER.3",-0.185938643719596,-0.679016282762347,0.307138995323155,"ssf","mf.is","gamma","vonmises",50,"ssfOUT_240_48_3_BADGER","BADGER",3,0.0208333333333333,240,"no effect"
"ssfOUT_240_48_3_BADGER.4",-0.318914538241344,-0.796779018109379,0.158949941626691,"ssf","mf.is","gamma","vonmises",158,"ssfOUT_240_48_3_BADGER","BADGER",3,0.0208333333333333,240,"no effect"
"ssfOUT_240_48_3_BADGER.5",-0.296645481930377,-0.770711248402879,0.177420284542125,"ssf","mf.is","gamma","vonmises",500,"ssfOUT_240_48_3_BADGER","BADGER",3,0.0208333333333333,240,"no effect"
"ssfOUT_240_48_3_BADGER.6",-0.0993337585544128,-0.620768491463993,0.422100974355167,"ssf","mf.is","gamma","unif",5,"ssfOUT_240_48_3_BADGER","BADGER",3,0.0208333333333333,240,"no effect"
"ssfOUT_240_48_3_BADGER.7",-0.10666498107036,-0.599507508111897,0.386177545971177,"ssf","mf.is","gamma","unif",15,"ssfOUT_240_48_3_BADGER","BADGER",3,0.0208333333333333,240,"no effect"
"ssfOUT_240_48_3_BADGER.8",-0.487817504550635,-0.970041471015266,-0.00559353808600443,"ssf","mf.is","gamma","unif",50,"ssfOUT_240_48_3_BADGER","BADGER",3,0.0208333333333333,240,"avoidance"
"ssfOUT_240_48_3_BADGER.9",-0.349902498887026,-0.824777804560151,0.124972806786099,"ssf","mf.is","gamma","unif",158,"ssfOUT_240_48_3_BADGER","BADGER",3,0.0208333333333333,240,"no effect"
"ssfOUT_240_48_3_BADGER.10",-0.335160466042312,-0.808438547325281,0.138117615240657,"ssf","mf.is","gamma","unif",500,"ssfOUT_240_48_3_BADGER","BADGER",3,0.0208333333333333,240,"no effect"
"ssfOUT_240_48_3_BADGER.11",-0.0988985038316345,-0.727632557697347,0.529835550034078,"ssf","mf.is","exp","vonmises",5,"ssfOUT_240_48_3_BADGER","BADGER",3,0.0208333333333333,240,"no effect"
"ssfOUT_240_48_3_BADGER.12",-0.848854970506417,-1.40043963162003,-0.297270309392801,"ssf","mf.is","exp","vonmises",15,"ssfOUT_240_48_3_BADGER","BADGER",3,0.0208333333333333,240,"avoidance"
"ssfOUT_240_48_3_BADGER.13",-0.183122893851355,-0.681944116245032,0.315698328542323,"ssf","mf.is","exp","vonmises",50,"ssfOUT_240_48_3_BADGER","BADGER",3,0.0208333333333333,240,"no effect"
"ssfOUT_240_48_3_BADGER.14",-0.587054068737505,-1.07010137255243,-0.10400676492258,"ssf","mf.is","exp","vonmises",158,"ssfOUT_240_48_3_BADGER","BADGER",3,0.0208333333333333,240,"avoidance"
"ssfOUT_240_48_3_BADGER.15",-0.388700831026124,-0.864451736692412,0.0870500746401647,"ssf","mf.is","exp","vonmises",500,"ssfOUT_240_48_3_BADGER","BADGER",3,0.0208333333333333,240,"no effect"
"ssfOUT_240_48_3_BADGER.16",-1.13162089963509,-1.80377536073161,-0.459466438538561,"ssf","mf.is","exp","unif",5,"ssfOUT_240_48_3_BADGER","BADGER",3,0.0208333333333333,240,"avoidance"
"ssfOUT_240_48_3_BADGER.17",-0.403959500431302,-0.911254195393695,0.10333519453109,"ssf","mf.is","exp","unif",15,"ssfOUT_240_48_3_BADGER","BADGER",3,0.0208333333333333,240,"no effect"
"ssfOUT_240_48_3_BADGER.18",-0.39252636648978,-0.874548850710607,0.0894961177310467,"ssf","mf.is","exp","unif",50,"ssfOUT_240_48_3_BADGER","BADGER",3,0.0208333333333333,240,"no effect"
"ssfOUT_240_48_3_BADGER.19",-0.343314652947234,-0.819596326942103,0.132967021047636,"ssf","mf.is","exp","unif",158,"ssfOUT_240_48_3_BADGER","BADGER",3,0.0208333333333333,240,"no effect"
"ssfOUT_240_48_3_BADGER.20",-0.322441380282166,-0.796290202439462,0.15140744187513,"ssf","mf.is","exp","unif",500,"ssfOUT_240_48_3_BADGER","BADGER",3,0.0208333333333333,240,"no effect"
"ssfOUT_240_48_3_BADGER.21",-0.280399402556861,-0.824986511184565,0.264187706070842,"ssf","mf.ss","gamma","vonmises",5,"ssfOUT_240_48_3_BADGER","BADGER",3,0.0208333333333333,240,"no effect"
"ssfOUT_240_48_3_BADGER.22",-0.683856431038392,-1.1819306857419,-0.185782176334887,"ssf","mf.ss","gamma","vonmises",15,"ssfOUT_240_48_3_BADGER","BADGER",3,0.0208333333333333,240,"avoidance"
"ssfOUT_240_48_3_BADGER.23",-0.338256519500432,-0.814996243456579,0.138483204455716,"ssf","mf.ss","gamma","vonmises",50,"ssfOUT_240_48_3_BADGER","BADGER",3,0.0208333333333333,240,"no effect"
"ssfOUT_240_48_3_BADGER.24",-0.445667611375828,-0.916766884050093,0.0254316612984361,"ssf","mf.ss","gamma","vonmises",158,"ssfOUT_240_48_3_BADGER","BADGER",3,0.0208333333333333,240,"no effect"
"ssfOUT_240_48_3_BADGER.25",-0.405494378659185,-0.87494907591277,0.0639603185943992,"ssf","mf.ss","gamma","vonmises",500,"ssfOUT_240_48_3_BADGER","BADGER",3,0.0208333333333333,240,"no effect"
"ssfOUT_240_48_3_BADGER.26",-0.170703171273183,-0.688639460106796,0.34723311756043,"ssf","mf.ss","gamma","unif",5,"ssfOUT_240_48_3_BADGER","BADGER",3,0.0208333333333333,240,"no effect"
"ssfOUT_240_48_3_BADGER.27",-0.136140108102847,-0.619624546014841,0.347344329809148,"ssf","mf.ss","gamma","unif",15,"ssfOUT_240_48_3_BADGER","BADGER",3,0.0208333333333333,240,"no effect"
"ssfOUT_240_48_3_BADGER.28",-0.441005343025598,-0.918011410436475,0.0360007243852787,"ssf","mf.ss","gamma","unif",50,"ssfOUT_240_48_3_BADGER","BADGER",3,0.0208333333333333,240,"no effect"
"ssfOUT_240_48_3_BADGER.29",-0.413043089593849,-0.883795294102035,0.0577091149143366,"ssf","mf.ss","gamma","unif",158,"ssfOUT_240_48_3_BADGER","BADGER",3,0.0208333333333333,240,"no effect"
"ssfOUT_240_48_3_BADGER.30",-0.3824784389427,-0.851834119469733,0.0868772415843322,"ssf","mf.ss","gamma","unif",500,"ssfOUT_240_48_3_BADGER","BADGER",3,0.0208333333333333,240,"no effect"
"ssfOUT_240_48_3_BADGER.31",0.0614262507946065,-0.447866008693107,0.57071851028232,"ssf","mf.ss","exp","vonmises",5,"ssfOUT_240_48_3_BADGER","BADGER",3,0.0208333333333333,240,"no effect"
"ssfOUT_240_48_3_BADGER.32",-0.415969259467225,-0.910036082028955,0.0780975630945056,"ssf","mf.ss","exp","vonmises",15,"ssfOUT_240_48_3_BADGER","BADGER",3,0.0208333333333333,240,"no effect"
"ssfOUT_240_48_3_BADGER.33",-0.199506347014416,-0.676790358793733,0.277777664764901,"ssf","mf.ss","exp","vonmises",50,"ssfOUT_240_48_3_BADGER","BADGER",3,0.0208333333333333,240,"no effect"
"ssfOUT_240_48_3_BADGER.34",-0.389851146042891,-0.864377827681338,0.0846755355955559,"ssf","mf.ss","exp","vonmises",158,"ssfOUT_240_48_3_BADGER","BADGER",3,0.0208333333333333,240,"no effect"
"ssfOUT_240_48_3_BADGER.35",-0.387405207385466,-0.860503670564677,0.0856932557937446,"ssf","mf.ss","exp","vonmises",500,"ssfOUT_240_48_3_BADGER","BADGER",3,0.0208333333333333,240,"no effect"
"ssfOUT_240_48_3_BADGER.36",-0.884794147556517,-1.458003114504,-0.311585180609034,"ssf","mf.ss","exp","unif",5,"ssfOUT_240_48_3_BADGER","BADGER",3,0.0208333333333333,240,"avoidance"
"ssfOUT_240_48_3_BADGER.37",-0.325470864656951,-0.824239618128435,0.173297888814533,"ssf","mf.ss","exp","unif",15,"ssfOUT_240_48_3_BADGER","BADGER",3,0.0208333333333333,240,"no effect"
"ssfOUT_240_48_3_BADGER.38",-0.248598510567066,-0.726245912017387,0.229048890883254,"ssf","mf.ss","exp","unif",50,"ssfOUT_240_48_3_BADGER","BADGER",3,0.0208333333333333,240,"no effect"
"ssfOUT_240_48_3_BADGER.39",-0.372234070017613,-0.847088676192497,0.102620536157272,"ssf","mf.ss","exp","unif",158,"ssfOUT_240_48_3_BADGER","BADGER",3,0.0208333333333333,240,"no effect"
"ssfOUT_240_48_3_BADGER.40",-0.307884991776475,-0.782076626926453,0.166306643373502,"ssf","mf.ss","exp","unif",500,"ssfOUT_240_48_3_BADGER","BADGER",3,0.0208333333333333,240,"no effect"
"ssfOUT_240_48_3_VULTURE.1",-0.871379779140822,-1.58882320643612,-0.153936351845526,"ssf","mf.is","gamma","vonmises",5,"ssfOUT_240_48_3_VULTURE","VULTURE",3,0.0208333333333333,240,"avoidance"
"ssfOUT_240_48_3_VULTURE.2",0.299139403261907,-0.261965817232311,0.860244623756126,"ssf","mf.is","gamma","vonmises",15,"ssfOUT_240_48_3_VULTURE","VULTURE",3,0.0208333333333333,240,"no effect"
"ssfOUT_240_48_3_VULTURE.3",0.115382018823201,-0.416319810103746,0.647083847750147,"ssf","mf.is","gamma","vonmises",50,"ssfOUT_240_48_3_VULTURE","VULTURE",3,0.0208333333333333,240,"no effect"
"ssfOUT_240_48_3_VULTURE.4",0.121476195583726,-0.400872643695215,0.643825034862667,"ssf","mf.is","gamma","vonmises",158,"ssfOUT_240_48_3_VULTURE","VULTURE",3,0.0208333333333333,240,"no effect"
"ssfOUT_240_48_3_VULTURE.5",0.00871537339122103,-0.51196967702151,0.529400423803952,"ssf","mf.is","gamma","vonmises",500,"ssfOUT_240_48_3_VULTURE","VULTURE",3,0.0208333333333333,240,"no effect"
"ssfOUT_240_48_3_VULTURE.6",-0.21086718791822,-0.83014511846574,0.4084107426293,"ssf","mf.is","gamma","unif",5,"ssfOUT_240_48_3_VULTURE","VULTURE",3,0.0208333333333333,240,"no effect"
"ssfOUT_240_48_3_VULTURE.7",0.197201970847171,-0.34134540328478,0.735749344979121,"ssf","mf.is","gamma","unif",15,"ssfOUT_240_48_3_VULTURE","VULTURE",3,0.0208333333333333,240,"no effect"
"ssfOUT_240_48_3_VULTURE.8",0.220067977375798,-0.305658385405425,0.745794340157021,"ssf","mf.is","gamma","unif",50,"ssfOUT_240_48_3_VULTURE","VULTURE",3,0.0208333333333333,240,"no effect"
"ssfOUT_240_48_3_VULTURE.9",0.097677867876602,-0.423670046051746,0.61902578180495,"ssf","mf.is","gamma","unif",158,"ssfOUT_240_48_3_VULTURE","VULTURE",3,0.0208333333333333,240,"no effect"
"ssfOUT_240_48_3_VULTURE.10",0.0923336267076428,-0.427634404655318,0.612301658070603,"ssf","mf.is","gamma","unif",500,"ssfOUT_240_48_3_VULTURE","VULTURE",3,0.0208333333333333,240,"no effect"
"ssfOUT_240_48_3_VULTURE.11",-0.534570512027643,-1.19389505877785,0.124754034722566,"ssf","mf.is","exp","vonmises",5,"ssfOUT_240_48_3_VULTURE","VULTURE",3,0.0208333333333333,240,"no effect"
"ssfOUT_240_48_3_VULTURE.12",-0.159064247641857,-0.73946222078869,0.421333725504975,"ssf","mf.is","exp","vonmises",15,"ssfOUT_240_48_3_VULTURE","VULTURE",3,0.0208333333333333,240,"no effect"
"ssfOUT_240_48_3_VULTURE.13",0.263487831980698,-0.273921179556441,0.800896843517837,"ssf","mf.is","exp","vonmises",50,"ssfOUT_240_48_3_VULTURE","VULTURE",3,0.0208333333333333,240,"no effect"
"ssfOUT_240_48_3_VULTURE.14",0.116219269214771,-0.410661850132494,0.643100388562036,"ssf","mf.is","exp","vonmises",158,"ssfOUT_240_48_3_VULTURE","VULTURE",3,0.0208333333333333,240,"no effect"
"ssfOUT_240_48_3_VULTURE.15",0.11843758651838,-0.402281175785659,0.639156348822418,"ssf","mf.is","exp","vonmises",500,"ssfOUT_240_48_3_VULTURE","VULTURE",3,0.0208333333333333,240,"no effect"
"ssfOUT_240_48_3_VULTURE.16",0.00405471098981046,-0.595678585954722,0.603788007934343,"ssf","mf.is","exp","unif",5,"ssfOUT_240_48_3_VULTURE","VULTURE",3,0.0208333333333333,240,"no effect"
"ssfOUT_240_48_3_VULTURE.17",0.136189832229528,-0.415544655494932,0.687924319953988,"ssf","mf.is","exp","unif",15,"ssfOUT_240_48_3_VULTURE","VULTURE",3,0.0208333333333333,240,"no effect"
"ssfOUT_240_48_3_VULTURE.18",-0.0613360758621011,-0.590904452394826,0.468232300670624,"ssf","mf.is","exp","unif",50,"ssfOUT_240_48_3_VULTURE","VULTURE",3,0.0208333333333333,240,"no effect"
"ssfOUT_240_48_3_VULTURE.19",0.0601074434226416,-0.463617509406531,0.583832396251815,"ssf","mf.is","exp","unif",158,"ssfOUT_240_48_3_VULTURE","VULTURE",3,0.0208333333333333,240,"no effect"
"ssfOUT_240_48_3_VULTURE.20",0.0986748795419845,-0.421756897953962,0.619106657037931,"ssf","mf.is","exp","unif",500,"ssfOUT_240_48_3_VULTURE","VULTURE",3,0.0208333333333333,240,"no effect"
"ssfOUT_240_48_3_VULTURE.21",-0.692004006133666,-1.30316927877029,-0.0808387334970384,"ssf","mf.ss","gamma","vonmises",5,"ssfOUT_240_48_3_VULTURE","VULTURE",3,0.0208333333333333,240,"avoidance"
"ssfOUT_240_48_3_VULTURE.22",0.0491734912335628,-0.487564296982305,0.585911279449431,"ssf","mf.ss","gamma","vonmises",15,"ssfOUT_240_48_3_VULTURE","VULTURE",3,0.0208333333333333,240,"no effect"
"ssfOUT_240_48_3_VULTURE.23",0.134763837730387,-0.388979511342292,0.658507186803066,"ssf","mf.ss","gamma","vonmises",50,"ssfOUT_240_48_3_VULTURE","VULTURE",3,0.0208333333333333,240,"no effect"
"ssfOUT_240_48_3_VULTURE.24",0.0326497525580181,-0.486997232647451,0.552296737763487,"ssf","mf.ss","gamma","vonmises",158,"ssfOUT_240_48_3_VULTURE","VULTURE",3,0.0208333333333333,240,"no effect"
"ssfOUT_240_48_3_VULTURE.25",-0.0723079878584774,-0.590793781954151,0.446177806237197,"ssf","mf.ss","gamma","vonmises",500,"ssfOUT_240_48_3_VULTURE","VULTURE",3,0.0208333333333333,240,"no effect"
"ssfOUT_240_48_3_VULTURE.26",-0.403690945803812,-1.00437565117468,0.196993759567053,"ssf","mf.ss","gamma","unif",5,"ssfOUT_240_48_3_VULTURE","VULTURE",3,0.0208333333333333,240,"no effect"
"ssfOUT_240_48_3_VULTURE.27",0.132691224912518,-0.400497268249671,0.665879718074707,"ssf","mf.ss","gamma","unif",15,"ssfOUT_240_48_3_VULTURE","VULTURE",3,0.0208333333333333,240,"no effect"
"ssfOUT_240_48_3_VULTURE.28",0.138684442192263,-0.383285642782432,0.660654527166958,"ssf","mf.ss","gamma","unif",50,"ssfOUT_240_48_3_VULTURE","VULTURE",3,0.0208333333333333,240,"no effect"
"ssfOUT_240_48_3_VULTURE.29",0.010288873054938,-0.508965239295201,0.529542985405077,"ssf","mf.ss","gamma","unif",158,"ssfOUT_240_48_3_VULTURE","VULTURE",3,0.0208333333333333,240,"no effect"
"ssfOUT_240_48_3_VULTURE.30",0.0110688601327287,-0.507031177268324,0.529168897533782,"ssf","mf.ss","gamma","unif",500,"ssfOUT_240_48_3_VULTURE","VULTURE",3,0.0208333333333333,240,"no effect"
"ssfOUT_240_48_3_VULTURE.31",-0.202390147647788,-0.805279018880675,0.4004987235851,"ssf","mf.ss","exp","vonmises",5,"ssfOUT_240_48_3_VULTURE","VULTURE",3,0.0208333333333333,240,"no effect"
"ssfOUT_240_48_3_VULTURE.32",0.00800717393700454,-0.530182911696321,0.54619725957033,"ssf","mf.ss","exp","vonmises",15,"ssfOUT_240_48_3_VULTURE","VULTURE",3,0.0208333333333333,240,"no effect"
"ssfOUT_240_48_3_VULTURE.33",-0.0777710409151355,-0.60212452402637,0.446582442196099,"ssf","mf.ss","exp","vonmises",50,"ssfOUT_240_48_3_VULTURE","VULTURE",3,0.0208333333333333,240,"no effect"
"ssfOUT_240_48_3_VULTURE.34",-0.0123703535135526,-0.533596100616457,0.508855393589352,"ssf","mf.ss","exp","vonmises",158,"ssfOUT_240_48_3_VULTURE","VULTURE",3,0.0208333333333333,240,"no effect"
"ssfOUT_240_48_3_VULTURE.35",-0.0322783280294719,-0.552663872832858,0.488107216773914,"ssf","mf.ss","exp","vonmises",500,"ssfOUT_240_48_3_VULTURE","VULTURE",3,0.0208333333333333,240,"no effect"
"ssfOUT_240_48_3_VULTURE.36",-0.160919777377052,-0.750231514084931,0.428391959330826,"ssf","mf.ss","exp","unif",5,"ssfOUT_240_48_3_VULTURE","VULTURE",3,0.0208333333333333,240,"no effect"
"ssfOUT_240_48_3_VULTURE.37",0.00975818032006184,-0.52992909079068,0.549445451430803,"ssf","mf.ss","exp","unif",15,"ssfOUT_240_48_3_VULTURE","VULTURE",3,0.0208333333333333,240,"no effect"
"ssfOUT_240_48_3_VULTURE.38",-0.185746849274304,-0.712636253415966,0.341142554867357,"ssf","mf.ss","exp","unif",50,"ssfOUT_240_48_3_VULTURE","VULTURE",3,0.0208333333333333,240,"no effect"
"ssfOUT_240_48_3_VULTURE.39",-0.0518013840931227,-0.574249869845478,0.470647101659233,"ssf","mf.ss","exp","unif",158,"ssfOUT_240_48_3_VULTURE","VULTURE",3,0.0208333333333333,240,"no effect"
"ssfOUT_240_48_3_VULTURE.40",0.00522370158357349,-0.515805514949439,0.526252918116585,"ssf","mf.ss","exp","unif",500,"ssfOUT_240_48_3_VULTURE","VULTURE",3,0.0208333333333333,240,"no effect"
"ssfOUT_240_48_3_KINGCOBRA.1",0.0473363486083931,-1.34962746107351,1.4443001582903,"ssf","mf.is","gamma","vonmises",5,"ssfOUT_240_48_3_KINGCOBRA","KINGCOBRA",3,0.0208333333333333,240,"no effect"
"ssfOUT_240_48_3_KINGCOBRA.2",-0.146367011786793,-1.26422187496265,0.971487851389066,"ssf","mf.is","gamma","vonmises",15,"ssfOUT_240_48_3_KINGCOBRA","KINGCOBRA",3,0.0208333333333333,240,"no effect"
"ssfOUT_240_48_3_KINGCOBRA.3",0.529881677041572,-0.501540947285459,1.5613043013686,"ssf","mf.is","gamma","vonmises",50,"ssfOUT_240_48_3_KINGCOBRA","KINGCOBRA",3,0.0208333333333333,240,"no effect"
"ssfOUT_240_48_3_KINGCOBRA.4",0.585787830809567,-0.435061636294767,1.6066372979139,"ssf","mf.is","gamma","vonmises",158,"ssfOUT_240_48_3_KINGCOBRA","KINGCOBRA",3,0.0208333333333333,240,"no effect"
"ssfOUT_240_48_3_KINGCOBRA.5",0.636039255827659,-0.382155583126899,1.65423409478222,"ssf","mf.is","gamma","vonmises",500,"ssfOUT_240_48_3_KINGCOBRA","KINGCOBRA",3,0.0208333333333333,240,"no effect"
"ssfOUT_240_48_3_KINGCOBRA.6",0.134545715375339,-1.00465436104207,1.27374579179275,"ssf","mf.is","gamma","unif",5,"ssfOUT_240_48_3_KINGCOBRA","KINGCOBRA",3,0.0208333333333333,240,"no effect"
"ssfOUT_240_48_3_KINGCOBRA.7",0.135713816431311,-0.941023891954397,1.21245152481702,"ssf","mf.is","gamma","unif",15,"ssfOUT_240_48_3_KINGCOBRA","KINGCOBRA",3,0.0208333333333333,240,"no effect"
"ssfOUT_240_48_3_KINGCOBRA.8",0.632152006077259,-0.40029102086282,1.66459503301734,"ssf","mf.is","gamma","unif",50,"ssfOUT_240_48_3_KINGCOBRA","KINGCOBRA",3,0.0208333333333333,240,"no effect"
"ssfOUT_240_48_3_KINGCOBRA.9",0.479415002878803,-0.537286498288078,1.49611650404568,"ssf","mf.is","gamma","unif",158,"ssfOUT_240_48_3_KINGCOBRA","KINGCOBRA",3,0.0208333333333333,240,"no effect"
"ssfOUT_240_48_3_KINGCOBRA.10",0.477162256517171,-0.53829717161004,1.49262168464438,"ssf","mf.is","gamma","unif",500,"ssfOUT_240_48_3_KINGCOBRA","KINGCOBRA",3,0.0208333333333333,240,"no effect"
"ssfOUT_240_48_3_KINGCOBRA.11",-0.412125002420035,-1.72124799422517,0.896997989385098,"ssf","mf.is","exp","vonmises",5,"ssfOUT_240_48_3_KINGCOBRA","KINGCOBRA",3,0.0208333333333333,240,"no effect"
"ssfOUT_240_48_3_KINGCOBRA.12",-0.96166587278786,-2.21698167763659,0.293649932060867,"ssf","mf.is","exp","vonmises",15,"ssfOUT_240_48_3_KINGCOBRA","KINGCOBRA",3,0.0208333333333333,240,"no effect"
"ssfOUT_240_48_3_KINGCOBRA.13",0.622635649568333,-0.427803635522924,1.67307493465959,"ssf","mf.is","exp","vonmises",50,"ssfOUT_240_48_3_KINGCOBRA","KINGCOBRA",3,0.0208333333333333,240,"no effect"
"ssfOUT_240_48_3_KINGCOBRA.14",0.585738104159462,-0.438326312821932,1.60980252114086,"ssf","mf.is","exp","vonmises",158,"ssfOUT_240_48_3_KINGCOBRA","KINGCOBRA",3,0.0208333333333333,240,"no effect"
"ssfOUT_240_48_3_KINGCOBRA.15",0.479644294929405,-0.536429169080664,1.49571775893947,"ssf","mf.is","exp","vonmises",500,"ssfOUT_240_48_3_KINGCOBRA","KINGCOBRA",3,0.0208333333333333,240,"no effect"
"ssfOUT_240_48_3_KINGCOBRA.16",-0.766536831014502,-2.09095584326919,0.557882181240186,"ssf","mf.is","exp","unif",5,"ssfOUT_240_48_3_KINGCOBRA","KINGCOBRA",3,0.0208333333333333,240,"no effect"
"ssfOUT_240_48_3_KINGCOBRA.17",0.429760758468955,-0.651655007794052,1.51117652473196,"ssf","mf.is","exp","unif",15,"ssfOUT_240_48_3_KINGCOBRA","KINGCOBRA",3,0.0208333333333333,240,"no effect"
"ssfOUT_240_48_3_KINGCOBRA.18",0.784569213420202,-0.247022221033338,1.81616064787374,"ssf","mf.is","exp","unif",50,"ssfOUT_240_48_3_KINGCOBRA","KINGCOBRA",3,0.0208333333333333,240,"no effect"
"ssfOUT_240_48_3_KINGCOBRA.19",0.623620030674172,-0.393756633704536,1.64099669505288,"ssf","mf.is","exp","unif",158,"ssfOUT_240_48_3_KINGCOBRA","KINGCOBRA",3,0.0208333333333333,240,"no effect"
"ssfOUT_240_48_3_KINGCOBRA.20",0.556314350412582,-0.460741454109681,1.57337015493484,"ssf","mf.is","exp","unif",500,"ssfOUT_240_48_3_KINGCOBRA","KINGCOBRA",3,0.0208333333333333,240,"no effect"
"ssfOUT_240_48_3_KINGCOBRA.21",-0.0969822631615697,-1.44532606695792,1.25136154063478,"ssf","mf.ss","gamma","vonmises",5,"ssfOUT_240_48_3_KINGCOBRA","KINGCOBRA",3,0.0208333333333333,240,"no effect"
"ssfOUT_240_48_3_KINGCOBRA.22",-0.172285564063251,-1.25235115660564,0.907780028479142,"ssf","mf.ss","gamma","vonmises",15,"ssfOUT_240_48_3_KINGCOBRA","KINGCOBRA",3,0.0208333333333333,240,"no effect"
"ssfOUT_240_48_3_KINGCOBRA.23",0.0843280790599428,-0.93406464055991,1.1027207986798,"ssf","mf.ss","gamma","vonmises",50,"ssfOUT_240_48_3_KINGCOBRA","KINGCOBRA",3,0.0208333333333333,240,"no effect"
"ssfOUT_240_48_3_KINGCOBRA.24",-0.00690238765559139,-1.01948094278629,1.0056761674751,"ssf","mf.ss","gamma","vonmises",158,"ssfOUT_240_48_3_KINGCOBRA","KINGCOBRA",3,0.0208333333333333,240,"no effect"
"ssfOUT_240_48_3_KINGCOBRA.25",0.0179590596224833,-0.992165967071033,1.028084086316,"ssf","mf.ss","gamma","vonmises",500,"ssfOUT_240_48_3_KINGCOBRA","KINGCOBRA",3,0.0208333333333333,240,"no effect"
"ssfOUT_240_48_3_KINGCOBRA.26",0.212617358232522,-0.885605185419293,1.31083990188434,"ssf","mf.ss","gamma","unif",5,"ssfOUT_240_48_3_KINGCOBRA","KINGCOBRA",3,0.0208333333333333,240,"no effect"
"ssfOUT_240_48_3_KINGCOBRA.27",0.0599317234591306,-0.997447655831436,1.1173111027497,"ssf","mf.ss","gamma","unif",15,"ssfOUT_240_48_3_KINGCOBRA","KINGCOBRA",3,0.0208333333333333,240,"no effect"
"ssfOUT_240_48_3_KINGCOBRA.28",0.388088379211849,-0.639177150246284,1.41535390866998,"ssf","mf.ss","gamma","unif",50,"ssfOUT_240_48_3_KINGCOBRA","KINGCOBRA",3,0.0208333333333333,240,"no effect"
"ssfOUT_240_48_3_KINGCOBRA.29",0.280650881173558,-0.731057133382526,1.29235889572964,"ssf","mf.ss","gamma","unif",158,"ssfOUT_240_48_3_KINGCOBRA","KINGCOBRA",3,0.0208333333333333,240,"no effect"
"ssfOUT_240_48_3_KINGCOBRA.30",0.192033433364604,-0.817688917212968,1.20175578394218,"ssf","mf.ss","gamma","unif",500,"ssfOUT_240_48_3_KINGCOBRA","KINGCOBRA",3,0.0208333333333333,240,"no effect"
"ssfOUT_240_48_3_KINGCOBRA.31",-0.680374008846099,-1.90647496359812,0.545726945905924,"ssf","mf.ss","exp","vonmises",5,"ssfOUT_240_48_3_KINGCOBRA","KINGCOBRA",3,0.0208333333333333,240,"no effect"
"ssfOUT_240_48_3_KINGCOBRA.32",-0.908995780268078,-2.00602562288413,0.188034062347973,"ssf","mf.ss","exp","vonmises",15,"ssfOUT_240_48_3_KINGCOBRA","KINGCOBRA",3,0.0208333333333333,240,"no effect"
"ssfOUT_240_48_3_KINGCOBRA.33",0.174718725725897,-0.844040800036596,1.19347825148839,"ssf","mf.ss","exp","vonmises",50,"ssfOUT_240_48_3_KINGCOBRA","KINGCOBRA",3,0.0208333333333333,240,"no effect"
"ssfOUT_240_48_3_KINGCOBRA.34",0.192816198997408,-0.818379632338063,1.20401203033288,"ssf","mf.ss","exp","vonmises",158,"ssfOUT_240_48_3_KINGCOBRA","KINGCOBRA",3,0.0208333333333333,240,"no effect"
"ssfOUT_240_48_3_KINGCOBRA.35",0.179204646210734,-0.831100154491262,1.18950944691273,"ssf","mf.ss","exp","vonmises",500,"ssfOUT_240_48_3_KINGCOBRA","KINGCOBRA",3,0.0208333333333333,240,"no effect"
"ssfOUT_240_48_3_KINGCOBRA.36",-0.360170484477869,-1.51769984908392,0.797358880128181,"ssf","mf.ss","exp","unif",5,"ssfOUT_240_48_3_KINGCOBRA","KINGCOBRA",3,0.0208333333333333,240,"no effect"
"ssfOUT_240_48_3_KINGCOBRA.37",0.130500338787532,-0.922379344314663,1.18338002188973,"ssf","mf.ss","exp","unif",15,"ssfOUT_240_48_3_KINGCOBRA","KINGCOBRA",3,0.0208333333333333,240,"no effect"
"ssfOUT_240_48_3_KINGCOBRA.38",0.617832800388379,-0.406769590752863,1.64243519152962,"ssf","mf.ss","exp","unif",50,"ssfOUT_240_48_3_KINGCOBRA","KINGCOBRA",3,0.0208333333333333,240,"no effect"
"ssfOUT_240_48_3_KINGCOBRA.39",0.336735589892153,-0.67454170989177,1.34801288967608,"ssf","mf.ss","exp","unif",158,"ssfOUT_240_48_3_KINGCOBRA","KINGCOBRA",3,0.0208333333333333,240,"no effect"
"ssfOUT_240_48_3_KINGCOBRA.40",0.41929089630837,-0.590677142873083,1.42925893548982,"ssf","mf.ss","exp","unif",500,"ssfOUT_240_48_3_KINGCOBRA","KINGCOBRA",3,0.0208333333333333,240,"no effect"
"ssfOUT_240_48_4_BADGER.1",-0.93301331649178,-1.59395081095807,-0.272075822025496,"ssf","mf.is","gamma","vonmises",5,"ssfOUT_240_48_4_BADGER","BADGER",4,0.0208333333333333,240,"avoidance"
"ssfOUT_240_48_4_BADGER.2",-0.417430042665904,-0.921652072307908,0.0867919869761007,"ssf","mf.is","gamma","vonmises",15,"ssfOUT_240_48_4_BADGER","BADGER",4,0.0208333333333333,240,"no effect"
"ssfOUT_240_48_4_BADGER.3",-0.692576546235139,-1.15742853442313,-0.22772455804715,"ssf","mf.is","gamma","vonmises",50,"ssfOUT_240_48_4_BADGER","BADGER",4,0.0208333333333333,240,"avoidance"
"ssfOUT_240_48_4_BADGER.4",-0.917508423840359,-1.36758518378357,-0.467431663897147,"ssf","mf.is","gamma","vonmises",158,"ssfOUT_240_48_4_BADGER","BADGER",4,0.0208333333333333,240,"avoidance"
"ssfOUT_240_48_4_BADGER.5",-0.804355511409097,-1.24994565791016,-0.358765364908037,"ssf","mf.is","gamma","vonmises",500,"ssfOUT_240_48_4_BADGER","BADGER",4,0.0208333333333333,240,"avoidance"
"ssfOUT_240_48_4_BADGER.6",-1.39093533378097,-1.99443454588885,-0.787436121673089,"ssf","mf.is","gamma","unif",5,"ssfOUT_240_48_4_BADGER","BADGER",4,0.0208333333333333,240,"avoidance"
"ssfOUT_240_48_4_BADGER.7",-0.612379108591227,-1.08324562920785,-0.141512587974604,"ssf","mf.is","gamma","unif",15,"ssfOUT_240_48_4_BADGER","BADGER",4,0.0208333333333333,240,"avoidance"
"ssfOUT_240_48_4_BADGER.8",-0.841723868098785,-1.2925688000297,-0.390878936167874,"ssf","mf.is","gamma","unif",50,"ssfOUT_240_48_4_BADGER","BADGER",4,0.0208333333333333,240,"avoidance"
"ssfOUT_240_48_4_BADGER.9",-0.984609812464764,-1.42835472175643,-0.540864903173094,"ssf","mf.is","gamma","unif",158,"ssfOUT_240_48_4_BADGER","BADGER",4,0.0208333333333333,240,"avoidance"
"ssfOUT_240_48_4_BADGER.10",-0.872927764809655,-1.31481992999107,-0.431035599628238,"ssf","mf.is","gamma","unif",500,"ssfOUT_240_48_4_BADGER","BADGER",4,0.0208333333333333,240,"avoidance"
"ssfOUT_240_48_4_BADGER.11",-1.53946345606918,-2.21174073840489,-0.867186173733466,"ssf","mf.is","exp","vonmises",5,"ssfOUT_240_48_4_BADGER","BADGER",4,0.0208333333333333,240,"avoidance"
"ssfOUT_240_48_4_BADGER.12",-0.320907038171461,-0.889764846016029,0.247950769673107,"ssf","mf.is","exp","vonmises",15,"ssfOUT_240_48_4_BADGER","BADGER",4,0.0208333333333333,240,"no effect"
"ssfOUT_240_48_4_BADGER.13",-0.584015239079398,-1.05777954286815,-0.110250935290649,"ssf","mf.is","exp","vonmises",50,"ssfOUT_240_48_4_BADGER","BADGER",4,0.0208333333333333,240,"avoidance"
"ssfOUT_240_48_4_BADGER.14",-0.758904704931061,-1.21278255667809,-0.30502685318403,"ssf","mf.is","exp","vonmises",158,"ssfOUT_240_48_4_BADGER","BADGER",4,0.0208333333333333,240,"avoidance"
"ssfOUT_240_48_4_BADGER.15",-0.80459511424058,-1.24794213485354,-0.361248093627616,"ssf","mf.is","exp","vonmises",500,"ssfOUT_240_48_4_BADGER","BADGER",4,0.0208333333333333,240,"avoidance"
"ssfOUT_240_48_4_BADGER.16",-0.82594065917892,-1.38792962846265,-0.263951689895188,"ssf","mf.is","exp","unif",5,"ssfOUT_240_48_4_BADGER","BADGER",4,0.0208333333333333,240,"avoidance"
"ssfOUT_240_48_4_BADGER.17",-0.765603660096867,-1.25124524088848,-0.279962079305256,"ssf","mf.is","exp","unif",15,"ssfOUT_240_48_4_BADGER","BADGER",4,0.0208333333333333,240,"avoidance"
"ssfOUT_240_48_4_BADGER.18",-0.990214280300828,-1.4435075830212,-0.536920977580456,"ssf","mf.is","exp","unif",50,"ssfOUT_240_48_4_BADGER","BADGER",4,0.0208333333333333,240,"avoidance"
"ssfOUT_240_48_4_BADGER.19",-0.870795236311156,-1.31858091378174,-0.423009558840574,"ssf","mf.is","exp","unif",158,"ssfOUT_240_48_4_BADGER","BADGER",4,0.0208333333333333,240,"avoidance"
"ssfOUT_240_48_4_BADGER.20",-0.924925045131518,-1.36715940077383,-0.482690689489204,"ssf","mf.is","exp","unif",500,"ssfOUT_240_48_4_BADGER","BADGER",4,0.0208333333333333,240,"avoidance"
"ssfOUT_240_48_4_BADGER.21",-1.33767794188315,-1.83821067324123,-0.837145210525077,"ssf","mf.ss","gamma","vonmises",5,"ssfOUT_240_48_4_BADGER","BADGER",4,0.0208333333333333,240,"avoidance"
"ssfOUT_240_48_4_BADGER.22",-0.825000391765551,-1.25506904397671,-0.394931739554393,"ssf","mf.ss","gamma","vonmises",15,"ssfOUT_240_48_4_BADGER","BADGER",4,0.0208333333333333,240,"avoidance"
"ssfOUT_240_48_4_BADGER.23",-1.0330817983837,-1.45026403609086,-0.615899560676546,"ssf","mf.ss","gamma","vonmises",50,"ssfOUT_240_48_4_BADGER","BADGER",4,0.0208333333333333,240,"avoidance"
"ssfOUT_240_48_4_BADGER.24",-1.02421453470139,-1.43676691220861,-0.611662157194178,"ssf","mf.ss","gamma","vonmises",158,"ssfOUT_240_48_4_BADGER","BADGER",4,0.0208333333333333,240,"avoidance"
"ssfOUT_240_48_4_BADGER.25",-0.94990212768013,-1.3608369681311,-0.53896728722916,"ssf","mf.ss","gamma","vonmises",500,"ssfOUT_240_48_4_BADGER","BADGER",4,0.0208333333333333,240,"avoidance"
"ssfOUT_240_48_4_BADGER.26",-1.63956160799169,-2.17074231855443,-1.10838089742895,"ssf","mf.ss","gamma","unif",5,"ssfOUT_240_48_4_BADGER","BADGER",4,0.0208333333333333,240,"avoidance"
"ssfOUT_240_48_4_BADGER.27",-0.855121319308243,-1.2877722493229,-0.42247038929359,"ssf","mf.ss","gamma","unif",15,"ssfOUT_240_48_4_BADGER","BADGER",4,0.0208333333333333,240,"avoidance"
"ssfOUT_240_48_4_BADGER.28",-1.01161073173084,-1.42712020810253,-0.596101255359139,"ssf","mf.ss","gamma","unif",50,"ssfOUT_240_48_4_BADGER","BADGER",4,0.0208333333333333,240,"avoidance"
"ssfOUT_240_48_4_BADGER.29",-1.04977782960963,-1.46146337412034,-0.638092285098911,"ssf","mf.ss","gamma","unif",158,"ssfOUT_240_48_4_BADGER","BADGER",4,0.0208333333333333,240,"avoidance"
"ssfOUT_240_48_4_BADGER.30",-1.02204275994274,-1.43247418427668,-0.611611335608792,"ssf","mf.ss","gamma","unif",500,"ssfOUT_240_48_4_BADGER","BADGER",4,0.0208333333333333,240,"avoidance"
"ssfOUT_240_48_4_BADGER.31",-0.968801049170255,-1.45340628348742,-0.484195814853094,"ssf","mf.ss","exp","vonmises",5,"ssfOUT_240_48_4_BADGER","BADGER",4,0.0208333333333333,240,"avoidance"
"ssfOUT_240_48_4_BADGER.32",-0.862036419751091,-1.30060507316222,-0.423467766339962,"ssf","mf.ss","exp","vonmises",15,"ssfOUT_240_48_4_BADGER","BADGER",4,0.0208333333333333,240,"avoidance"
"ssfOUT_240_48_4_BADGER.33",-0.784963394015183,-1.20553322383014,-0.364393564200226,"ssf","mf.ss","exp","vonmises",50,"ssfOUT_240_48_4_BADGER","BADGER",4,0.0208333333333333,240,"avoidance"
"ssfOUT_240_48_4_BADGER.34",-0.812372562298238,-1.22745301085093,-0.397292113745543,"ssf","mf.ss","exp","vonmises",158,"ssfOUT_240_48_4_BADGER","BADGER",4,0.0208333333333333,240,"avoidance"
"ssfOUT_240_48_4_BADGER.35",-0.894940848169856,-1.31031149983139,-0.479570196508321,"ssf","mf.ss","exp","vonmises",500,"ssfOUT_240_48_4_BADGER","BADGER",4,0.0208333333333333,240,"avoidance"
"ssfOUT_240_48_4_BADGER.36",-0.642419048766117,-1.11030317359299,-0.174534923939245,"ssf","mf.ss","exp","unif",5,"ssfOUT_240_48_4_BADGER","BADGER",4,0.0208333333333333,240,"avoidance"
"ssfOUT_240_48_4_BADGER.37",-0.785854541283194,-1.22423078085664,-0.347478301709747,"ssf","mf.ss","exp","unif",15,"ssfOUT_240_48_4_BADGER","BADGER",4,0.0208333333333333,240,"avoidance"
"ssfOUT_240_48_4_BADGER.38",-0.998967168151117,-1.41880316033954,-0.579131175962694,"ssf","mf.ss","exp","unif",50,"ssfOUT_240_48_4_BADGER","BADGER",4,0.0208333333333333,240,"avoidance"
"ssfOUT_240_48_4_BADGER.39",-0.998478874597907,-1.41531831993735,-0.581639429258467,"ssf","mf.ss","exp","unif",158,"ssfOUT_240_48_4_BADGER","BADGER",4,0.0208333333333333,240,"avoidance"
"ssfOUT_240_48_4_BADGER.40",-0.907149521789058,-1.3216955152573,-0.492603528320815,"ssf","mf.ss","exp","unif",500,"ssfOUT_240_48_4_BADGER","BADGER",4,0.0208333333333333,240,"avoidance"
"ssfOUT_240_48_4_VULTURE.1",-0.153644553546828,-0.79203900739609,0.484749900302435,"ssf","mf.is","gamma","vonmises",5,"ssfOUT_240_48_4_VULTURE","VULTURE",4,0.0208333333333333,240,"no effect"
"ssfOUT_240_48_4_VULTURE.2",-0.152626465602002,-0.72171812768587,0.416465196481865,"ssf","mf.is","gamma","vonmises",15,"ssfOUT_240_48_4_VULTURE","VULTURE",4,0.0208333333333333,240,"no effect"
"ssfOUT_240_48_4_VULTURE.3",0.178242422463043,-0.358782847985653,0.715267692911738,"ssf","mf.is","gamma","vonmises",50,"ssfOUT_240_48_4_VULTURE","VULTURE",4,0.0208333333333333,240,"no effect"
"ssfOUT_240_48_4_VULTURE.4",-0.0769859214691764,-0.602943598038842,0.448971755100489,"ssf","mf.is","gamma","vonmises",158,"ssfOUT_240_48_4_VULTURE","VULTURE",4,0.0208333333333333,240,"no effect"
"ssfOUT_240_48_4_VULTURE.5",-0.0834998031782015,-0.60687739898799,0.439877792631587,"ssf","mf.is","gamma","vonmises",500,"ssfOUT_240_48_4_VULTURE","VULTURE",4,0.0208333333333333,240,"no effect"
"ssfOUT_240_48_4_VULTURE.6",0.0558806474911566,-0.532065330897507,0.643826625879821,"ssf","mf.is","gamma","unif",5,"ssfOUT_240_48_4_VULTURE","VULTURE",4,0.0208333333333333,240,"no effect"
"ssfOUT_240_48_4_VULTURE.7",-0.371549865780729,-0.914559286851831,0.171459555290373,"ssf","mf.is","gamma","unif",15,"ssfOUT_240_48_4_VULTURE","VULTURE",4,0.0208333333333333,240,"no effect"
"ssfOUT_240_48_4_VULTURE.8",-0.00310763272647434,-0.531114112466671,0.524898847013722,"ssf","mf.is","gamma","unif",50,"ssfOUT_240_48_4_VULTURE","VULTURE",4,0.0208333333333333,240,"no effect"
"ssfOUT_240_48_4_VULTURE.9",-0.077050369862555,-0.600480954501764,0.446380214776654,"ssf","mf.is","gamma","unif",158,"ssfOUT_240_48_4_VULTURE","VULTURE",4,0.0208333333333333,240,"no effect"
"ssfOUT_240_48_4_VULTURE.10",-0.0390229116991412,-0.561628098397056,0.483582274998773,"ssf","mf.is","gamma","unif",500,"ssfOUT_240_48_4_VULTURE","VULTURE",4,0.0208333333333333,240,"no effect"
"ssfOUT_240_48_4_VULTURE.11",-0.20385151138077,-0.899251167623584,0.491548144862045,"ssf","mf.is","exp","vonmises",5,"ssfOUT_240_48_4_VULTURE","VULTURE",4,0.0208333333333333,240,"no effect"
"ssfOUT_240_48_4_VULTURE.12",-0.195602179410219,-0.767016925605378,0.375812566784941,"ssf","mf.is","exp","vonmises",15,"ssfOUT_240_48_4_VULTURE","VULTURE",4,0.0208333333333333,240,"no effect"
"ssfOUT_240_48_4_VULTURE.13",0.150057871794075,-0.383145566353054,0.683261309941204,"ssf","mf.is","exp","vonmises",50,"ssfOUT_240_48_4_VULTURE","VULTURE",4,0.0208333333333333,240,"no effect"
"ssfOUT_240_48_4_VULTURE.14",-0.0908173884325693,-0.617555495459694,0.435920718594555,"ssf","mf.is","exp","vonmises",158,"ssfOUT_240_48_4_VULTURE","VULTURE",4,0.0208333333333333,240,"no effect"
"ssfOUT_240_48_4_VULTURE.15",0.0461738620291696,-0.477757459678087,0.570105183736426,"ssf","mf.is","exp","vonmises",500,"ssfOUT_240_48_4_VULTURE","VULTURE",4,0.0208333333333333,240,"no effect"
"ssfOUT_240_48_4_VULTURE.16",0.232498908408581,-0.360242978952477,0.825240795769639,"ssf","mf.is","exp","unif",5,"ssfOUT_240_48_4_VULTURE","VULTURE",4,0.0208333333333333,240,"no effect"
"ssfOUT_240_48_4_VULTURE.17",0.377971503538931,-0.170199658100119,0.926142665177982,"ssf","mf.is","exp","unif",15,"ssfOUT_240_48_4_VULTURE","VULTURE",4,0.0208333333333333,240,"no effect"
"ssfOUT_240_48_4_VULTURE.18",-0.125451396882941,-0.655157554854711,0.404254761088829,"ssf","mf.is","exp","unif",50,"ssfOUT_240_48_4_VULTURE","VULTURE",4,0.0208333333333333,240,"no effect"
"ssfOUT_240_48_4_VULTURE.19",0.0226717272605572,-0.501035890859664,0.546379345380778,"ssf","mf.is","exp","unif",158,"ssfOUT_240_48_4_VULTURE","VULTURE",4,0.0208333333333333,240,"no effect"
"ssfOUT_240_48_4_VULTURE.20",-0.048294679840151,-0.57101108990141,0.474421730221108,"ssf","mf.is","exp","unif",500,"ssfOUT_240_48_4_VULTURE","VULTURE",4,0.0208333333333333,240,"no effect"
"ssfOUT_240_48_4_VULTURE.21",-0.279132284224977,-0.864226097209885,0.30596152875993,"ssf","mf.ss","gamma","vonmises",5,"ssfOUT_240_48_4_VULTURE","VULTURE",4,0.0208333333333333,240,"no effect"
"ssfOUT_240_48_4_VULTURE.22",-0.0136035502449889,-0.549675471207349,0.522468370717371,"ssf","mf.ss","gamma","vonmises",15,"ssfOUT_240_48_4_VULTURE","VULTURE",4,0.0208333333333333,240,"no effect"
"ssfOUT_240_48_4_VULTURE.23",-0.0569274949119911,-0.582708833909933,0.46885384408595,"ssf","mf.ss","gamma","vonmises",50,"ssfOUT_240_48_4_VULTURE","VULTURE",4,0.0208333333333333,240,"no effect"
"ssfOUT_240_48_4_VULTURE.24",-0.122560225492198,-0.644854637873326,0.399734186888929,"ssf","mf.ss","gamma","vonmises",158,"ssfOUT_240_48_4_VULTURE","VULTURE",4,0.0208333333333333,240,"no effect"
"ssfOUT_240_48_4_VULTURE.25",-0.0778928052231668,-0.599596560766302,0.443810950319968,"ssf","mf.ss","gamma","vonmises",500,"ssfOUT_240_48_4_VULTURE","VULTURE",4,0.0208333333333333,240,"no effect"
"ssfOUT_240_48_4_VULTURE.26",-0.0611097860661776,-0.635078458645746,0.512858886513391,"ssf","mf.ss","gamma","unif",5,"ssfOUT_240_48_4_VULTURE","VULTURE",4,0.0208333333333333,240,"no effect"
"ssfOUT_240_48_4_VULTURE.27",-0.14343564963169,-0.680143216895507,0.393271917632127,"ssf","mf.ss","gamma","unif",15,"ssfOUT_240_48_4_VULTURE","VULTURE",4,0.0208333333333333,240,"no effect"
"ssfOUT_240_48_4_VULTURE.28",-0.0489035373340916,-0.574145936982299,0.476338862314115,"ssf","mf.ss","gamma","unif",50,"ssfOUT_240_48_4_VULTURE","VULTURE",4,0.0208333333333333,240,"no effect"
"ssfOUT_240_48_4_VULTURE.29",-0.0988715647049247,-0.620778715202472,0.423035585792623,"ssf","mf.ss","gamma","unif",158,"ssfOUT_240_48_4_VULTURE","VULTURE",4,0.0208333333333333,240,"no effect"
"ssfOUT_240_48_4_VULTURE.30",-0.0265362424121237,-0.547787000675655,0.494714515851408,"ssf","mf.ss","gamma","unif",500,"ssfOUT_240_48_4_VULTURE","VULTURE",4,0.0208333333333333,240,"no effect"
"ssfOUT_240_48_4_VULTURE.31",-0.144333425400227,-0.71689159849026,0.428224747689807,"ssf","mf.ss","exp","vonmises",5,"ssfOUT_240_48_4_VULTURE","VULTURE",4,0.0208333333333333,240,"no effect"
"ssfOUT_240_48_4_VULTURE.32",-0.108294147503965,-0.645538369949943,0.428950074942014,"ssf","mf.ss","exp","vonmises",15,"ssfOUT_240_48_4_VULTURE","VULTURE",4,0.0208333333333333,240,"no effect"
"ssfOUT_240_48_4_VULTURE.33",-0.0214260624456071,-0.547379076687267,0.504526951796052,"ssf","mf.ss","exp","vonmises",50,"ssfOUT_240_48_4_VULTURE","VULTURE",4,0.0208333333333333,240,"no effect"
"ssfOUT_240_48_4_VULTURE.34",-0.111559966686718,-0.63503520131064,0.411915267937205,"ssf","mf.ss","exp","vonmises",158,"ssfOUT_240_48_4_VULTURE","VULTURE",4,0.0208333333333333,240,"no effect"
"ssfOUT_240_48_4_VULTURE.35",-0.0790420133422469,-0.602249928267356,0.444165901582862,"ssf","mf.ss","exp","vonmises",500,"ssfOUT_240_48_4_VULTURE","VULTURE",4,0.0208333333333333,240,"no effect"
"ssfOUT_240_48_4_VULTURE.36",0.293199087615748,-0.268453150297925,0.854851325529421,"ssf","mf.ss","exp","unif",5,"ssfOUT_240_48_4_VULTURE","VULTURE",4,0.0208333333333333,240,"no effect"
"ssfOUT_240_48_4_VULTURE.37",0.114869185388906,-0.420064738895057,0.649803109672868,"ssf","mf.ss","exp","unif",15,"ssfOUT_240_48_4_VULTURE","VULTURE",4,0.0208333333333333,240,"no effect"
"ssfOUT_240_48_4_VULTURE.38",-0.124811061200556,-0.653076398275452,0.403454275874339,"ssf","mf.ss","exp","unif",50,"ssfOUT_240_48_4_VULTURE","VULTURE",4,0.0208333333333333,240,"no effect"
"ssfOUT_240_48_4_VULTURE.39",0.0247695712655974,-0.498072020399484,0.547611162930679,"ssf","mf.ss","exp","unif",158,"ssfOUT_240_48_4_VULTURE","VULTURE",4,0.0208333333333333,240,"no effect"
"ssfOUT_240_48_4_VULTURE.40",-0.0918949995489419,-0.614775295494704,0.43098529639682,"ssf","mf.ss","exp","unif",500,"ssfOUT_240_48_4_VULTURE","VULTURE",4,0.0208333333333333,240,"no effect"
"ssfOUT_240_48_4_KINGCOBRA.1",18.3722478413499,-5350.21922847742,5386.96372416012,"ssf","mf.is","gamma","vonmises",5,"ssfOUT_240_48_4_KINGCOBRA","KINGCOBRA",4,0.0208333333333333,240,"no effect"
"ssfOUT_240_48_4_KINGCOBRA.2",16.5912245678506,-3955.0117779643,3988.1942271,"ssf","mf.is","gamma","vonmises",15,"ssfOUT_240_48_4_KINGCOBRA","KINGCOBRA",4,0.0208333333333333,240,"no effect"
"ssfOUT_240_48_4_KINGCOBRA.3",15.9963095204988,-2240.14205064906,2272.13466969005,"ssf","mf.is","gamma","vonmises",50,"ssfOUT_240_48_4_KINGCOBRA","KINGCOBRA",4,0.0208333333333333,240,"no effect"
"ssfOUT_240_48_4_KINGCOBRA.4",15.9156145245675,-2112.2266005226,2144.05782957173,"ssf","mf.is","gamma","vonmises",158,"ssfOUT_240_48_4_KINGCOBRA","KINGCOBRA",4,0.0208333333333333,240,"no effect"
"ssfOUT_240_48_4_KINGCOBRA.5",15.9282233451068,-2213.36269380713,2245.21914049735,"ssf","mf.is","gamma","vonmises",500,"ssfOUT_240_48_4_KINGCOBRA","KINGCOBRA",4,0.0208333333333333,240,"no effect"
"ssfOUT_240_48_4_KINGCOBRA.6",17.3360573082629,-3665.82432394757,3700.4964385641,"ssf","mf.is","gamma","unif",5,"ssfOUT_240_48_4_KINGCOBRA","KINGCOBRA",4,0.0208333333333333,240,"no effect"
"ssfOUT_240_48_4_KINGCOBRA.7",16.0704067508964,-2417.06993624085,2449.21074974264,"ssf","mf.is","gamma","unif",15,"ssfOUT_240_48_4_KINGCOBRA","KINGCOBRA",4,0.0208333333333333,240,"no effect"
"ssfOUT_240_48_4_KINGCOBRA.8",15.8918843013674,-1978.67272180527,2010.45649040801,"ssf","mf.is","gamma","unif",50,"ssfOUT_240_48_4_KINGCOBRA","KINGCOBRA",4,0.0208333333333333,240,"no effect"
"ssfOUT_240_48_4_KINGCOBRA.9",15.8307618221988,-2170.72225819794,2202.38378184234,"ssf","mf.is","gamma","unif",158,"ssfOUT_240_48_4_KINGCOBRA","KINGCOBRA",4,0.0208333333333333,240,"no effect"
"ssfOUT_240_48_4_KINGCOBRA.10",15.8430928462525,-2092.32842914969,2124.01461484219,"ssf","mf.is","gamma","unif",500,"ssfOUT_240_48_4_KINGCOBRA","KINGCOBRA",4,0.0208333333333333,240,"no effect"
"ssfOUT_240_48_4_KINGCOBRA.11",16.8637676616239,-4482.83580729347,4516.56334261672,"ssf","mf.is","exp","vonmises",5,"ssfOUT_240_48_4_KINGCOBRA","KINGCOBRA",4,0.0208333333333333,240,"no effect"
"ssfOUT_240_48_4_KINGCOBRA.12",16.657229460448,-3107.31619312108,3140.63065204197,"ssf","mf.is","exp","vonmises",15,"ssfOUT_240_48_4_KINGCOBRA","KINGCOBRA",4,0.0208333333333333,240,"no effect"
"ssfOUT_240_48_4_KINGCOBRA.13",16.9975538425285,-3569.9741373774,3603.96924506245,"ssf","mf.is","exp","vonmises",50,"ssfOUT_240_48_4_KINGCOBRA","KINGCOBRA",4,0.0208333333333333,240,"no effect"
"ssfOUT_240_48_4_KINGCOBRA.14",15.9151169749273,-2183.09497605309,2214.92521000294,"ssf","mf.is","exp","vonmises",158,"ssfOUT_240_48_4_KINGCOBRA","KINGCOBRA",4,0.0208333333333333,240,"no effect"
"ssfOUT_240_48_4_KINGCOBRA.15",15.8775171113123,-2226.88090227897,2258.6359365016,"ssf","mf.is","exp","vonmises",500,"ssfOUT_240_48_4_KINGCOBRA","KINGCOBRA",4,0.0208333333333333,240,"no effect"
"ssfOUT_240_48_4_KINGCOBRA.16",17.016770676214,-3678.05246660288,3712.0860079553,"ssf","mf.is","exp","unif",5,"ssfOUT_240_48_4_KINGCOBRA","KINGCOBRA",4,0.0208333333333333,240,"no effect"
"ssfOUT_240_48_4_KINGCOBRA.17",16.0559963999512,-2747.98385791505,2780.09585071495,"ssf","mf.is","exp","unif",15,"ssfOUT_240_48_4_KINGCOBRA","KINGCOBRA",4,0.0208333333333333,240,"no effect"
"ssfOUT_240_48_4_KINGCOBRA.18",16.0594750253818,-2166.44608793512,2198.56503798588,"ssf","mf.is","exp","unif",50,"ssfOUT_240_48_4_KINGCOBRA","KINGCOBRA",4,0.0208333333333333,240,"no effect"
"ssfOUT_240_48_4_KINGCOBRA.19",15.9343575973365,-2229.4713482599,2261.34006345457,"ssf","mf.is","exp","unif",158,"ssfOUT_240_48_4_KINGCOBRA","KINGCOBRA",4,0.0208333333333333,240,"no effect"
"ssfOUT_240_48_4_KINGCOBRA.20",15.931762418073,-2209.55538962432,2241.41891446046,"ssf","mf.is","exp","unif",500,"ssfOUT_240_48_4_KINGCOBRA","KINGCOBRA",4,0.0208333333333333,240,"no effect"
"ssfOUT_240_48_4_KINGCOBRA.21",17.1297415006434,-3280.65245824872,3314.91194125001,"ssf","mf.ss","gamma","vonmises",5,"ssfOUT_240_48_4_KINGCOBRA","KINGCOBRA",4,0.0208333333333333,240,"no effect"
"ssfOUT_240_48_4_KINGCOBRA.22",15.9357482246482,-2350.84806992855,2382.71956637785,"ssf","mf.ss","gamma","vonmises",15,"ssfOUT_240_48_4_KINGCOBRA","KINGCOBRA",4,0.0208333333333333,240,"no effect"
"ssfOUT_240_48_4_KINGCOBRA.23",15.8928020273413,-2222.17110793066,2253.95671198534,"ssf","mf.ss","gamma","vonmises",50,"ssfOUT_240_48_4_KINGCOBRA","KINGCOBRA",4,0.0208333333333333,240,"no effect"
"ssfOUT_240_48_4_KINGCOBRA.24",15.8903140114904,-2137.10204586146,2168.88267388444,"ssf","mf.ss","gamma","vonmises",158,"ssfOUT_240_48_4_KINGCOBRA","KINGCOBRA",4,0.0208333333333333,240,"no effect"
"ssfOUT_240_48_4_KINGCOBRA.25",15.8814396394637,-2140.81891064638,2172.58178992531,"ssf","mf.ss","gamma","vonmises",500,"ssfOUT_240_48_4_KINGCOBRA","KINGCOBRA",4,0.0208333333333333,240,"no effect"
"ssfOUT_240_48_4_KINGCOBRA.26",17.1242115586348,-3673.49714536904,3707.74556848631,"ssf","mf.ss","gamma","unif",5,"ssfOUT_240_48_4_KINGCOBRA","KINGCOBRA",4,0.0208333333333333,240,"no effect"
"ssfOUT_240_48_4_KINGCOBRA.27",15.9913456665134,-2349.3621630003,2381.34485433333,"ssf","mf.ss","gamma","unif",15,"ssfOUT_240_48_4_KINGCOBRA","KINGCOBRA",4,0.0208333333333333,240,"no effect"
"ssfOUT_240_48_4_KINGCOBRA.28",15.8913211948268,-1957.52163065591,1989.30427304557,"ssf","mf.ss","gamma","unif",50,"ssfOUT_240_48_4_KINGCOBRA","KINGCOBRA",4,0.0208333333333333,240,"no effect"
"ssfOUT_240_48_4_KINGCOBRA.29",15.8725252667619,-2155.06192544415,2186.80697597767,"ssf","mf.ss","gamma","unif",158,"ssfOUT_240_48_4_KINGCOBRA","KINGCOBRA",4,0.0208333333333333,240,"no effect"
"ssfOUT_240_48_4_KINGCOBRA.30",15.8634751281847,-2074.49847853052,2106.22542878689,"ssf","mf.ss","gamma","unif",500,"ssfOUT_240_48_4_KINGCOBRA","KINGCOBRA",4,0.0208333333333333,240,"no effect"
"ssfOUT_240_48_4_KINGCOBRA.31",17.1256169958903,-4026.19569912094,4060.44693311272,"ssf","mf.ss","exp","vonmises",5,"ssfOUT_240_48_4_KINGCOBRA","KINGCOBRA",4,0.0208333333333333,240,"no effect"
"ssfOUT_240_48_4_KINGCOBRA.32",17.01844636391,-3191.43605896281,3225.47295169063,"ssf","mf.ss","exp","vonmises",15,"ssfOUT_240_48_4_KINGCOBRA","KINGCOBRA",4,0.0208333333333333,240,"no effect"
"ssfOUT_240_48_4_KINGCOBRA.33",15.9297663673605,-2122.83610682666,2154.69563956138,"ssf","mf.ss","exp","vonmises",50,"ssfOUT_240_48_4_KINGCOBRA","KINGCOBRA",4,0.0208333333333333,240,"no effect"
"ssfOUT_240_48_4_KINGCOBRA.34",15.8988427918582,-2102.79842446943,2134.59611005314,"ssf","mf.ss","exp","vonmises",158,"ssfOUT_240_48_4_KINGCOBRA","KINGCOBRA",4,0.0208333333333333,240,"no effect"
"ssfOUT_240_48_4_KINGCOBRA.35",15.8935225515821,-2162.5631283597,2194.35017346287,"ssf","mf.ss","exp","vonmises",500,"ssfOUT_240_48_4_KINGCOBRA","KINGCOBRA",4,0.0208333333333333,240,"no effect"
"ssfOUT_240_48_4_KINGCOBRA.36",17.1395107226797,-3829.60312891023,3863.88215035559,"ssf","mf.ss","exp","unif",5,"ssfOUT_240_48_4_KINGCOBRA","KINGCOBRA",4,0.0208333333333333,240,"no effect"
"ssfOUT_240_48_4_KINGCOBRA.37",15.914916163384,-2534.88389966405,2566.71373199082,"ssf","mf.ss","exp","unif",15,"ssfOUT_240_48_4_KINGCOBRA","KINGCOBRA",4,0.0208333333333333,240,"no effect"
"ssfOUT_240_48_4_KINGCOBRA.38",15.8995064636599,-2083.30147710424,2115.10049003156,"ssf","mf.ss","exp","unif",50,"ssfOUT_240_48_4_KINGCOBRA","KINGCOBRA",4,0.0208333333333333,240,"no effect"
"ssfOUT_240_48_4_KINGCOBRA.39",15.8740123879702,-2175.60499113938,2207.35301591532,"ssf","mf.ss","exp","unif",158,"ssfOUT_240_48_4_KINGCOBRA","KINGCOBRA",4,0.0208333333333333,240,"no effect"
"ssfOUT_240_48_4_KINGCOBRA.40",15.8794064779302,-2156.93483961171,2188.69365256757,"ssf","mf.ss","exp","unif",500,"ssfOUT_240_48_4_KINGCOBRA","KINGCOBRA",4,0.0208333333333333,240,"no effect"
"ssfOUT_240_168_1_BADGER.1",-0.673340395591021,-2.23901497945844,0.892334188276401,"ssf","mf.is","gamma","vonmises",5,"ssfOUT_240_168_1_BADGER","BADGER",1,0.00595238095238095,240,"no effect"
"ssfOUT_240_168_1_BADGER.2",-0.901473493441084,-2.10369189176833,0.300744904886166,"ssf","mf.is","gamma","vonmises",15,"ssfOUT_240_168_1_BADGER","BADGER",1,0.00595238095238095,240,"no effect"
"ssfOUT_240_168_1_BADGER.3",-0.586019378659903,-1.68095223375487,0.508913476435064,"ssf","mf.is","gamma","vonmises",50,"ssfOUT_240_168_1_BADGER","BADGER",1,0.00595238095238095,240,"no effect"
"ssfOUT_240_168_1_BADGER.4",-0.240573834583151,-1.31892683836227,0.837779169195973,"ssf","mf.is","gamma","vonmises",158,"ssfOUT_240_168_1_BADGER","BADGER",1,0.00595238095238095,240,"no effect"
"ssfOUT_240_168_1_BADGER.5",-0.195722592302472,-1.24936961802045,0.857924433415505,"ssf","mf.is","gamma","vonmises",500,"ssfOUT_240_168_1_BADGER","BADGER",1,0.00595238095238095,240,"no effect"
"ssfOUT_240_168_1_BADGER.6",-0.304130894919487,-1.53588188877488,0.927620098935909,"ssf","mf.is","gamma","unif",5,"ssfOUT_240_168_1_BADGER","BADGER",1,0.00595238095238095,240,"no effect"
"ssfOUT_240_168_1_BADGER.7",0.193005298516796,-0.918775657436022,1.30478625446961,"ssf","mf.is","gamma","unif",15,"ssfOUT_240_168_1_BADGER","BADGER",1,0.00595238095238095,240,"no effect"
"ssfOUT_240_168_1_BADGER.8",-0.371743436185347,-1.44357518770258,0.700088315331889,"ssf","mf.is","gamma","unif",50,"ssfOUT_240_168_1_BADGER","BADGER",1,0.00595238095238095,240,"no effect"
"ssfOUT_240_168_1_BADGER.9",-0.140072110781107,-1.19635667718085,0.916212455618632,"ssf","mf.is","gamma","unif",158,"ssfOUT_240_168_1_BADGER","BADGER",1,0.00595238095238095,240,"no effect"
"ssfOUT_240_168_1_BADGER.10",-0.250764415144644,-1.30516289526709,0.803634064977798,"ssf","mf.is","gamma","unif",500,"ssfOUT_240_168_1_BADGER","BADGER",1,0.00595238095238095,240,"no effect"
"ssfOUT_240_168_1_BADGER.11",-1.13511139179003,-2.37320722519717,0.102984441617101,"ssf","mf.is","exp","vonmises",5,"ssfOUT_240_168_1_BADGER","BADGER",1,0.00595238095238095,240,"no effect"
"ssfOUT_240_168_1_BADGER.12",-2.69203107005306,-4.00738694198832,-1.3766751981178,"ssf","mf.is","exp","vonmises",15,"ssfOUT_240_168_1_BADGER","BADGER",1,0.00595238095238095,240,"avoidance"
"ssfOUT_240_168_1_BADGER.13",0.0543706416534443,-1.06590910357996,1.17465038688684,"ssf","mf.is","exp","vonmises",50,"ssfOUT_240_168_1_BADGER","BADGER",1,0.00595238095238095,240,"no effect"
"ssfOUT_240_168_1_BADGER.14",-0.393804401893678,-1.48844865265305,0.700839848865692,"ssf","mf.is","exp","vonmises",158,"ssfOUT_240_168_1_BADGER","BADGER",1,0.00595238095238095,240,"no effect"
"ssfOUT_240_168_1_BADGER.15",-0.287245896897451,-1.34490180028104,0.770410006486135,"ssf","mf.is","exp","vonmises",500,"ssfOUT_240_168_1_BADGER","BADGER",1,0.00595238095238095,240,"no effect"
"ssfOUT_240_168_1_BADGER.16",-1.4799306899804,-2.87352460513406,-0.0863367748267356,"ssf","mf.is","exp","unif",5,"ssfOUT_240_168_1_BADGER","BADGER",1,0.00595238095238095,240,"avoidance"
"ssfOUT_240_168_1_BADGER.17",0.140771663315443,-0.951475441010829,1.23301876764172,"ssf","mf.is","exp","unif",15,"ssfOUT_240_168_1_BADGER","BADGER",1,0.00595238095238095,240,"no effect"
"ssfOUT_240_168_1_BADGER.18",-0.07330583122111,-1.19432033387029,1.04770867142807,"ssf","mf.is","exp","unif",50,"ssfOUT_240_168_1_BADGER","BADGER",1,0.00595238095238095,240,"no effect"
"ssfOUT_240_168_1_BADGER.19",-0.324424381215413,-1.39290193256933,0.744053170138502,"ssf","mf.is","exp","unif",158,"ssfOUT_240_168_1_BADGER","BADGER",1,0.00595238095238095,240,"no effect"
"ssfOUT_240_168_1_BADGER.20",-0.156461946602627,-1.21268722349709,0.899763330291836,"ssf","mf.is","exp","unif",500,"ssfOUT_240_168_1_BADGER","BADGER",1,0.00595238095238095,240,"no effect"
"ssfOUT_240_168_1_BADGER.21",-0.521376773354759,-2.06550852981471,1.02275498310519,"ssf","mf.ss","gamma","vonmises",5,"ssfOUT_240_168_1_BADGER","BADGER",1,0.00595238095238095,240,"no effect"
"ssfOUT_240_168_1_BADGER.22",-0.228940033861023,-1.32276171370277,0.864881645980729,"ssf","mf.ss","gamma","vonmises",15,"ssfOUT_240_168_1_BADGER","BADGER",1,0.00595238095238095,240,"no effect"
"ssfOUT_240_168_1_BADGER.23",-0.560213352685948,-1.62328516230286,0.502858456930964,"ssf","mf.ss","gamma","vonmises",50,"ssfOUT_240_168_1_BADGER","BADGER",1,0.00595238095238095,240,"no effect"
"ssfOUT_240_168_1_BADGER.24",-0.386935797356245,-1.43815794471039,0.664286349997898,"ssf","mf.ss","gamma","vonmises",158,"ssfOUT_240_168_1_BADGER","BADGER",1,0.00595238095238095,240,"no effect"
"ssfOUT_240_168_1_BADGER.25",-0.229134498646121,-1.27188288569812,0.813613888405875,"ssf","mf.ss","gamma","vonmises",500,"ssfOUT_240_168_1_BADGER","BADGER",1,0.00595238095238095,240,"no effect"
"ssfOUT_240_168_1_BADGER.26",-0.325881288013169,-1.51585442933622,0.864091853309884,"ssf","mf.ss","gamma","unif",5,"ssfOUT_240_168_1_BADGER","BADGER",1,0.00595238095238095,240,"no effect"
"ssfOUT_240_168_1_BADGER.27",0.0654449530765005,-1.02712720420014,1.15801711035314,"ssf","mf.ss","gamma","unif",15,"ssfOUT_240_168_1_BADGER","BADGER",1,0.00595238095238095,240,"no effect"
"ssfOUT_240_168_1_BADGER.28",-0.517893517024769,-1.57359077159114,0.537803737541607,"ssf","mf.ss","gamma","unif",50,"ssfOUT_240_168_1_BADGER","BADGER",1,0.00595238095238095,240,"no effect"
"ssfOUT_240_168_1_BADGER.29",-0.170708343056133,-1.21681480033118,0.87539811421891,"ssf","mf.ss","gamma","unif",158,"ssfOUT_240_168_1_BADGER","BADGER",1,0.00595238095238095,240,"no effect"
"ssfOUT_240_168_1_BADGER.30",-0.322288087184953,-1.36754000810244,0.722963833732532,"ssf","mf.ss","gamma","unif",500,"ssfOUT_240_168_1_BADGER","BADGER",1,0.00595238095238095,240,"no effect"
"ssfOUT_240_168_1_BADGER.31",0.295130812876444,-0.81851058844861,1.4087722142015,"ssf","mf.ss","exp","vonmises",5,"ssfOUT_240_168_1_BADGER","BADGER",1,0.00595238095238095,240,"no effect"
"ssfOUT_240_168_1_BADGER.32",-0.734604960569389,-1.89350369981667,0.424293778677888,"ssf","mf.ss","exp","vonmises",15,"ssfOUT_240_168_1_BADGER","BADGER",1,0.00595238095238095,240,"no effect"
"ssfOUT_240_168_1_BADGER.33",-0.174118434773265,-1.22776937327167,0.879532503725137,"ssf","mf.ss","exp","vonmises",50,"ssfOUT_240_168_1_BADGER","BADGER",1,0.00595238095238095,240,"no effect"
"ssfOUT_240_168_1_BADGER.34",-0.177136269610916,-1.23213682316131,0.877864283939482,"ssf","mf.ss","exp","vonmises",158,"ssfOUT_240_168_1_BADGER","BADGER",1,0.00595238095238095,240,"no effect"
"ssfOUT_240_168_1_BADGER.35",-0.13485502635737,-1.18684310682011,0.917133054105372,"ssf","mf.ss","exp","vonmises",500,"ssfOUT_240_168_1_BADGER","BADGER",1,0.00595238095238095,240,"no effect"
"ssfOUT_240_168_1_BADGER.36",-0.446957750317535,-1.61249869923154,0.718583198596471,"ssf","mf.ss","exp","unif",5,"ssfOUT_240_168_1_BADGER","BADGER",1,0.00595238095238095,240,"no effect"
"ssfOUT_240_168_1_BADGER.37",0.0555157337976018,-1.01908228607965,1.13011375367485,"ssf","mf.ss","exp","unif",15,"ssfOUT_240_168_1_BADGER","BADGER",1,0.00595238095238095,240,"no effect"
"ssfOUT_240_168_1_BADGER.38",-0.0626794096968177,-1.14853148988909,1.02317267049545,"ssf","mf.ss","exp","unif",50,"ssfOUT_240_168_1_BADGER","BADGER",1,0.00595238095238095,240,"no effect"
"ssfOUT_240_168_1_BADGER.39",-0.26135476545561,-1.32282102685544,0.800111495944223,"ssf","mf.ss","exp","unif",158,"ssfOUT_240_168_1_BADGER","BADGER",1,0.00595238095238095,240,"no effect"
"ssfOUT_240_168_1_BADGER.40",-0.161122406446141,-1.21400771597026,0.89176290307798,"ssf","mf.ss","exp","unif",500,"ssfOUT_240_168_1_BADGER","BADGER",1,0.00595238095238095,240,"no effect"
"ssfOUT_240_168_1_VULTURE.1",-0.205825691716202,-1.12086440098838,0.709213017555974,"ssf","mf.is","gamma","vonmises",5,"ssfOUT_240_168_1_VULTURE","VULTURE",1,0.00595238095238095,240,"no effect"
"ssfOUT_240_168_1_VULTURE.2",-1.33531958464291,-2.21233233457008,-0.45830683471574,"ssf","mf.is","gamma","vonmises",15,"ssfOUT_240_168_1_VULTURE","VULTURE",1,0.00595238095238095,240,"avoidance"
"ssfOUT_240_168_1_VULTURE.3",-0.575492028233038,-1.35218485108575,0.201200794619672,"ssf","mf.is","gamma","vonmises",50,"ssfOUT_240_168_1_VULTURE","VULTURE",1,0.00595238095238095,240,"no effect"
"ssfOUT_240_168_1_VULTURE.4",-0.594208470188662,-1.35534392670603,0.166926986328702,"ssf","mf.is","gamma","vonmises",158,"ssfOUT_240_168_1_VULTURE","VULTURE",1,0.00595238095238095,240,"no effect"
"ssfOUT_240_168_1_VULTURE.5",-0.57137163497403,-1.32718833064467,0.184445060696604,"ssf","mf.is","gamma","vonmises",500,"ssfOUT_240_168_1_VULTURE","VULTURE",1,0.00595238095238095,240,"no effect"
"ssfOUT_240_168_1_VULTURE.6",-0.100552180875108,-0.976630371795619,0.775526010045403,"ssf","mf.is","gamma","unif",5,"ssfOUT_240_168_1_VULTURE","VULTURE",1,0.00595238095238095,240,"no effect"
"ssfOUT_240_168_1_VULTURE.7",-1.13959647040815,-1.99525120465389,-0.283941736162405,"ssf","mf.is","gamma","unif",15,"ssfOUT_240_168_1_VULTURE","VULTURE",1,0.00595238095238095,240,"avoidance"
"ssfOUT_240_168_1_VULTURE.8",-0.441809461938048,-1.20803757683872,0.324418652962629,"ssf","mf.is","gamma","unif",50,"ssfOUT_240_168_1_VULTURE","VULTURE",1,0.00595238095238095,240,"no effect"
"ssfOUT_240_168_1_VULTURE.9",-0.672056058114702,-1.43388249873695,0.0897703825075504,"ssf","mf.is","gamma","unif",158,"ssfOUT_240_168_1_VULTURE","VULTURE",1,0.00595238095238095,240,"no effect"
"ssfOUT_240_168_1_VULTURE.10",-0.643661687005256,-1.40083294569231,0.113509571681794,"ssf","mf.is","gamma","unif",500,"ssfOUT_240_168_1_VULTURE","VULTURE",1,0.00595238095238095,240,"no effect"
"ssfOUT_240_168_1_VULTURE.11",-1.31271876494285,-2.35504005740491,-0.270397472480788,"ssf","mf.is","exp","vonmises",5,"ssfOUT_240_168_1_VULTURE","VULTURE",1,0.00595238095238095,240,"avoidance"
"ssfOUT_240_168_1_VULTURE.12",-0.512017877182405,-1.31675655412776,0.292720799762951,"ssf","mf.is","exp","vonmises",15,"ssfOUT_240_168_1_VULTURE","VULTURE",1,0.00595238095238095,240,"no effect"
"ssfOUT_240_168_1_VULTURE.13",-0.77248056372886,-1.55849255277182,0.0135314253141012,"ssf","mf.is","exp","vonmises",50,"ssfOUT_240_168_1_VULTURE","VULTURE",1,0.00595238095238095,240,"no effect"
"ssfOUT_240_168_1_VULTURE.14",-0.747672565792583,-1.51246028954402,0.0171151579588543,"ssf","mf.is","exp","vonmises",158,"ssfOUT_240_168_1_VULTURE","VULTURE",1,0.00595238095238095,240,"no effect"
"ssfOUT_240_168_1_VULTURE.15",-0.705254686310606,-1.46650626533182,0.0559968927106058,"ssf","mf.is","exp","vonmises",500,"ssfOUT_240_168_1_VULTURE","VULTURE",1,0.00595238095238095,240,"no effect"
"ssfOUT_240_168_1_VULTURE.16",-0.808982537632168,-1.7596947136552,0.141729638390863,"ssf","mf.is","exp","unif",5,"ssfOUT_240_168_1_VULTURE","VULTURE",1,0.00595238095238095,240,"no effect"
"ssfOUT_240_168_1_VULTURE.17",-0.369558298650306,-1.1682598572027,0.42914325990209,"ssf","mf.is","exp","unif",15,"ssfOUT_240_168_1_VULTURE","VULTURE",1,0.00595238095238095,240,"no effect"
"ssfOUT_240_168_1_VULTURE.18",-0.805660311970116,-1.59414576669918,-0.0171748572410561,"ssf","mf.is","exp","unif",50,"ssfOUT_240_168_1_VULTURE","VULTURE",1,0.00595238095238095,240,"avoidance"
"ssfOUT_240_168_1_VULTURE.19",-0.685762162017638,-1.45380753242959,0.0822832083943124,"ssf","mf.is","exp","unif",158,"ssfOUT_240_168_1_VULTURE","VULTURE",1,0.00595238095238095,240,"no effect"
"ssfOUT_240_168_1_VULTURE.20",-0.66454098943637,-1.42274883888165,0.0936668600089111,"ssf","mf.is","exp","unif",500,"ssfOUT_240_168_1_VULTURE","VULTURE",1,0.00595238095238095,240,"no effect"
"ssfOUT_240_168_1_VULTURE.21",-0.577135320709595,-1.44203926893134,0.287768627512153,"ssf","mf.ss","gamma","vonmises",5,"ssfOUT_240_168_1_VULTURE","VULTURE",1,0.00595238095238095,240,"no effect"
"ssfOUT_240_168_1_VULTURE.22",-1.1852401118193,-2.01328430447907,-0.357195919159527,"ssf","mf.ss","gamma","vonmises",15,"ssfOUT_240_168_1_VULTURE","VULTURE",1,0.00595238095238095,240,"avoidance"
"ssfOUT_240_168_1_VULTURE.23",-0.626190197128607,-1.39479224532261,0.142411851065394,"ssf","mf.ss","gamma","vonmises",50,"ssfOUT_240_168_1_VULTURE","VULTURE",1,0.00595238095238095,240,"no effect"
"ssfOUT_240_168_1_VULTURE.24",-0.793511714873863,-1.55103643528986,-0.0359869944578614,"ssf","mf.ss","gamma","vonmises",158,"ssfOUT_240_168_1_VULTURE","VULTURE",1,0.00595238095238095,240,"avoidance"
"ssfOUT_240_168_1_VULTURE.25",-0.793453212659629,-1.54629627405143,-0.040610151267829,"ssf","mf.ss","gamma","vonmises",500,"ssfOUT_240_168_1_VULTURE","VULTURE",1,0.00595238095238095,240,"avoidance"
"ssfOUT_240_168_1_VULTURE.26",-0.255391406442519,-1.08451421662273,0.573731403737695,"ssf","mf.ss","gamma","unif",5,"ssfOUT_240_168_1_VULTURE","VULTURE",1,0.00595238095238095,240,"no effect"
"ssfOUT_240_168_1_VULTURE.27",-1.03287906680088,-1.86062617282481,-0.205131960776938,"ssf","mf.ss","gamma","unif",15,"ssfOUT_240_168_1_VULTURE","VULTURE",1,0.00595238095238095,240,"avoidance"
"ssfOUT_240_168_1_VULTURE.28",-0.531063807681617,-1.29385447447729,0.231726859114052,"ssf","mf.ss","gamma","unif",50,"ssfOUT_240_168_1_VULTURE","VULTURE",1,0.00595238095238095,240,"no effect"
"ssfOUT_240_168_1_VULTURE.29",-0.719863800499637,-1.47679648911009,0.037068888110818,"ssf","mf.ss","gamma","unif",158,"ssfOUT_240_168_1_VULTURE","VULTURE",1,0.00595238095238095,240,"no effect"
"ssfOUT_240_168_1_VULTURE.30",-0.728390326580623,-1.48241193663344,0.0256312834721953,"ssf","mf.ss","gamma","unif",500,"ssfOUT_240_168_1_VULTURE","VULTURE",1,0.00595238095238095,240,"no effect"
"ssfOUT_240_168_1_VULTURE.31",-1.4152959060832,-2.42750368116176,-0.403088131004648,"ssf","mf.ss","exp","vonmises",5,"ssfOUT_240_168_1_VULTURE","VULTURE",1,0.00595238095238095,240,"avoidance"
"ssfOUT_240_168_1_VULTURE.32",-0.798173015995878,-1.60019301237586,0.00384698038410369,"ssf","mf.ss","exp","vonmises",15,"ssfOUT_240_168_1_VULTURE","VULTURE",1,0.00595238095238095,240,"no effect"
"ssfOUT_240_168_1_VULTURE.33",-0.94747863938251,-1.7191881904261,-0.175769088338918,"ssf","mf.ss","exp","vonmises",50,"ssfOUT_240_168_1_VULTURE","VULTURE",1,0.00595238095238095,240,"avoidance"
"ssfOUT_240_168_1_VULTURE.34",-0.775292799243578,-1.54167250987448,-0.00891308861267748,"ssf","mf.ss","exp","vonmises",158,"ssfOUT_240_168_1_VULTURE","VULTURE",1,0.00595238095238095,240,"avoidance"
"ssfOUT_240_168_1_VULTURE.35",-0.857497319643837,-1.61625116854946,-0.0987434707382111,"ssf","mf.ss","exp","vonmises",500,"ssfOUT_240_168_1_VULTURE","VULTURE",1,0.00595238095238095,240,"avoidance"
"ssfOUT_240_168_1_VULTURE.36",-1.16068421934067,-2.08298211202396,-0.238386326657375,"ssf","mf.ss","exp","unif",5,"ssfOUT_240_168_1_VULTURE","VULTURE",1,0.00595238095238095,240,"avoidance"
"ssfOUT_240_168_1_VULTURE.37",-0.528936451622217,-1.32585510886035,0.267982205615912,"ssf","mf.ss","exp","unif",15,"ssfOUT_240_168_1_VULTURE","VULTURE",1,0.00595238095238095,240,"no effect"
"ssfOUT_240_168_1_VULTURE.38",-0.897833800469979,-1.67263850473322,-0.123029096206735,"ssf","mf.ss","exp","unif",50,"ssfOUT_240_168_1_VULTURE","VULTURE",1,0.00595238095238095,240,"avoidance"
"ssfOUT_240_168_1_VULTURE.39",-0.8044255785401,-1.56671018999877,-0.0421409670814296,"ssf","mf.ss","exp","unif",158,"ssfOUT_240_168_1_VULTURE","VULTURE",1,0.00595238095238095,240,"avoidance"
"ssfOUT_240_168_1_VULTURE.40",-0.809039711029103,-1.56460306345898,-0.0534763585992245,"ssf","mf.ss","exp","unif",500,"ssfOUT_240_168_1_VULTURE","VULTURE",1,0.00595238095238095,240,"avoidance"
"ssfOUT_240_168_1_KINGCOBRA.1",-2.73112602617633,-5.36274710266064,-0.0995049496920237,"ssf","mf.is","gamma","vonmises",5,"ssfOUT_240_168_1_KINGCOBRA","KINGCOBRA",1,0.00595238095238095,240,"avoidance"
"ssfOUT_240_168_1_KINGCOBRA.2",-3.45844047850469,-4.98608416191538,-1.93079679509399,"ssf","mf.is","gamma","vonmises",15,"ssfOUT_240_168_1_KINGCOBRA","KINGCOBRA",1,0.00595238095238095,240,"avoidance"
"ssfOUT_240_168_1_KINGCOBRA.3",-0.5854477704839,-1.74834961260247,0.577454071634675,"ssf","mf.is","gamma","vonmises",50,"ssfOUT_240_168_1_KINGCOBRA","KINGCOBRA",1,0.00595238095238095,240,"no effect"
"ssfOUT_240_168_1_KINGCOBRA.4",-1.23552316122131,-2.35470445415624,-0.116341868286382,"ssf","mf.is","gamma","vonmises",158,"ssfOUT_240_168_1_KINGCOBRA","KINGCOBRA",1,0.00595238095238095,240,"avoidance"
"ssfOUT_240_168_1_KINGCOBRA.5",-0.663548181395,-1.73950224985195,0.412405887061949,"ssf","mf.is","gamma","vonmises",500,"ssfOUT_240_168_1_KINGCOBRA","KINGCOBRA",1,0.00595238095238095,240,"no effect"
"ssfOUT_240_168_1_KINGCOBRA.6",0.320128954251253,-0.921956768155934,1.56221467665844,"ssf","mf.is","gamma","unif",5,"ssfOUT_240_168_1_KINGCOBRA","KINGCOBRA",1,0.00595238095238095,240,"no effect"
"ssfOUT_240_168_1_KINGCOBRA.7",-0.93480094765007,-2.07074473970288,0.201142844402743,"ssf","mf.is","gamma","unif",15,"ssfOUT_240_168_1_KINGCOBRA","KINGCOBRA",1,0.00595238095238095,240,"no effect"
"ssfOUT_240_168_1_KINGCOBRA.8",-0.716614647977279,-1.79086325631309,0.357633960358536,"ssf","mf.is","gamma","unif",50,"ssfOUT_240_168_1_KINGCOBRA","KINGCOBRA",1,0.00595238095238095,240,"no effect"
"ssfOUT_240_168_1_KINGCOBRA.9",-0.722898129750045,-1.77935025829844,0.333553998798351,"ssf","mf.is","gamma","unif",158,"ssfOUT_240_168_1_KINGCOBRA","KINGCOBRA",1,0.00595238095238095,240,"no effect"
"ssfOUT_240_168_1_KINGCOBRA.10",-0.563733487415235,-1.62470044181122,0.49723346698075,"ssf","mf.is","gamma","unif",500,"ssfOUT_240_168_1_KINGCOBRA","KINGCOBRA",1,0.00595238095238095,240,"no effect"
"ssfOUT_240_168_1_KINGCOBRA.11",-2.28555899815977,-4.88212204107131,0.311004044751778,"ssf","mf.is","exp","vonmises",5,"ssfOUT_240_168_1_KINGCOBRA","KINGCOBRA",1,0.00595238095238095,240,"no effect"
"ssfOUT_240_168_1_KINGCOBRA.12",-0.921711286861638,-2.12021940847937,0.276796834756091,"ssf","mf.is","exp","vonmises",15,"ssfOUT_240_168_1_KINGCOBRA","KINGCOBRA",1,0.00595238095238095,240,"no effect"
"ssfOUT_240_168_1_KINGCOBRA.13",-0.910789448382295,-2.05709536283236,0.235516466067773,"ssf","mf.is","exp","vonmises",50,"ssfOUT_240_168_1_KINGCOBRA","KINGCOBRA",1,0.00595238095238095,240,"no effect"
"ssfOUT_240_168_1_KINGCOBRA.14",-0.637857092071583,-1.76735652901055,0.491642344867385,"ssf","mf.is","exp","vonmises",158,"ssfOUT_240_168_1_KINGCOBRA","KINGCOBRA",1,0.00595238095238095,240,"no effect"
"ssfOUT_240_168_1_KINGCOBRA.15",-0.60090993468344,-1.67333772716095,0.471517857794067,"ssf","mf.is","exp","vonmises",500,"ssfOUT_240_168_1_KINGCOBRA","KINGCOBRA",1,0.00595238095238095,240,"no effect"
"ssfOUT_240_168_1_KINGCOBRA.16",-0.342747196918891,-1.63154067605338,0.946046282215602,"ssf","mf.is","exp","unif",5,"ssfOUT_240_168_1_KINGCOBRA","KINGCOBRA",1,0.00595238095238095,240,"no effect"
"ssfOUT_240_168_1_KINGCOBRA.17",-0.55991744158273,-1.70799717828828,0.588162295122817,"ssf","mf.is","exp","unif",15,"ssfOUT_240_168_1_KINGCOBRA","KINGCOBRA",1,0.00595238095238095,240,"no effect"
"ssfOUT_240_168_1_KINGCOBRA.18",-0.629888625755988,-1.71612175468725,0.456344503175275,"ssf","mf.is","exp","unif",50,"ssfOUT_240_168_1_KINGCOBRA","KINGCOBRA",1,0.00595238095238095,240,"no effect"
"ssfOUT_240_168_1_KINGCOBRA.19",-0.496714479379488,-1.5564403314967,0.563011372737727,"ssf","mf.is","exp","unif",158,"ssfOUT_240_168_1_KINGCOBRA","KINGCOBRA",1,0.00595238095238095,240,"no effect"
"ssfOUT_240_168_1_KINGCOBRA.20",-0.430538334201332,-1.49167333252108,0.630596664118416,"ssf","mf.is","exp","unif",500,"ssfOUT_240_168_1_KINGCOBRA","KINGCOBRA",1,0.00595238095238095,240,"no effect"
"ssfOUT_240_168_1_KINGCOBRA.21",-1.31830783688702,-2.75300034853322,0.116384674759174,"ssf","mf.ss","gamma","vonmises",5,"ssfOUT_240_168_1_KINGCOBRA","KINGCOBRA",1,0.00595238095238095,240,"no effect"
"ssfOUT_240_168_1_KINGCOBRA.22",-2.2561631482487,-3.49778787752773,-1.01453841896967,"ssf","mf.ss","gamma","vonmises",15,"ssfOUT_240_168_1_KINGCOBRA","KINGCOBRA",1,0.00595238095238095,240,"avoidance"
"ssfOUT_240_168_1_KINGCOBRA.23",-0.66483974711513,-1.7284838316492,0.398804337418939,"ssf","mf.ss","gamma","vonmises",50,"ssfOUT_240_168_1_KINGCOBRA","KINGCOBRA",1,0.00595238095238095,240,"no effect"
"ssfOUT_240_168_1_KINGCOBRA.24",-0.821021205050654,-1.8800181481599,0.237975738058589,"ssf","mf.ss","gamma","vonmises",158,"ssfOUT_240_168_1_KINGCOBRA","KINGCOBRA",1,0.00595238095238095,240,"no effect"
"ssfOUT_240_168_1_KINGCOBRA.25",-0.819710122101179,-1.87439893282751,0.234978688625148,"ssf","mf.ss","gamma","vonmises",500,"ssfOUT_240_168_1_KINGCOBRA","KINGCOBRA",1,0.00595238095238095,240,"no effect"
"ssfOUT_240_168_1_KINGCOBRA.26",-0.356747986280407,-1.48645739199435,0.772961419433538,"ssf","mf.ss","gamma","unif",5,"ssfOUT_240_168_1_KINGCOBRA","KINGCOBRA",1,0.00595238095238095,240,"no effect"
"ssfOUT_240_168_1_KINGCOBRA.27",-0.483234785625558,-1.57212317737089,0.605653606119772,"ssf","mf.ss","gamma","unif",15,"ssfOUT_240_168_1_KINGCOBRA","KINGCOBRA",1,0.00595238095238095,240,"no effect"
"ssfOUT_240_168_1_KINGCOBRA.28",-0.598727174726142,-1.6539834558782,0.456529106425916,"ssf","mf.ss","gamma","unif",50,"ssfOUT_240_168_1_KINGCOBRA","KINGCOBRA",1,0.00595238095238095,240,"no effect"
"ssfOUT_240_168_1_KINGCOBRA.29",-0.782590703036065,-1.83012301739099,0.264941611318857,"ssf","mf.ss","gamma","unif",158,"ssfOUT_240_168_1_KINGCOBRA","KINGCOBRA",1,0.00595238095238095,240,"no effect"
"ssfOUT_240_168_1_KINGCOBRA.30",-0.591439848051688,-1.63622151407556,0.453341817972185,"ssf","mf.ss","gamma","unif",500,"ssfOUT_240_168_1_KINGCOBRA","KINGCOBRA",1,0.00595238095238095,240,"no effect"
"ssfOUT_240_168_1_KINGCOBRA.31",-0.240318140692941,-1.43777183519337,0.957135553807484,"ssf","mf.ss","exp","vonmises",5,"ssfOUT_240_168_1_KINGCOBRA","KINGCOBRA",1,0.00595238095238095,240,"no effect"
"ssfOUT_240_168_1_KINGCOBRA.32",-0.176107525669148,-1.24948522881674,0.897270177478448,"ssf","mf.ss","exp","vonmises",15,"ssfOUT_240_168_1_KINGCOBRA","KINGCOBRA",1,0.00595238095238095,240,"no effect"
"ssfOUT_240_168_1_KINGCOBRA.33",-0.5651267254658,-1.62793021692155,0.497676765989952,"ssf","mf.ss","exp","vonmises",50,"ssfOUT_240_168_1_KINGCOBRA","KINGCOBRA",1,0.00595238095238095,240,"no effect"
"ssfOUT_240_168_1_KINGCOBRA.34",-0.590345090261157,-1.65762540427803,0.476935223755713,"ssf","mf.ss","exp","vonmises",158,"ssfOUT_240_168_1_KINGCOBRA","KINGCOBRA",1,0.00595238095238095,240,"no effect"
"ssfOUT_240_168_1_KINGCOBRA.35",-0.501968461784378,-1.56891291305756,0.564975989488804,"ssf","mf.ss","exp","vonmises",500,"ssfOUT_240_168_1_KINGCOBRA","KINGCOBRA",1,0.00595238095238095,240,"no effect"
"ssfOUT_240_168_1_KINGCOBRA.36",-0.518957330117826,-1.65995473197502,0.622040071739364,"ssf","mf.ss","exp","unif",5,"ssfOUT_240_168_1_KINGCOBRA","KINGCOBRA",1,0.00595238095238095,240,"no effect"
"ssfOUT_240_168_1_KINGCOBRA.37",-1.03501761770646,-2.1954567799352,0.125421544522289,"ssf","mf.ss","exp","unif",15,"ssfOUT_240_168_1_KINGCOBRA","KINGCOBRA",1,0.00595238095238095,240,"no effect"
"ssfOUT_240_168_1_KINGCOBRA.38",-0.272655607492842,-1.32968702024545,0.784375805259768,"ssf","mf.ss","exp","unif",50,"ssfOUT_240_168_1_KINGCOBRA","KINGCOBRA",1,0.00595238095238095,240,"no effect"
"ssfOUT_240_168_1_KINGCOBRA.39",-0.412758733973547,-1.47260591596826,0.647088448021161,"ssf","mf.ss","exp","unif",158,"ssfOUT_240_168_1_KINGCOBRA","KINGCOBRA",1,0.00595238095238095,240,"no effect"
"ssfOUT_240_168_1_KINGCOBRA.40",-0.353702887493261,-1.42026634214333,0.712860567156808,"ssf","mf.ss","exp","unif",500,"ssfOUT_240_168_1_KINGCOBRA","KINGCOBRA",1,0.00595238095238095,240,"no effect"
"ssfOUT_240_168_2_BADGER.1",0.772269820192652,-0.535359522453892,2.0798991628392,"ssf","mf.is","gamma","vonmises",5,"ssfOUT_240_168_2_BADGER","BADGER",2,0.00595238095238095,240,"no effect"
"ssfOUT_240_168_2_BADGER.2",0.95201623913287,-0.208505824799965,2.11253830306571,"ssf","mf.is","gamma","vonmises",15,"ssfOUT_240_168_2_BADGER","BADGER",2,0.00595238095238095,240,"no effect"
"ssfOUT_240_168_2_BADGER.3",0.608087435876326,-0.456931917490065,1.67310678924272,"ssf","mf.is","gamma","vonmises",50,"ssfOUT_240_168_2_BADGER","BADGER",2,0.00595238095238095,240,"no effect"
"ssfOUT_240_168_2_BADGER.4",0.294890482997466,-0.750186990350841,1.33996795634577,"ssf","mf.is","gamma","vonmises",158,"ssfOUT_240_168_2_BADGER","BADGER",2,0.00595238095238095,240,"no effect"
"ssfOUT_240_168_2_BADGER.5",0.637887730168346,-0.400930996171112,1.6767064565078,"ssf","mf.is","gamma","vonmises",500,"ssfOUT_240_168_2_BADGER","BADGER",2,0.00595238095238095,240,"no effect"
"ssfOUT_240_168_2_BADGER.6",-0.343458920449436,-1.66672287918153,0.979805038282659,"ssf","mf.is","gamma","unif",5,"ssfOUT_240_168_2_BADGER","BADGER",2,0.00595238095238095,240,"no effect"
"ssfOUT_240_168_2_BADGER.7",0.819192043754709,-0.248324468314566,1.88670855582398,"ssf","mf.is","gamma","unif",15,"ssfOUT_240_168_2_BADGER","BADGER",2,0.00595238095238095,240,"no effect"
"ssfOUT_240_168_2_BADGER.8",0.461860088472139,-0.580372928511289,1.50409310545557,"ssf","mf.is","gamma","unif",50,"ssfOUT_240_168_2_BADGER","BADGER",2,0.00595238095238095,240,"no effect"
"ssfOUT_240_168_2_BADGER.9",0.578533878134738,-0.460411764524345,1.61747952079382,"ssf","mf.is","gamma","unif",158,"ssfOUT_240_168_2_BADGER","BADGER",2,0.00595238095238095,240,"no effect"
"ssfOUT_240_168_2_BADGER.10",0.609626922398383,-0.426171888889044,1.64542573368581,"ssf","mf.is","gamma","unif",500,"ssfOUT_240_168_2_BADGER","BADGER",2,0.00595238095238095,240,"no effect"
"ssfOUT_240_168_2_BADGER.11",1.29252324166185,-0.520671890676008,3.10571837399972,"ssf","mf.is","exp","vonmises",5,"ssfOUT_240_168_2_BADGER","BADGER",2,0.00595238095238095,240,"no effect"
"ssfOUT_240_168_2_BADGER.12",1.50452649716239,0.381630722072666,2.62742227225211,"ssf","mf.is","exp","vonmises",15,"ssfOUT_240_168_2_BADGER","BADGER",2,0.00595238095238095,240,"preference"
"ssfOUT_240_168_2_BADGER.13",0.160285974464319,-0.911287019098709,1.23185896802735,"ssf","mf.is","exp","vonmises",50,"ssfOUT_240_168_2_BADGER","BADGER",2,0.00595238095238095,240,"no effect"
"ssfOUT_240_168_2_BADGER.14",0.808079652897363,-0.246693715531206,1.86285302132593,"ssf","mf.is","exp","vonmises",158,"ssfOUT_240_168_2_BADGER","BADGER",2,0.00595238095238095,240,"no effect"
"ssfOUT_240_168_2_BADGER.15",0.680968000146498,-0.356012777198318,1.71794877749131,"ssf","mf.is","exp","vonmises",500,"ssfOUT_240_168_2_BADGER","BADGER",2,0.00595238095238095,240,"no effect"
"ssfOUT_240_168_2_BADGER.16",-0.0612430583557144,-1.34363539317017,1.22114927645874,"ssf","mf.is","exp","unif",5,"ssfOUT_240_168_2_BADGER","BADGER",2,0.00595238095238095,240,"no effect"
"ssfOUT_240_168_2_BADGER.17",0.0448724439326274,-1.1370635625546,1.22680845041986,"ssf","mf.is","exp","unif",15,"ssfOUT_240_168_2_BADGER","BADGER",2,0.00595238095238095,240,"no effect"
"ssfOUT_240_168_2_BADGER.18",0.926568833802446,-0.126080930604661,1.97921859820955,"ssf","mf.is","exp","unif",50,"ssfOUT_240_168_2_BADGER","BADGER",2,0.00595238095238095,240,"no effect"
"ssfOUT_240_168_2_BADGER.19",0.777460241371888,-0.264533021324686,1.81945350406846,"ssf","mf.is","exp","unif",158,"ssfOUT_240_168_2_BADGER","BADGER",2,0.00595238095238095,240,"no effect"
"ssfOUT_240_168_2_BADGER.20",0.495307885075651,-0.538335479733303,1.52895124988461,"ssf","mf.is","exp","unif",500,"ssfOUT_240_168_2_BADGER","BADGER",2,0.00595238095238095,240,"no effect"
"ssfOUT_240_168_2_BADGER.21",0.613833482307104,-0.491619039133462,1.71928600374767,"ssf","mf.ss","gamma","vonmises",5,"ssfOUT_240_168_2_BADGER","BADGER",2,0.00595238095238095,240,"no effect"
"ssfOUT_240_168_2_BADGER.22",0.470285405961538,-0.577657501668332,1.51822831359141,"ssf","mf.ss","gamma","vonmises",15,"ssfOUT_240_168_2_BADGER","BADGER",2,0.00595238095238095,240,"no effect"
"ssfOUT_240_168_2_BADGER.23",0.229710208230545,-0.806384712239145,1.26580512870023,"ssf","mf.ss","gamma","vonmises",50,"ssfOUT_240_168_2_BADGER","BADGER",2,0.00595238095238095,240,"no effect"
"ssfOUT_240_168_2_BADGER.24",0.139247569144419,-0.891412918414154,1.16990805670299,"ssf","mf.ss","gamma","vonmises",158,"ssfOUT_240_168_2_BADGER","BADGER",2,0.00595238095238095,240,"no effect"
"ssfOUT_240_168_2_BADGER.25",0.284289239419653,-0.745480144060213,1.31405862289952,"ssf","mf.ss","gamma","vonmises",500,"ssfOUT_240_168_2_BADGER","BADGER",2,0.00595238095238095,240,"no effect"
"ssfOUT_240_168_2_BADGER.26",-0.215420506127216,-1.49751805118277,1.06667703892833,"ssf","mf.ss","gamma","unif",5,"ssfOUT_240_168_2_BADGER","BADGER",2,0.00595238095238095,240,"no effect"
"ssfOUT_240_168_2_BADGER.27",0.750676461569049,-0.298668134050563,1.80002105718866,"ssf","mf.ss","gamma","unif",15,"ssfOUT_240_168_2_BADGER","BADGER",2,0.00595238095238095,240,"no effect"
"ssfOUT_240_168_2_BADGER.28",0.307601580640591,-0.726900526160178,1.34210368744136,"ssf","mf.ss","gamma","unif",50,"ssfOUT_240_168_2_BADGER","BADGER",2,0.00595238095238095,240,"no effect"
"ssfOUT_240_168_2_BADGER.29",0.372453196701313,-0.657447620056105,1.40235401345873,"ssf","mf.ss","gamma","unif",158,"ssfOUT_240_168_2_BADGER","BADGER",2,0.00595238095238095,240,"no effect"
"ssfOUT_240_168_2_BADGER.30",0.477072176814913,-0.552125292141483,1.50626964577131,"ssf","mf.ss","gamma","unif",500,"ssfOUT_240_168_2_BADGER","BADGER",2,0.00595238095238095,240,"no effect"
"ssfOUT_240_168_2_BADGER.31",0.235909960924471,-0.918287105250734,1.39010702709967,"ssf","mf.ss","exp","vonmises",5,"ssfOUT_240_168_2_BADGER","BADGER",2,0.00595238095238095,240,"no effect"
"ssfOUT_240_168_2_BADGER.32",0.404548576179774,-0.666132682819217,1.47522983517877,"ssf","mf.ss","exp","vonmises",15,"ssfOUT_240_168_2_BADGER","BADGER",2,0.00595238095238095,240,"no effect"
"ssfOUT_240_168_2_BADGER.33",0.0785833403853565,-0.964013671841924,1.12118035261264,"ssf","mf.ss","exp","vonmises",50,"ssfOUT_240_168_2_BADGER","BADGER",2,0.00595238095238095,240,"no effect"
"ssfOUT_240_168_2_BADGER.34",0.233842380586116,-0.801937620543989,1.26962238171622,"ssf","mf.ss","exp","vonmises",158,"ssfOUT_240_168_2_BADGER","BADGER",2,0.00595238095238095,240,"no effect"
"ssfOUT_240_168_2_BADGER.35",0.283113793335537,-0.753978052604275,1.32020563927535,"ssf","mf.ss","exp","vonmises",500,"ssfOUT_240_168_2_BADGER","BADGER",2,0.00595238095238095,240,"no effect"
"ssfOUT_240_168_2_BADGER.36",-0.0956906358273858,-1.22874912019041,1.03736784853564,"ssf","mf.ss","exp","unif",5,"ssfOUT_240_168_2_BADGER","BADGER",2,0.00595238095238095,240,"no effect"
"ssfOUT_240_168_2_BADGER.37",-0.873231210361521,-2.01566951009439,0.269207089371345,"ssf","mf.ss","exp","unif",15,"ssfOUT_240_168_2_BADGER","BADGER",2,0.00595238095238095,240,"no effect"
"ssfOUT_240_168_2_BADGER.38",0.337738160166989,-0.698885686889891,1.37436200722387,"ssf","mf.ss","exp","unif",50,"ssfOUT_240_168_2_BADGER","BADGER",2,0.00595238095238095,240,"no effect"
"ssfOUT_240_168_2_BADGER.39",0.303254321465111,-0.72876985767496,1.33527850060518,"ssf","mf.ss","exp","unif",158,"ssfOUT_240_168_2_BADGER","BADGER",2,0.00595238095238095,240,"no effect"
"ssfOUT_240_168_2_BADGER.40",0.196373747753421,-0.835645187143682,1.22839268265052,"ssf","mf.ss","exp","unif",500,"ssfOUT_240_168_2_BADGER","BADGER",2,0.00595238095238095,240,"no effect"
"ssfOUT_240_168_2_VULTURE.1",-1.25848026665165,-2.39265394357397,-0.124306589729329,"ssf","mf.is","gamma","vonmises",5,"ssfOUT_240_168_2_VULTURE","VULTURE",2,0.00595238095238095,240,"avoidance"
"ssfOUT_240_168_2_VULTURE.2",-1.15628597941872,-2.11630154542222,-0.19627041341522,"ssf","mf.is","gamma","vonmises",15,"ssfOUT_240_168_2_VULTURE","VULTURE",2,0.00595238095238095,240,"avoidance"
"ssfOUT_240_168_2_VULTURE.3",-1.07986805686644,-1.90285103035759,-0.256885083375278,"ssf","mf.is","gamma","vonmises",50,"ssfOUT_240_168_2_VULTURE","VULTURE",2,0.00595238095238095,240,"avoidance"
"ssfOUT_240_168_2_VULTURE.4",-1.07065428921262,-1.85592744677525,-0.285381131649983,"ssf","mf.is","gamma","vonmises",158,"ssfOUT_240_168_2_VULTURE","VULTURE",2,0.00595238095238095,240,"avoidance"
"ssfOUT_240_168_2_VULTURE.5",-1.03416164919048,-1.81650672890331,-0.251816569477649,"ssf","mf.is","gamma","vonmises",500,"ssfOUT_240_168_2_VULTURE","VULTURE",2,0.00595238095238095,240,"avoidance"
"ssfOUT_240_168_2_VULTURE.6",-0.353690688951315,-1.24801347277141,0.540632094868781,"ssf","mf.is","gamma","unif",5,"ssfOUT_240_168_2_VULTURE","VULTURE",2,0.00595238095238095,240,"no effect"
"ssfOUT_240_168_2_VULTURE.7",-1.12455844352005,-1.96161775612535,-0.287499130914743,"ssf","mf.is","gamma","unif",15,"ssfOUT_240_168_2_VULTURE","VULTURE",2,0.00595238095238095,240,"avoidance"
"ssfOUT_240_168_2_VULTURE.8",-1.46876706589526,-2.26970432058988,-0.667829811200645,"ssf","mf.is","gamma","unif",50,"ssfOUT_240_168_2_VULTURE","VULTURE",2,0.00595238095238095,240,"avoidance"
"ssfOUT_240_168_2_VULTURE.9",-1.07205867996009,-1.85630905408709,-0.287808305833087,"ssf","mf.is","gamma","unif",158,"ssfOUT_240_168_2_VULTURE","VULTURE",2,0.00595238095238095,240,"avoidance"
"ssfOUT_240_168_2_VULTURE.10",-1.07881575393384,-1.85987891908942,-0.297752588778253,"ssf","mf.is","gamma","unif",500,"ssfOUT_240_168_2_VULTURE","VULTURE",2,0.00595238095238095,240,"avoidance"
"ssfOUT_240_168_2_VULTURE.11",-1.25557215970385,-2.37386177996148,-0.137282539446224,"ssf","mf.is","exp","vonmises",5,"ssfOUT_240_168_2_VULTURE","VULTURE",2,0.00595238095238095,240,"avoidance"
"ssfOUT_240_168_2_VULTURE.12",-1.49140028600827,-2.54415389251873,-0.438646679497821,"ssf","mf.is","exp","vonmises",15,"ssfOUT_240_168_2_VULTURE","VULTURE",2,0.00595238095238095,240,"avoidance"
"ssfOUT_240_168_2_VULTURE.13",-1.13408821402147,-1.98407307510191,-0.284103352941027,"ssf","mf.is","exp","vonmises",50,"ssfOUT_240_168_2_VULTURE","VULTURE",2,0.00595238095238095,240,"avoidance"
"ssfOUT_240_168_2_VULTURE.14",-1.17577489174298,-1.96812297821445,-0.383426805271515,"ssf","mf.is","exp","vonmises",158,"ssfOUT_240_168_2_VULTURE","VULTURE",2,0.00595238095238095,240,"avoidance"
"ssfOUT_240_168_2_VULTURE.15",-1.13995840764418,-1.92089198730833,-0.359024827980033,"ssf","mf.is","exp","vonmises",500,"ssfOUT_240_168_2_VULTURE","VULTURE",2,0.00595238095238095,240,"avoidance"
"ssfOUT_240_168_2_VULTURE.16",-0.566003195440094,-1.52203150680294,0.390025115922747,"ssf","mf.is","exp","unif",5,"ssfOUT_240_168_2_VULTURE","VULTURE",2,0.00595238095238095,240,"no effect"
"ssfOUT_240_168_2_VULTURE.17",-0.930989436062326,-1.79447957377885,-0.0674992983458054,"ssf","mf.is","exp","unif",15,"ssfOUT_240_168_2_VULTURE","VULTURE",2,0.00595238095238095,240,"avoidance"
"ssfOUT_240_168_2_VULTURE.18",-1.44390061346965,-2.25694091775602,-0.630860309183283,"ssf","mf.is","exp","unif",50,"ssfOUT_240_168_2_VULTURE","VULTURE",2,0.00595238095238095,240,"avoidance"
"ssfOUT_240_168_2_VULTURE.19",-1.24727183797829,-2.03525788008324,-0.459285795873339,"ssf","mf.is","exp","unif",158,"ssfOUT_240_168_2_VULTURE","VULTURE",2,0.00595238095238095,240,"avoidance"
"ssfOUT_240_168_2_VULTURE.20",-1.03214280191817,-1.81426283948428,-0.25002276435206,"ssf","mf.is","exp","unif",500,"ssfOUT_240_168_2_VULTURE","VULTURE",2,0.00595238095238095,240,"avoidance"
"ssfOUT_240_168_2_VULTURE.21",-1.5166459203119,-2.5630539164964,-0.470237924127408,"ssf","mf.ss","gamma","vonmises",5,"ssfOUT_240_168_2_VULTURE","VULTURE",2,0.00595238095238095,240,"avoidance"
"ssfOUT_240_168_2_VULTURE.22",-1.25554684254045,-2.09026793703073,-0.420825748050165,"ssf","mf.ss","gamma","vonmises",15,"ssfOUT_240_168_2_VULTURE","VULTURE",2,0.00595238095238095,240,"avoidance"
"ssfOUT_240_168_2_VULTURE.23",-0.945130842307896,-1.72818554848001,-0.162076136135778,"ssf","mf.ss","gamma","vonmises",50,"ssfOUT_240_168_2_VULTURE","VULTURE",2,0.00595238095238095,240,"avoidance"
"ssfOUT_240_168_2_VULTURE.24",-0.90937110204184,-1.68539589837452,-0.133346305709157,"ssf","mf.ss","gamma","vonmises",158,"ssfOUT_240_168_2_VULTURE","VULTURE",2,0.00595238095238095,240,"avoidance"
"ssfOUT_240_168_2_VULTURE.25",-0.975179766957837,-1.74655197307864,-0.203807560837036,"ssf","mf.ss","gamma","vonmises",500,"ssfOUT_240_168_2_VULTURE","VULTURE",2,0.00595238095238095,240,"avoidance"
"ssfOUT_240_168_2_VULTURE.26",-0.217110701795103,-1.07043047171096,0.636209068120754,"ssf","mf.ss","gamma","unif",5,"ssfOUT_240_168_2_VULTURE","VULTURE",2,0.00595238095238095,240,"no effect"
"ssfOUT_240_168_2_VULTURE.27",-0.830554423844032,-1.63844673435377,-0.0226621133342965,"ssf","mf.ss","gamma","unif",15,"ssfOUT_240_168_2_VULTURE","VULTURE",2,0.00595238095238095,240,"avoidance"
"ssfOUT_240_168_2_VULTURE.28",-1.29325234456996,-2.07450525732979,-0.511999431810126,"ssf","mf.ss","gamma","unif",50,"ssfOUT_240_168_2_VULTURE","VULTURE",2,0.00595238095238095,240,"avoidance"
"ssfOUT_240_168_2_VULTURE.29",-1.0063879253643,-1.77773011192099,-0.235045738807612,"ssf","mf.ss","gamma","unif",158,"ssfOUT_240_168_2_VULTURE","VULTURE",2,0.00595238095238095,240,"avoidance"
"ssfOUT_240_168_2_VULTURE.30",-0.971254803648314,-1.74115579685737,-0.201353810439256,"ssf","mf.ss","gamma","unif",500,"ssfOUT_240_168_2_VULTURE","VULTURE",2,0.00595238095238095,240,"avoidance"
"ssfOUT_240_168_2_VULTURE.31",-0.770489248746976,-1.64114872860123,0.100170231107276,"ssf","mf.ss","exp","vonmises",5,"ssfOUT_240_168_2_VULTURE","VULTURE",2,0.00595238095238095,240,"no effect"
"ssfOUT_240_168_2_VULTURE.32",-1.10564128280792,-1.91860891678895,-0.292673648826894,"ssf","mf.ss","exp","vonmises",15,"ssfOUT_240_168_2_VULTURE","VULTURE",2,0.00595238095238095,240,"avoidance"
"ssfOUT_240_168_2_VULTURE.33",-0.722574222506016,-1.51469404806485,0.06954560305282,"ssf","mf.ss","exp","vonmises",50,"ssfOUT_240_168_2_VULTURE","VULTURE",2,0.00595238095238095,240,"no effect"
"ssfOUT_240_168_2_VULTURE.34",-0.937618387302209,-1.71530544955906,-0.159931325045362,"ssf","mf.ss","exp","vonmises",158,"ssfOUT_240_168_2_VULTURE","VULTURE",2,0.00595238095238095,240,"avoidance"
"ssfOUT_240_168_2_VULTURE.35",-0.962315549328584,-1.74102489311571,-0.183606205541457,"ssf","mf.ss","exp","vonmises",500,"ssfOUT_240_168_2_VULTURE","VULTURE",2,0.00595238095238095,240,"avoidance"
"ssfOUT_240_168_2_VULTURE.36",-0.185619455254404,-1.04551873644808,0.674279825939267,"ssf","mf.ss","exp","unif",5,"ssfOUT_240_168_2_VULTURE","VULTURE",2,0.00595238095238095,240,"no effect"
"ssfOUT_240_168_2_VULTURE.37",-0.733179516585619,-1.53602285277739,0.0696638196061501,"ssf","mf.ss","exp","unif",15,"ssfOUT_240_168_2_VULTURE","VULTURE",2,0.00595238095238095,240,"no effect"
"ssfOUT_240_168_2_VULTURE.38",-1.0323032473881,-1.81352717919485,-0.251079315581355,"ssf","mf.ss","exp","unif",50,"ssfOUT_240_168_2_VULTURE","VULTURE",2,0.00595238095238095,240,"avoidance"
"ssfOUT_240_168_2_VULTURE.39",-1.07190598922659,-1.85356866251355,-0.290243315939624,"ssf","mf.ss","exp","unif",158,"ssfOUT_240_168_2_VULTURE","VULTURE",2,0.00595238095238095,240,"avoidance"
"ssfOUT_240_168_2_VULTURE.40",-0.940520682302186,-1.71631484454567,-0.164726520058704,"ssf","mf.ss","exp","unif",500,"ssfOUT_240_168_2_VULTURE","VULTURE",2,0.00595238095238095,240,"avoidance"
"ssfOUT_240_168_2_KINGCOBRA.1",19.4332583228477,-11943.607829174,11982.4743458197,"ssf","mf.is","gamma","vonmises",5,"ssfOUT_240_168_2_KINGCOBRA","KINGCOBRA",2,0.00595238095238095,240,"no effect"
"ssfOUT_240_168_2_KINGCOBRA.2",16.9809397722502,-5875.9949492165,5909.956828761,"ssf","mf.is","gamma","vonmises",15,"ssfOUT_240_168_2_KINGCOBRA","KINGCOBRA",2,0.00595238095238095,240,"no effect"
"ssfOUT_240_168_2_KINGCOBRA.3",17.0949542721041,-4881.14185841293,4915.33176695713,"ssf","mf.is","gamma","vonmises",50,"ssfOUT_240_168_2_KINGCOBRA","KINGCOBRA",2,0.00595238095238095,240,"no effect"
"ssfOUT_240_168_2_KINGCOBRA.4",17.1144277532835,-5807.37943544525,5841.60829095182,"ssf","mf.is","gamma","vonmises",158,"ssfOUT_240_168_2_KINGCOBRA","KINGCOBRA",2,0.00595238095238095,240,"no effect"
"ssfOUT_240_168_2_KINGCOBRA.5",15.9479271966904,-3409.66570232964,3441.56155672302,"ssf","mf.is","gamma","vonmises",500,"ssfOUT_240_168_2_KINGCOBRA","KINGCOBRA",2,0.00595238095238095,240,"no effect"
"ssfOUT_240_168_2_KINGCOBRA.6",16.5905233974123,-7203.51317309084,7236.69421988567,"ssf","mf.is","gamma","unif",5,"ssfOUT_240_168_2_KINGCOBRA","KINGCOBRA",2,0.00595238095238095,240,"no effect"
"ssfOUT_240_168_2_KINGCOBRA.7",16.896666296956,-4885.84727952836,4919.64061212228,"ssf","mf.is","gamma","unif",15,"ssfOUT_240_168_2_KINGCOBRA","KINGCOBRA",2,0.00595238095238095,240,"no effect"
"ssfOUT_240_168_2_KINGCOBRA.8",17.0477280746526,-5710.70251600708,5744.79797215639,"ssf","mf.is","gamma","unif",50,"ssfOUT_240_168_2_KINGCOBRA","KINGCOBRA",2,0.00595238095238095,240,"no effect"
"ssfOUT_240_168_2_KINGCOBRA.9",16.9598204325852,-5227.35709100059,5261.27673186576,"ssf","mf.is","gamma","unif",158,"ssfOUT_240_168_2_KINGCOBRA","KINGCOBRA",2,0.00595238095238095,240,"no effect"
"ssfOUT_240_168_2_KINGCOBRA.10",15.91996438148,-3153.31654353983,3185.15647230279,"ssf","mf.is","gamma","unif",500,"ssfOUT_240_168_2_KINGCOBRA","KINGCOBRA",2,0.00595238095238095,240,"no effect"
"ssfOUT_240_168_2_KINGCOBRA.11",17.4858807434188,-8644.18671734194,8679.15847882877,"ssf","mf.is","exp","vonmises",5,"ssfOUT_240_168_2_KINGCOBRA","KINGCOBRA",2,0.00595238095238095,240,"no effect"
"ssfOUT_240_168_2_KINGCOBRA.12",17.908963941216,-6546.7439788013,6582.56190668373,"ssf","mf.is","exp","vonmises",15,"ssfOUT_240_168_2_KINGCOBRA","KINGCOBRA",2,0.00595238095238095,240,"no effect"
"ssfOUT_240_168_2_KINGCOBRA.13",16.7718603981034,-5786.485086266,5820.02880706221,"ssf","mf.is","exp","vonmises",50,"ssfOUT_240_168_2_KINGCOBRA","KINGCOBRA",2,0.00595238095238095,240,"no effect"
"ssfOUT_240_168_2_KINGCOBRA.14",16.7862962999403,-5374.20639940105,5407.77899200093,"ssf","mf.is","exp","vonmises",158,"ssfOUT_240_168_2_KINGCOBRA","KINGCOBRA",2,0.00595238095238095,240,"no effect"
"ssfOUT_240_168_2_KINGCOBRA.15",16.8890745892243,-5266.63650450043,5300.41465367888,"ssf","mf.is","exp","vonmises",500,"ssfOUT_240_168_2_KINGCOBRA","KINGCOBRA",2,0.00595238095238095,240,"no effect"
"ssfOUT_240_168_2_KINGCOBRA.16",18.0611163516839,-9722.45780393954,9758.5800366429,"ssf","mf.is","exp","unif",5,"ssfOUT_240_168_2_KINGCOBRA","KINGCOBRA",2,0.00595238095238095,240,"no effect"
"ssfOUT_240_168_2_KINGCOBRA.17",17.3623805733398,-5197.53972925125,5232.26449039793,"ssf","mf.is","exp","unif",15,"ssfOUT_240_168_2_KINGCOBRA","KINGCOBRA",2,0.00595238095238095,240,"no effect"
"ssfOUT_240_168_2_KINGCOBRA.18",16.7678779672262,-6536.75349892373,6570.28925485819,"ssf","mf.is","exp","unif",50,"ssfOUT_240_168_2_KINGCOBRA","KINGCOBRA",2,0.00595238095238095,240,"no effect"
"ssfOUT_240_168_2_KINGCOBRA.19",16.9431379137912,-5605.22558624732,5639.1118620749,"ssf","mf.is","exp","unif",158,"ssfOUT_240_168_2_KINGCOBRA","KINGCOBRA",2,0.00595238095238095,240,"no effect"
"ssfOUT_240_168_2_KINGCOBRA.20",16.8983742638324,-5274.10203140028,5307.89877992794,"ssf","mf.is","exp","unif",500,"ssfOUT_240_168_2_KINGCOBRA","KINGCOBRA",2,0.00595238095238095,240,"no effect"
"ssfOUT_240_168_2_KINGCOBRA.21",17.8924413110827,-8379.84457722758,8415.62945984974,"ssf","mf.ss","gamma","vonmises",5,"ssfOUT_240_168_2_KINGCOBRA","KINGCOBRA",2,0.00595238095238095,240,"no effect"
"ssfOUT_240_168_2_KINGCOBRA.22",16.7525924382799,-6449.24442766085,6482.74961253741,"ssf","mf.ss","gamma","vonmises",15,"ssfOUT_240_168_2_KINGCOBRA","KINGCOBRA",2,0.00595238095238095,240,"no effect"
"ssfOUT_240_168_2_KINGCOBRA.23",16.6903637728688,-5394.8932481942,5428.27397573994,"ssf","mf.ss","gamma","vonmises",50,"ssfOUT_240_168_2_KINGCOBRA","KINGCOBRA",2,0.00595238095238095,240,"no effect"
"ssfOUT_240_168_2_KINGCOBRA.24",15.6745397247039,-3720.21131657258,3751.56039602198,"ssf","mf.ss","gamma","vonmises",158,"ssfOUT_240_168_2_KINGCOBRA","KINGCOBRA",2,0.00595238095238095,240,"no effect"
"ssfOUT_240_168_2_KINGCOBRA.25",15.675708728614,-3452.85303037159,3484.20444782882,"ssf","mf.ss","gamma","vonmises",500,"ssfOUT_240_168_2_KINGCOBRA","KINGCOBRA",2,0.00595238095238095,240,"no effect"
"ssfOUT_240_168_2_KINGCOBRA.26",16.8207873527488,-5863.88848431265,5897.53005901815,"ssf","mf.ss","gamma","unif",5,"ssfOUT_240_168_2_KINGCOBRA","KINGCOBRA",2,0.00595238095238095,240,"no effect"
"ssfOUT_240_168_2_KINGCOBRA.27",16.9158988249397,-4827.02868100318,4860.86047865306,"ssf","mf.ss","gamma","unif",15,"ssfOUT_240_168_2_KINGCOBRA","KINGCOBRA",2,0.00595238095238095,240,"no effect"
"ssfOUT_240_168_2_KINGCOBRA.28",16.7076725281985,-5411.22722652639,5444.64257158279,"ssf","mf.ss","gamma","unif",50,"ssfOUT_240_168_2_KINGCOBRA","KINGCOBRA",2,0.00595238095238095,240,"no effect"
"ssfOUT_240_168_2_KINGCOBRA.29",16.730897132107,-5072.95154670172,5106.41334096593,"ssf","mf.ss","gamma","unif",158,"ssfOUT_240_168_2_KINGCOBRA","KINGCOBRA",2,0.00595238095238095,240,"no effect"
"ssfOUT_240_168_2_KINGCOBRA.30",15.7177294434036,-3108.36857833025,3139.80403721706,"ssf","mf.ss","gamma","unif",500,"ssfOUT_240_168_2_KINGCOBRA","KINGCOBRA",2,0.00595238095238095,240,"no effect"
"ssfOUT_240_168_2_KINGCOBRA.31",16.9594656199768,-7536.40148941062,7570.32042065057,"ssf","mf.ss","exp","vonmises",5,"ssfOUT_240_168_2_KINGCOBRA","KINGCOBRA",2,0.00595238095238095,240,"no effect"
"ssfOUT_240_168_2_KINGCOBRA.32",17.8077252825561,-7346.25337928501,7381.86882985012,"ssf","mf.ss","exp","vonmises",15,"ssfOUT_240_168_2_KINGCOBRA","KINGCOBRA",2,0.00595238095238095,240,"no effect"
"ssfOUT_240_168_2_KINGCOBRA.33",16.6922262410619,-5375.26283558819,5408.64728807031,"ssf","mf.ss","exp","vonmises",50,"ssfOUT_240_168_2_KINGCOBRA","KINGCOBRA",2,0.00595238095238095,240,"no effect"
"ssfOUT_240_168_2_KINGCOBRA.34",16.7055466881994,-5456.55954795861,5489.97064133501,"ssf","mf.ss","exp","vonmises",158,"ssfOUT_240_168_2_KINGCOBRA","KINGCOBRA",2,0.00595238095238095,240,"no effect"
"ssfOUT_240_168_2_KINGCOBRA.35",15.6855210061457,-3268.89337864538,3300.26442065767,"ssf","mf.ss","exp","vonmises",500,"ssfOUT_240_168_2_KINGCOBRA","KINGCOBRA",2,0.00595238095238095,240,"no effect"
"ssfOUT_240_168_2_KINGCOBRA.36",17.8121029002517,-9619.89781005684,9655.52201585734,"ssf","mf.ss","exp","unif",5,"ssfOUT_240_168_2_KINGCOBRA","KINGCOBRA",2,0.00595238095238095,240,"no effect"
"ssfOUT_240_168_2_KINGCOBRA.37",16.7231923286423,-5289.90608651882,5323.35247117611,"ssf","mf.ss","exp","unif",15,"ssfOUT_240_168_2_KINGCOBRA","KINGCOBRA",2,0.00595238095238095,240,"no effect"
"ssfOUT_240_168_2_KINGCOBRA.38",16.6964158087005,-6554.81990172953,6588.21273334693,"ssf","mf.ss","exp","unif",50,"ssfOUT_240_168_2_KINGCOBRA","KINGCOBRA",2,0.00595238095238095,240,"no effect"
"ssfOUT_240_168_2_KINGCOBRA.39",16.7336765561719,-5489.73524668653,5523.20259979888,"ssf","mf.ss","exp","unif",158,"ssfOUT_240_168_2_KINGCOBRA","KINGCOBRA",2,0.00595238095238095,240,"no effect"
"ssfOUT_240_168_2_KINGCOBRA.40",15.7203293303445,-3113.91482417235,3145.35548283304,"ssf","mf.ss","exp","unif",500,"ssfOUT_240_168_2_KINGCOBRA","KINGCOBRA",2,0.00595238095238095,240,"no effect"
"ssfOUT_240_168_3_BADGER.1",-0.275922928237653,-1.47391409375978,0.922068237284476,"ssf","mf.is","gamma","vonmises",5,"ssfOUT_240_168_3_BADGER","BADGER",3,0.00595238095238095,240,"no effect"
"ssfOUT_240_168_3_BADGER.2",0.0150206912949271,-1.16660624853964,1.19664763112949,"ssf","mf.is","gamma","vonmises",15,"ssfOUT_240_168_3_BADGER","BADGER",3,0.00595238095238095,240,"no effect"
"ssfOUT_240_168_3_BADGER.3",-0.30474950732915,-1.37832062431877,0.768821609660467,"ssf","mf.is","gamma","vonmises",50,"ssfOUT_240_168_3_BADGER","BADGER",3,0.00595238095238095,240,"no effect"
"ssfOUT_240_168_3_BADGER.4",-0.11420530435033,-1.16641488767173,0.938004278971073,"ssf","mf.is","gamma","vonmises",158,"ssfOUT_240_168_3_BADGER","BADGER",3,0.00595238095238095,240,"no effect"
"ssfOUT_240_168_3_BADGER.5",-0.18790873572648,-1.23871272622995,0.862895254776989,"ssf","mf.is","gamma","vonmises",500,"ssfOUT_240_168_3_BADGER","BADGER",3,0.00595238095238095,240,"no effect"
"ssfOUT_240_168_3_BADGER.6",0.364631332398383,-0.81669929796154,1.54596196275831,"ssf","mf.is","gamma","unif",5,"ssfOUT_240_168_3_BADGER","BADGER",3,0.00595238095238095,240,"no effect"
"ssfOUT_240_168_3_BADGER.7",-0.258205772638606,-1.34619212943802,0.82978058416081,"ssf","mf.is","gamma","unif",15,"ssfOUT_240_168_3_BADGER","BADGER",3,0.00595238095238095,240,"no effect"
"ssfOUT_240_168_3_BADGER.8",-0.268054068339339,-1.32106258829233,0.784954451613654,"ssf","mf.is","gamma","unif",50,"ssfOUT_240_168_3_BADGER","BADGER",3,0.00595238095238095,240,"no effect"
"ssfOUT_240_168_3_BADGER.9",-0.177673095144293,-1.230049310226,0.874703119937414,"ssf","mf.is","gamma","unif",158,"ssfOUT_240_168_3_BADGER","BADGER",3,0.00595238095238095,240,"no effect"
"ssfOUT_240_168_3_BADGER.10",-0.172130347417443,-1.22219348499349,0.877932790158604,"ssf","mf.is","gamma","unif",500,"ssfOUT_240_168_3_BADGER","BADGER",3,0.00595238095238095,240,"no effect"
"ssfOUT_240_168_3_BADGER.11",1.27434354530832,-0.00840621428299348,2.55709330489963,"ssf","mf.is","exp","vonmises",5,"ssfOUT_240_168_3_BADGER","BADGER",3,0.00595238095238095,240,"no effect"
"ssfOUT_240_168_3_BADGER.12",-0.306236601507614,-1.43874836602227,0.826275163007041,"ssf","mf.is","exp","vonmises",15,"ssfOUT_240_168_3_BADGER","BADGER",3,0.00595238095238095,240,"no effect"
"ssfOUT_240_168_3_BADGER.13",0.0356828509987697,-1.03663384008647,1.10799954208401,"ssf","mf.is","exp","vonmises",50,"ssfOUT_240_168_3_BADGER","BADGER",3,0.00595238095238095,240,"no effect"
"ssfOUT_240_168_3_BADGER.14",-0.482392696659845,-1.53525978449357,0.570474391173883,"ssf","mf.is","exp","vonmises",158,"ssfOUT_240_168_3_BADGER","BADGER",3,0.00595238095238095,240,"no effect"
"ssfOUT_240_168_3_BADGER.15",-0.1986084521369,-1.24647274979478,0.849255845520975,"ssf","mf.is","exp","vonmises",500,"ssfOUT_240_168_3_BADGER","BADGER",3,0.00595238095238095,240,"no effect"
"ssfOUT_240_168_3_BADGER.16",0.293316689505465,-0.907880517578432,1.49451389658936,"ssf","mf.is","exp","unif",5,"ssfOUT_240_168_3_BADGER","BADGER",3,0.00595238095238095,240,"no effect"
"ssfOUT_240_168_3_BADGER.17",-0.274051283271127,-1.45054213690445,0.902439570362196,"ssf","mf.is","exp","unif",15,"ssfOUT_240_168_3_BADGER","BADGER",3,0.00595238095238095,240,"no effect"
"ssfOUT_240_168_3_BADGER.18",-0.259015941790271,-1.31721257606125,0.799180692480704,"ssf","mf.is","exp","unif",50,"ssfOUT_240_168_3_BADGER","BADGER",3,0.00595238095238095,240,"no effect"
"ssfOUT_240_168_3_BADGER.19",-0.218737414919637,-1.27413619235326,0.836661362513991,"ssf","mf.is","exp","unif",158,"ssfOUT_240_168_3_BADGER","BADGER",3,0.00595238095238095,240,"no effect"
"ssfOUT_240_168_3_BADGER.20",-0.146781494526017,-1.19636858480491,0.902805595752877,"ssf","mf.is","exp","unif",500,"ssfOUT_240_168_3_BADGER","BADGER",3,0.00595238095238095,240,"no effect"
"ssfOUT_240_168_3_BADGER.21",-0.199891015271858,-1.31645698144286,0.916674950899148,"ssf","mf.ss","gamma","vonmises",5,"ssfOUT_240_168_3_BADGER","BADGER",3,0.00595238095238095,240,"no effect"
"ssfOUT_240_168_3_BADGER.22",-0.558072509989016,-1.63391780348324,0.517772783505209,"ssf","mf.ss","gamma","vonmises",15,"ssfOUT_240_168_3_BADGER","BADGER",3,0.00595238095238095,240,"no effect"
"ssfOUT_240_168_3_BADGER.23",-0.474618211504859,-1.52001530305546,0.570778880045739,"ssf","mf.ss","gamma","vonmises",50,"ssfOUT_240_168_3_BADGER","BADGER",3,0.00595238095238095,240,"no effect"
"ssfOUT_240_168_3_BADGER.24",-0.250485988985419,-1.2924991914661,0.79152721349526,"ssf","mf.ss","gamma","vonmises",158,"ssfOUT_240_168_3_BADGER","BADGER",3,0.00595238095238095,240,"no effect"
"ssfOUT_240_168_3_BADGER.25",-0.272955901165697,-1.31261829343789,0.766706491106494,"ssf","mf.ss","gamma","vonmises",500,"ssfOUT_240_168_3_BADGER","BADGER",3,0.00595238095238095,240,"no effect"
"ssfOUT_240_168_3_BADGER.26",-0.142836400895087,-1.29355025762612,1.00787745583595,"ssf","mf.ss","gamma","unif",5,"ssfOUT_240_168_3_BADGER","BADGER",3,0.00595238095238095,240,"no effect"
"ssfOUT_240_168_3_BADGER.27",-0.327147226278357,-1.39008457205178,0.735790119495067,"ssf","mf.ss","gamma","unif",15,"ssfOUT_240_168_3_BADGER","BADGER",3,0.00595238095238095,240,"no effect"
"ssfOUT_240_168_3_BADGER.28",-0.161202250892796,-1.20752415877966,0.885119656994067,"ssf","mf.ss","gamma","unif",50,"ssfOUT_240_168_3_BADGER","BADGER",3,0.00595238095238095,240,"no effect"
"ssfOUT_240_168_3_BADGER.29",-0.162947288194824,-1.20708780087708,0.881193224487426,"ssf","mf.ss","gamma","unif",158,"ssfOUT_240_168_3_BADGER","BADGER",3,0.00595238095238095,240,"no effect"
"ssfOUT_240_168_3_BADGER.30",-0.184482163023012,-1.22587286904305,0.856908542997023,"ssf","mf.ss","gamma","unif",500,"ssfOUT_240_168_3_BADGER","BADGER",3,0.00595238095238095,240,"no effect"
"ssfOUT_240_168_3_BADGER.31",-0.17455069458219,-1.32163160548727,0.972530216322892,"ssf","mf.ss","exp","vonmises",5,"ssfOUT_240_168_3_BADGER","BADGER",3,0.00595238095238095,240,"no effect"
"ssfOUT_240_168_3_BADGER.32",0.131800099094393,-0.936739714651295,1.20033991284008,"ssf","mf.ss","exp","vonmises",15,"ssfOUT_240_168_3_BADGER","BADGER",3,0.00595238095238095,240,"no effect"
"ssfOUT_240_168_3_BADGER.33",-0.0337229411895648,-1.07986876541996,1.01242288304083,"ssf","mf.ss","exp","vonmises",50,"ssfOUT_240_168_3_BADGER","BADGER",3,0.00595238095238095,240,"no effect"
"ssfOUT_240_168_3_BADGER.34",-0.332937656944497,-1.38546934820277,0.719594034313775,"ssf","mf.ss","exp","vonmises",158,"ssfOUT_240_168_3_BADGER","BADGER",3,0.00595238095238095,240,"no effect"
"ssfOUT_240_168_3_BADGER.35",-0.173650811938791,-1.21575188432626,0.86845026044868,"ssf","mf.ss","exp","vonmises",500,"ssfOUT_240_168_3_BADGER","BADGER",3,0.00595238095238095,240,"no effect"
"ssfOUT_240_168_3_BADGER.36",0.115844468318348,-0.981819538499626,1.21350847513632,"ssf","mf.ss","exp","unif",5,"ssfOUT_240_168_3_BADGER","BADGER",3,0.00595238095238095,240,"no effect"
"ssfOUT_240_168_3_BADGER.37",-0.618300822380741,-1.7213057770715,0.484704132310022,"ssf","mf.ss","exp","unif",15,"ssfOUT_240_168_3_BADGER","BADGER",3,0.00595238095238095,240,"no effect"
"ssfOUT_240_168_3_BADGER.38",-0.317404139877877,-1.36494524600521,0.730136966249452,"ssf","mf.ss","exp","unif",50,"ssfOUT_240_168_3_BADGER","BADGER",3,0.00595238095238095,240,"no effect"
"ssfOUT_240_168_3_BADGER.39",-0.149438514738898,-1.19257377183559,0.893696742357794,"ssf","mf.ss","exp","unif",158,"ssfOUT_240_168_3_BADGER","BADGER",3,0.00595238095238095,240,"no effect"
"ssfOUT_240_168_3_BADGER.40",-0.162056155788994,-1.2059581183716,0.88184580679361,"ssf","mf.ss","exp","unif",500,"ssfOUT_240_168_3_BADGER","BADGER",3,0.00595238095238095,240,"no effect"
"ssfOUT_240_168_3_VULTURE.1",0.826285223974617,-0.257007121389392,1.90957756933863,"ssf","mf.is","gamma","vonmises",5,"ssfOUT_240_168_3_VULTURE","VULTURE",3,0.00595238095238095,240,"no effect"
"ssfOUT_240_168_3_VULTURE.2",0.360888534683489,-0.730466331390115,1.45224340075709,"ssf","mf.is","gamma","vonmises",15,"ssfOUT_240_168_3_VULTURE","VULTURE",3,0.00595238095238095,240,"no effect"
"ssfOUT_240_168_3_VULTURE.3",0.383339909386425,-0.669117619822634,1.43579743859548,"ssf","mf.is","gamma","vonmises",50,"ssfOUT_240_168_3_VULTURE","VULTURE",3,0.00595238095238095,240,"no effect"
"ssfOUT_240_168_3_VULTURE.4",0.322673162288271,-0.712966454488302,1.35831277906484,"ssf","mf.is","gamma","vonmises",158,"ssfOUT_240_168_3_VULTURE","VULTURE",3,0.00595238095238095,240,"no effect"
"ssfOUT_240_168_3_VULTURE.5",0.411003518212716,-0.621204023618591,1.44321106004402,"ssf","mf.is","gamma","vonmises",500,"ssfOUT_240_168_3_VULTURE","VULTURE",3,0.00595238095238095,240,"no effect"
"ssfOUT_240_168_3_VULTURE.6",0.0734415620142509,-1.40190065782194,1.54878378185045,"ssf","mf.is","gamma","unif",5,"ssfOUT_240_168_3_VULTURE","VULTURE",3,0.00595238095238095,240,"no effect"
"ssfOUT_240_168_3_VULTURE.7",0.261640436238831,-0.815650059891461,1.33893093236912,"ssf","mf.is","gamma","unif",15,"ssfOUT_240_168_3_VULTURE","VULTURE",3,0.00595238095238095,240,"no effect"
"ssfOUT_240_168_3_VULTURE.8",0.240944193971373,-0.80265915694353,1.28454754488628,"ssf","mf.is","gamma","unif",50,"ssfOUT_240_168_3_VULTURE","VULTURE",3,0.00595238095238095,240,"no effect"
"ssfOUT_240_168_3_VULTURE.9",0.250698734305129,-0.782148207360349,1.28354567597061,"ssf","mf.is","gamma","unif",158,"ssfOUT_240_168_3_VULTURE","VULTURE",3,0.00595238095238095,240,"no effect"
"ssfOUT_240_168_3_VULTURE.10",0.379553218283039,-0.652184307461256,1.41129074402733,"ssf","mf.is","gamma","unif",500,"ssfOUT_240_168_3_VULTURE","VULTURE",3,0.00595238095238095,240,"no effect"
"ssfOUT_240_168_3_VULTURE.11",-1.66684809094988,-3.05894358140328,-0.274752600496479,"ssf","mf.is","exp","vonmises",5,"ssfOUT_240_168_3_VULTURE","VULTURE",3,0.00595238095238095,240,"avoidance"
"ssfOUT_240_168_3_VULTURE.12",-0.520116994136452,-1.63725106515095,0.597017076878049,"ssf","mf.is","exp","vonmises",15,"ssfOUT_240_168_3_VULTURE","VULTURE",3,0.00595238095238095,240,"no effect"
"ssfOUT_240_168_3_VULTURE.13",0.209018046930185,-0.853386856418383,1.27142295027875,"ssf","mf.is","exp","vonmises",50,"ssfOUT_240_168_3_VULTURE","VULTURE",3,0.00595238095238095,240,"no effect"
"ssfOUT_240_168_3_VULTURE.14",0.566582755656054,-0.473498685988551,1.60666419730066,"ssf","mf.is","exp","vonmises",158,"ssfOUT_240_168_3_VULTURE","VULTURE",3,0.00595238095238095,240,"no effect"
"ssfOUT_240_168_3_VULTURE.15",0.476295912890274,-0.555571480430253,1.5081633062108,"ssf","mf.is","exp","vonmises",500,"ssfOUT_240_168_3_VULTURE","VULTURE",3,0.00595238095238095,240,"no effect"
"ssfOUT_240_168_3_VULTURE.16",0.486089086048595,-0.719556911527556,1.69173508362475,"ssf","mf.is","exp","unif",5,"ssfOUT_240_168_3_VULTURE","VULTURE",3,0.00595238095238095,240,"no effect"
"ssfOUT_240_168_3_VULTURE.17",0.224307878935538,-0.893720494701084,1.34233625257216,"ssf","mf.is","exp","unif",15,"ssfOUT_240_168_3_VULTURE","VULTURE",3,0.00595238095238095,240,"no effect"
"ssfOUT_240_168_3_VULTURE.18",0.597578449072005,-0.447684346962856,1.64284124510687,"ssf","mf.is","exp","unif",50,"ssfOUT_240_168_3_VULTURE","VULTURE",3,0.00595238095238095,240,"no effect"
"ssfOUT_240_168_3_VULTURE.19",0.482634668163819,-0.555325314188152,1.52059465051579,"ssf","mf.is","exp","unif",158,"ssfOUT_240_168_3_VULTURE","VULTURE",3,0.00595238095238095,240,"no effect"
"ssfOUT_240_168_3_VULTURE.20",0.244000572813863,-0.786849095891982,1.27485024151971,"ssf","mf.is","exp","unif",500,"ssfOUT_240_168_3_VULTURE","VULTURE",3,0.00595238095238095,240,"no effect"
"ssfOUT_240_168_3_VULTURE.21",0.400913947574904,-0.440302429492831,1.24213032464264,"ssf","mf.ss","gamma","vonmises",5,"ssfOUT_240_168_3_VULTURE","VULTURE",3,0.00595238095238095,240,"no effect"
"ssfOUT_240_168_3_VULTURE.22",-0.435421464469951,-1.23181339902284,0.360970470082934,"ssf","mf.ss","gamma","vonmises",15,"ssfOUT_240_168_3_VULTURE","VULTURE",3,0.00595238095238095,240,"no effect"
"ssfOUT_240_168_3_VULTURE.23",-0.548448545272615,-1.31306938321335,0.216172292668116,"ssf","mf.ss","gamma","vonmises",50,"ssfOUT_240_168_3_VULTURE","VULTURE",3,0.00595238095238095,240,"no effect"
"ssfOUT_240_168_3_VULTURE.24",-0.55538449230261,-1.30470788389139,0.193938899286168,"ssf","mf.ss","gamma","vonmises",158,"ssfOUT_240_168_3_VULTURE","VULTURE",3,0.00595238095238095,240,"no effect"
"ssfOUT_240_168_3_VULTURE.25",-0.474575171323577,-1.22167827499413,0.27252793234698,"ssf","mf.ss","gamma","vonmises",500,"ssfOUT_240_168_3_VULTURE","VULTURE",3,0.00595238095238095,240,"no effect"
"ssfOUT_240_168_3_VULTURE.26",-0.747992040615838,-1.84982214389857,0.353838062666892,"ssf","mf.ss","gamma","unif",5,"ssfOUT_240_168_3_VULTURE","VULTURE",3,0.00595238095238095,240,"no effect"
"ssfOUT_240_168_3_VULTURE.27",-0.572698689846473,-1.36126812818246,0.215870748489509,"ssf","mf.ss","gamma","unif",15,"ssfOUT_240_168_3_VULTURE","VULTURE",3,0.00595238095238095,240,"no effect"
"ssfOUT_240_168_3_VULTURE.28",-0.582693801106012,-1.34591966993579,0.180532067723765,"ssf","mf.ss","gamma","unif",50,"ssfOUT_240_168_3_VULTURE","VULTURE",3,0.00595238095238095,240,"no effect"
"ssfOUT_240_168_3_VULTURE.29",-0.490138766247726,-1.23972483667903,0.259447304183575,"ssf","mf.ss","gamma","unif",158,"ssfOUT_240_168_3_VULTURE","VULTURE",3,0.00595238095238095,240,"no effect"
"ssfOUT_240_168_3_VULTURE.30",-0.442880392170729,-1.1897493224514,0.303988538109946,"ssf","mf.ss","gamma","unif",500,"ssfOUT_240_168_3_VULTURE","VULTURE",3,0.00595238095238095,240,"no effect"
"ssfOUT_240_168_3_VULTURE.31",-0.841662467791888,-1.71663539412889,0.0333104585451176,"ssf","mf.ss","exp","vonmises",5,"ssfOUT_240_168_3_VULTURE","VULTURE",3,0.00595238095238095,240,"no effect"
"ssfOUT_240_168_3_VULTURE.32",-0.533531276705152,-1.33102552389981,0.263962970489511,"ssf","mf.ss","exp","vonmises",15,"ssfOUT_240_168_3_VULTURE","VULTURE",3,0.00595238095238095,240,"no effect"
"ssfOUT_240_168_3_VULTURE.33",-0.530212673745127,-1.29607881313443,0.235653465644173,"ssf","mf.ss","exp","vonmises",50,"ssfOUT_240_168_3_VULTURE","VULTURE",3,0.00595238095238095,240,"no effect"
"ssfOUT_240_168_3_VULTURE.34",-0.280578352188377,-1.04004378700387,0.478887082627117,"ssf","mf.ss","exp","vonmises",158,"ssfOUT_240_168_3_VULTURE","VULTURE",3,0.00595238095238095,240,"no effect"
"ssfOUT_240_168_3_VULTURE.35",-0.404686779601796,-1.15986094786977,0.350487388666174,"ssf","mf.ss","exp","vonmises",500,"ssfOUT_240_168_3_VULTURE","VULTURE",3,0.00595238095238095,240,"no effect"
"ssfOUT_240_168_3_VULTURE.36",-0.667484998622409,-1.54938478596894,0.214414788724122,"ssf","mf.ss","exp","unif",5,"ssfOUT_240_168_3_VULTURE","VULTURE",3,0.00595238095238095,240,"no effect"
"ssfOUT_240_168_3_VULTURE.37",-0.424934704869308,-1.21303850082719,0.363169091088574,"ssf","mf.ss","exp","unif",15,"ssfOUT_240_168_3_VULTURE","VULTURE",3,0.00595238095238095,240,"no effect"
"ssfOUT_240_168_3_VULTURE.38",-0.138056295786942,-0.904306403726038,0.628193812152154,"ssf","mf.ss","exp","unif",50,"ssfOUT_240_168_3_VULTURE","VULTURE",3,0.00595238095238095,240,"no effect"
"ssfOUT_240_168_3_VULTURE.39",-0.339414089164607,-1.0991763147004,0.420348136371186,"ssf","mf.ss","exp","unif",158,"ssfOUT_240_168_3_VULTURE","VULTURE",3,0.00595238095238095,240,"no effect"
"ssfOUT_240_168_3_VULTURE.40",-0.355303687402735,-1.11613445041948,0.405527075614007,"ssf","mf.ss","exp","unif",500,"ssfOUT_240_168_3_VULTURE","VULTURE",3,0.00595238095238095,240,"no effect"
"ssfOUT_240_168_3_KINGCOBRA.1",-2.03632740426786,-3.5305397504311,-0.54211505810462,"ssf","mf.is","gamma","vonmises",5,"ssfOUT_240_168_3_KINGCOBRA","KINGCOBRA",3,0.00595238095238095,240,"avoidance"
"ssfOUT_240_168_3_KINGCOBRA.2",-1.17856610686047,-2.39810824585608,0.0409760321351316,"ssf","mf.is","gamma","vonmises",15,"ssfOUT_240_168_3_KINGCOBRA","KINGCOBRA",3,0.00595238095238095,240,"no effect"
"ssfOUT_240_168_3_KINGCOBRA.3",-0.855238651131664,-1.95375407360208,0.243276771338754,"ssf","mf.is","gamma","vonmises",50,"ssfOUT_240_168_3_KINGCOBRA","KINGCOBRA",3,0.00595238095238095,240,"no effect"
"ssfOUT_240_168_3_KINGCOBRA.4",-0.461592249482059,-1.52400903392513,0.600824534961011,"ssf","mf.is","gamma","vonmises",158,"ssfOUT_240_168_3_KINGCOBRA","KINGCOBRA",3,0.00595238095238095,240,"no effect"
"ssfOUT_240_168_3_KINGCOBRA.5",-0.417052085235947,-1.46839386042258,0.634289689950681,"ssf","mf.is","gamma","vonmises",500,"ssfOUT_240_168_3_KINGCOBRA","KINGCOBRA",3,0.00595238095238095,240,"no effect"
"ssfOUT_240_168_3_KINGCOBRA.6",-0.6912963314888,-1.93667380868003,0.554081145702429,"ssf","mf.is","gamma","unif",5,"ssfOUT_240_168_3_KINGCOBRA","KINGCOBRA",3,0.00595238095238095,240,"no effect"
"ssfOUT_240_168_3_KINGCOBRA.7",-0.813530961882513,-1.96272771775356,0.335665793988536,"ssf","mf.is","gamma","unif",15,"ssfOUT_240_168_3_KINGCOBRA","KINGCOBRA",3,0.00595238095238095,240,"no effect"
"ssfOUT_240_168_3_KINGCOBRA.8",-0.640487537492464,-1.70578500443243,0.424809929447498,"ssf","mf.is","gamma","unif",50,"ssfOUT_240_168_3_KINGCOBRA","KINGCOBRA",3,0.00595238095238095,240,"no effect"
"ssfOUT_240_168_3_KINGCOBRA.9",-0.480527973466238,-1.53166433836097,0.570608391428499,"ssf","mf.is","gamma","unif",158,"ssfOUT_240_168_3_KINGCOBRA","KINGCOBRA",3,0.00595238095238095,240,"no effect"
"ssfOUT_240_168_3_KINGCOBRA.10",-0.56132872947188,-1.60724229463044,0.484584835686677,"ssf","mf.is","gamma","unif",500,"ssfOUT_240_168_3_KINGCOBRA","KINGCOBRA",3,0.00595238095238095,240,"no effect"
"ssfOUT_240_168_3_KINGCOBRA.11",-1.28236775559598,-2.70046664015513,0.135731128963164,"ssf","mf.is","exp","vonmises",5,"ssfOUT_240_168_3_KINGCOBRA","KINGCOBRA",3,0.00595238095238095,240,"no effect"
"ssfOUT_240_168_3_KINGCOBRA.12",-3.39920713180634,-4.90892107569292,-1.88949318791976,"ssf","mf.is","exp","vonmises",15,"ssfOUT_240_168_3_KINGCOBRA","KINGCOBRA",3,0.00595238095238095,240,"avoidance"
"ssfOUT_240_168_3_KINGCOBRA.13",-1.55350831690219,-2.71086513416819,-0.396151499636182,"ssf","mf.is","exp","vonmises",50,"ssfOUT_240_168_3_KINGCOBRA","KINGCOBRA",3,0.00595238095238095,240,"avoidance"
"ssfOUT_240_168_3_KINGCOBRA.14",-0.761619995109124,-1.82433599771116,0.301096007492914,"ssf","mf.is","exp","vonmises",158,"ssfOUT_240_168_3_KINGCOBRA","KINGCOBRA",3,0.00595238095238095,240,"no effect"
"ssfOUT_240_168_3_KINGCOBRA.15",-0.530631660481788,-1.57301064429727,0.511747323333695,"ssf","mf.is","exp","vonmises",500,"ssfOUT_240_168_3_KINGCOBRA","KINGCOBRA",3,0.00595238095238095,240,"no effect"
"ssfOUT_240_168_3_KINGCOBRA.16",-0.139833437632728,-1.42523771473046,1.145570839465,"ssf","mf.is","exp","unif",5,"ssfOUT_240_168_3_KINGCOBRA","KINGCOBRA",3,0.00595238095238095,240,"no effect"
"ssfOUT_240_168_3_KINGCOBRA.17",-0.406117237234226,-1.53240813697263,0.720173662504178,"ssf","mf.is","exp","unif",15,"ssfOUT_240_168_3_KINGCOBRA","KINGCOBRA",3,0.00595238095238095,240,"no effect"
"ssfOUT_240_168_3_KINGCOBRA.18",-0.925919734213881,-2.01718784963711,0.16534838120935,"ssf","mf.is","exp","unif",50,"ssfOUT_240_168_3_KINGCOBRA","KINGCOBRA",3,0.00595238095238095,240,"no effect"
"ssfOUT_240_168_3_KINGCOBRA.19",-0.729024539905105,-1.77885524066623,0.320806160856016,"ssf","mf.is","exp","unif",158,"ssfOUT_240_168_3_KINGCOBRA","KINGCOBRA",3,0.00595238095238095,240,"no effect"
"ssfOUT_240_168_3_KINGCOBRA.20",-0.501817514837789,-1.54433157397885,0.540696544303273,"ssf","mf.is","exp","unif",500,"ssfOUT_240_168_3_KINGCOBRA","KINGCOBRA",3,0.00595238095238095,240,"no effect"
"ssfOUT_240_168_3_KINGCOBRA.21",-1.45223486316719,-2.87359271197964,-0.0308770143547277,"ssf","mf.ss","gamma","vonmises",5,"ssfOUT_240_168_3_KINGCOBRA","KINGCOBRA",3,0.00595238095238095,240,"avoidance"
"ssfOUT_240_168_3_KINGCOBRA.22",-0.96383554369978,-2.06657151094124,0.138900423541679,"ssf","mf.ss","gamma","vonmises",15,"ssfOUT_240_168_3_KINGCOBRA","KINGCOBRA",3,0.00595238095238095,240,"no effect"
"ssfOUT_240_168_3_KINGCOBRA.23",-0.855047589996871,-1.90838175857054,0.198286578576795,"ssf","mf.ss","gamma","vonmises",50,"ssfOUT_240_168_3_KINGCOBRA","KINGCOBRA",3,0.00595238095238095,240,"no effect"
"ssfOUT_240_168_3_KINGCOBRA.24",-0.86741824678817,-1.90524212074931,0.170405627172968,"ssf","mf.ss","gamma","vonmises",158,"ssfOUT_240_168_3_KINGCOBRA","KINGCOBRA",3,0.00595238095238095,240,"no effect"
"ssfOUT_240_168_3_KINGCOBRA.25",-0.74273752793356,-1.78027983721664,0.294804781349523,"ssf","mf.ss","gamma","vonmises",500,"ssfOUT_240_168_3_KINGCOBRA","KINGCOBRA",3,0.00595238095238095,240,"no effect"
"ssfOUT_240_168_3_KINGCOBRA.26",0.0505576884160106,-1.08133116415988,1.1824465409919,"ssf","mf.ss","gamma","unif",5,"ssfOUT_240_168_3_KINGCOBRA","KINGCOBRA",3,0.00595238095238095,240,"no effect"
"ssfOUT_240_168_3_KINGCOBRA.27",-0.928899897347337,-2.02991030116562,0.172110506470942,"ssf","mf.ss","gamma","unif",15,"ssfOUT_240_168_3_KINGCOBRA","KINGCOBRA",3,0.00595238095238095,240,"no effect"
"ssfOUT_240_168_3_KINGCOBRA.28",-0.775300270781446,-1.82314366794276,0.272543126379868,"ssf","mf.ss","gamma","unif",50,"ssfOUT_240_168_3_KINGCOBRA","KINGCOBRA",3,0.00595238095238095,240,"no effect"
"ssfOUT_240_168_3_KINGCOBRA.29",-0.68142440397639,-1.72429550870641,0.36144670075363,"ssf","mf.ss","gamma","unif",158,"ssfOUT_240_168_3_KINGCOBRA","KINGCOBRA",3,0.00595238095238095,240,"no effect"
"ssfOUT_240_168_3_KINGCOBRA.30",-0.731567868721583,-1.76482596422695,0.30169022678378,"ssf","mf.ss","gamma","unif",500,"ssfOUT_240_168_3_KINGCOBRA","KINGCOBRA",3,0.00595238095238095,240,"no effect"
"ssfOUT_240_168_3_KINGCOBRA.31",-0.616467015080791,-1.86640662448412,0.633472594322534,"ssf","mf.ss","exp","vonmises",5,"ssfOUT_240_168_3_KINGCOBRA","KINGCOBRA",3,0.00595238095238095,240,"no effect"
"ssfOUT_240_168_3_KINGCOBRA.32",-1.59812816101179,-2.84618507742027,-0.350071244603312,"ssf","mf.ss","exp","vonmises",15,"ssfOUT_240_168_3_KINGCOBRA","KINGCOBRA",3,0.00595238095238095,240,"avoidance"
"ssfOUT_240_168_3_KINGCOBRA.33",-1.08925678121979,-2.14845208948257,-0.0300614729570077,"ssf","mf.ss","exp","vonmises",50,"ssfOUT_240_168_3_KINGCOBRA","KINGCOBRA",3,0.00595238095238095,240,"avoidance"
"ssfOUT_240_168_3_KINGCOBRA.34",-0.756761906035842,-1.79338199901787,0.279858186946188,"ssf","mf.ss","exp","vonmises",158,"ssfOUT_240_168_3_KINGCOBRA","KINGCOBRA",3,0.00595238095238095,240,"no effect"
"ssfOUT_240_168_3_KINGCOBRA.35",-0.824628488127251,-1.85927953899379,0.210022562739283,"ssf","mf.ss","exp","vonmises",500,"ssfOUT_240_168_3_KINGCOBRA","KINGCOBRA",3,0.00595238095238095,240,"no effect"
"ssfOUT_240_168_3_KINGCOBRA.36",-0.285423160497088,-1.54517874046371,0.974332419469533,"ssf","mf.ss","exp","unif",5,"ssfOUT_240_168_3_KINGCOBRA","KINGCOBRA",3,0.00595238095238095,240,"no effect"
"ssfOUT_240_168_3_KINGCOBRA.37",-0.693659052890917,-1.78194099294726,0.394622887165423,"ssf","mf.ss","exp","unif",15,"ssfOUT_240_168_3_KINGCOBRA","KINGCOBRA",3,0.00595238095238095,240,"no effect"
"ssfOUT_240_168_3_KINGCOBRA.38",-0.816054614945937,-1.87662561519867,0.244516385306797,"ssf","mf.ss","exp","unif",50,"ssfOUT_240_168_3_KINGCOBRA","KINGCOBRA",3,0.00595238095238095,240,"no effect"
"ssfOUT_240_168_3_KINGCOBRA.39",-0.87947053600966,-1.91772822368003,0.158787151660706,"ssf","mf.ss","exp","unif",158,"ssfOUT_240_168_3_KINGCOBRA","KINGCOBRA",3,0.00595238095238095,240,"no effect"
"ssfOUT_240_168_3_KINGCOBRA.40",-0.660754059812761,-1.69125362658891,0.369745506963385,"ssf","mf.ss","exp","unif",500,"ssfOUT_240_168_3_KINGCOBRA","KINGCOBRA",3,0.00595238095238095,240,"no effect"
"ssfOUT_240_168_4_BADGER.1",18.0771018563226,-8779.07217914209,8815.22638285474,"ssf","mf.is","gamma","vonmises",5,"ssfOUT_240_168_4_BADGER","BADGER",4,0.00595238095238095,240,"no effect"
"ssfOUT_240_168_4_BADGER.2",16.9486114266993,-6590.74534144242,6624.64256429582,"ssf","mf.is","gamma","vonmises",15,"ssfOUT_240_168_4_BADGER","BADGER",4,0.00595238095238095,240,"no effect"
"ssfOUT_240_168_4_BADGER.3",16.8087411472317,-6147.66340749091,6181.28088978537,"ssf","mf.is","gamma","vonmises",50,"ssfOUT_240_168_4_BADGER","BADGER",4,0.00595238095238095,240,"no effect"
"ssfOUT_240_168_4_BADGER.4",16.7811112126036,-5220.77357411611,5254.33579654131,"ssf","mf.is","gamma","vonmises",158,"ssfOUT_240_168_4_BADGER","BADGER",4,0.00595238095238095,240,"no effect"
"ssfOUT_240_168_4_BADGER.5",15.7123110988525,-3437.0747744573,3468.499396655,"ssf","mf.is","gamma","vonmises",500,"ssfOUT_240_168_4_BADGER","BADGER",4,0.00595238095238095,240,"no effect"
"ssfOUT_240_168_4_BADGER.6",18.1079799864952,-8392.23308944607,8428.44904941906,"ssf","mf.is","gamma","unif",5,"ssfOUT_240_168_4_BADGER","BADGER",4,0.00595238095238095,240,"no effect"
"ssfOUT_240_168_4_BADGER.7",16.7925491912912,-5414.27827996782,5447.8633783504,"ssf","mf.is","gamma","unif",15,"ssfOUT_240_168_4_BADGER","BADGER",4,0.00595238095238095,240,"no effect"
"ssfOUT_240_168_4_BADGER.8",15.6061585407716,-3847.54429783036,3878.75661491191,"ssf","mf.is","gamma","unif",50,"ssfOUT_240_168_4_BADGER","BADGER",4,0.00595238095238095,240,"no effect"
"ssfOUT_240_168_4_BADGER.9",16.7905726009597,-5426.82066049499,5460.40180569691,"ssf","mf.is","gamma","unif",158,"ssfOUT_240_168_4_BADGER","BADGER",4,0.00595238095238095,240,"no effect"
"ssfOUT_240_168_4_BADGER.10",15.7298888476808,-3340.04647358134,3371.5062512767,"ssf","mf.is","gamma","unif",500,"ssfOUT_240_168_4_BADGER","BADGER",4,0.00595238095238095,240,"no effect"
"ssfOUT_240_168_4_BADGER.11",-0.173980165901197,-0.667366813743616,0.319406481941221,"ssf","mf.is","exp","vonmises",5,"ssfOUT_240_168_4_BADGER","BADGER",4,0.00595238095238095,240,"no effect"
"ssfOUT_240_168_4_BADGER.12",17.0109678290763,-8630.9029514313,8664.92488708945,"ssf","mf.is","exp","vonmises",15,"ssfOUT_240_168_4_BADGER","BADGER",4,0.00595238095238095,240,"no effect"
"ssfOUT_240_168_4_BADGER.13",17.0134049705987,-5646.50711755908,5680.53392750028,"ssf","mf.is","exp","vonmises",50,"ssfOUT_240_168_4_BADGER","BADGER",4,0.00595238095238095,240,"no effect"
"ssfOUT_240_168_4_BADGER.14",16.0080176974036,-3895.56772960848,3927.58376500329,"ssf","mf.is","exp","vonmises",158,"ssfOUT_240_168_4_BADGER","BADGER",4,0.00595238095238095,240,"no effect"
"ssfOUT_240_168_4_BADGER.15",15.9227314431763,-3588.24647029572,3620.09193318207,"ssf","mf.is","exp","vonmises",500,"ssfOUT_240_168_4_BADGER","BADGER",4,0.00595238095238095,240,"no effect"
"ssfOUT_240_168_4_BADGER.16",17.2141958738625,-9777.0067402799,9811.43513202763,"ssf","mf.is","exp","unif",5,"ssfOUT_240_168_4_BADGER","BADGER",4,0.00595238095238095,240,"no effect"
"ssfOUT_240_168_4_BADGER.17",17.1017428472616,-6844.50914001375,6878.71262570827,"ssf","mf.is","exp","unif",15,"ssfOUT_240_168_4_BADGER","BADGER",4,0.00595238095238095,240,"no effect"
"ssfOUT_240_168_4_BADGER.18",16.8021060160439,-6096.40346158866,6130.00767362074,"ssf","mf.is","exp","unif",50,"ssfOUT_240_168_4_BADGER","BADGER",4,0.00595238095238095,240,"no effect"
"ssfOUT_240_168_4_BADGER.19",16.729308750666,-5612.84492294817,5646.3035404495,"ssf","mf.is","exp","unif",158,"ssfOUT_240_168_4_BADGER","BADGER",4,0.00595238095238095,240,"no effect"
"ssfOUT_240_168_4_BADGER.20",15.7944646622841,-3405.66812876022,3437.25705808478,"ssf","mf.is","exp","unif",500,"ssfOUT_240_168_4_BADGER","BADGER",4,0.00595238095238095,240,"no effect"
"ssfOUT_240_168_4_BADGER.21",18.3775875541044,-8554.07212886453,8590.82730397274,"ssf","mf.ss","gamma","vonmises",5,"ssfOUT_240_168_4_BADGER","BADGER",4,0.00595238095238095,240,"no effect"
"ssfOUT_240_168_4_BADGER.22",17.0488241129524,-4639.25837561915,4673.35602384506,"ssf","mf.ss","gamma","vonmises",15,"ssfOUT_240_168_4_BADGER","BADGER",4,0.00595238095238095,240,"no effect"
"ssfOUT_240_168_4_BADGER.23",17.0437615731196,-5432.55205697776,5466.639580124,"ssf","mf.ss","gamma","vonmises",50,"ssfOUT_240_168_4_BADGER","BADGER",4,0.00595238095238095,240,"no effect"
"ssfOUT_240_168_4_BADGER.24",16.9820418767955,-4921.22998984602,4955.19407359961,"ssf","mf.ss","gamma","vonmises",158,"ssfOUT_240_168_4_BADGER","BADGER",4,0.00595238095238095,240,"no effect"
"ssfOUT_240_168_4_BADGER.25",15.9779073440295,-3212.72144899735,3244.67726368541,"ssf","mf.ss","gamma","vonmises",500,"ssfOUT_240_168_4_BADGER","BADGER",4,0.00595238095238095,240,"no effect"
"ssfOUT_240_168_4_BADGER.26",18.3250258860619,-7515.73927735807,7552.38932913019,"ssf","mf.ss","gamma","unif",5,"ssfOUT_240_168_4_BADGER","BADGER",4,0.00595238095238095,240,"no effect"
"ssfOUT_240_168_4_BADGER.27",16.9476491252092,-5210.08278506531,5243.97808331573,"ssf","mf.ss","gamma","unif",15,"ssfOUT_240_168_4_BADGER","BADGER",4,0.00595238095238095,240,"no effect"
"ssfOUT_240_168_4_BADGER.28",15.8977687224417,-3754.8226626065,3786.61820005139,"ssf","mf.ss","gamma","unif",50,"ssfOUT_240_168_4_BADGER","BADGER",4,0.00595238095238095,240,"no effect"
"ssfOUT_240_168_4_BADGER.29",15.9455887163009,-3246.03076690019,3277.92194433279,"ssf","mf.ss","gamma","unif",158,"ssfOUT_240_168_4_BADGER","BADGER",4,0.00595238095238095,240,"no effect"
"ssfOUT_240_168_4_BADGER.30",15.9547630022841,-3310.35969527743,3342.269221282,"ssf","mf.ss","gamma","unif",500,"ssfOUT_240_168_4_BADGER","BADGER",4,0.00595238095238095,240,"no effect"
"ssfOUT_240_168_4_BADGER.31",0.0902034668663713,-0.276306038935433,0.456712972668175,"ssf","mf.ss","exp","vonmises",5,"ssfOUT_240_168_4_BADGER","BADGER",4,0.00595238095238095,240,"no effect"
"ssfOUT_240_168_4_BADGER.32",17.0887102586769,-6319.27856826641,6353.45598878376,"ssf","mf.ss","exp","vonmises",15,"ssfOUT_240_168_4_BADGER","BADGER",4,0.00595238095238095,240,"no effect"
"ssfOUT_240_168_4_BADGER.33",17.0130068653212,-5559.78742216054,5593.81343589119,"ssf","mf.ss","exp","vonmises",50,"ssfOUT_240_168_4_BADGER","BADGER",4,0.00595238095238095,240,"no effect"
"ssfOUT_240_168_4_BADGER.34",15.9550303755403,-3360.76587794565,3392.67593869673,"ssf","mf.ss","exp","vonmises",158,"ssfOUT_240_168_4_BADGER","BADGER",4,0.00595238095238095,240,"no effect"
"ssfOUT_240_168_4_BADGER.35",15.9703828309299,-3289.50069551418,3321.44146117604,"ssf","mf.ss","exp","vonmises",500,"ssfOUT_240_168_4_BADGER","BADGER",4,0.00595238095238095,240,"no effect"
"ssfOUT_240_168_4_BADGER.36",17.1764003710658,-5680.71088225496,5715.06368299709,"ssf","mf.ss","exp","unif",5,"ssfOUT_240_168_4_BADGER","BADGER",4,0.00595238095238095,240,"no effect"
"ssfOUT_240_168_4_BADGER.37",16.0428133451622,-4648.96771452948,4681.05334121981,"ssf","mf.ss","exp","unif",15,"ssfOUT_240_168_4_BADGER","BADGER",4,0.00595238095238095,240,"no effect"
"ssfOUT_240_168_4_BADGER.38",16.986050771898,-5756.62674074847,5790.59884229226,"ssf","mf.ss","exp","unif",50,"ssfOUT_240_168_4_BADGER","BADGER",4,0.00595238095238095,240,"no effect"
"ssfOUT_240_168_4_BADGER.39",15.9879756988406,-3202.84835629284,3234.82430769052,"ssf","mf.ss","exp","unif",158,"ssfOUT_240_168_4_BADGER","BADGER",4,0.00595238095238095,240,"no effect"
"ssfOUT_240_168_4_BADGER.40",15.9568808683705,-3245.89067516394,3277.80443690068,"ssf","mf.ss","exp","unif",500,"ssfOUT_240_168_4_BADGER","BADGER",4,0.00595238095238095,240,"no effect"
"ssfOUT_240_168_4_VULTURE.1",17.3697502269542,-10458.4245713864,10493.1640718403,"ssf","mf.is","gamma","vonmises",5,"ssfOUT_240_168_4_VULTURE","VULTURE",4,0.00595238095238095,240,"no effect"
"ssfOUT_240_168_4_VULTURE.2",17.0641746660119,-5611.7920505964,5645.92039992843,"ssf","mf.is","gamma","vonmises",15,"ssfOUT_240_168_4_VULTURE","VULTURE",4,0.00595238095238095,240,"no effect"
"ssfOUT_240_168_4_VULTURE.3",17.0145264204565,-5029.17333590135,5063.20238874227,"ssf","mf.is","gamma","vonmises",50,"ssfOUT_240_168_4_VULTURE","VULTURE",4,0.00595238095238095,240,"no effect"
"ssfOUT_240_168_4_VULTURE.4",17.030605208151,-4596.41016379474,4630.47137421104,"ssf","mf.is","gamma","vonmises",158,"ssfOUT_240_168_4_VULTURE","VULTURE",4,0.00595238095238095,240,"no effect"
"ssfOUT_240_168_4_VULTURE.5",17.0896431861833,-4936.63581677715,4970.81510314951,"ssf","mf.is","gamma","vonmises",500,"ssfOUT_240_168_4_VULTURE","VULTURE",4,0.00595238095238095,240,"no effect"
"ssfOUT_240_168_4_VULTURE.6",16.8456708169216,-7404.32546821087,7438.01680984471,"ssf","mf.is","gamma","unif",5,"ssfOUT_240_168_4_VULTURE","VULTURE",4,0.00595238095238095,240,"no effect"
"ssfOUT_240_168_4_VULTURE.7",18.6517448923984,-7645.14451791632,7682.44800770112,"ssf","mf.is","gamma","unif",15,"ssfOUT_240_168_4_VULTURE","VULTURE",4,0.00595238095238095,240,"no effect"
"ssfOUT_240_168_4_VULTURE.8",17.1831922878175,-4951.07061418946,4985.4369987651,"ssf","mf.is","gamma","unif",50,"ssfOUT_240_168_4_VULTURE","VULTURE",4,0.00595238095238095,240,"no effect"
"ssfOUT_240_168_4_VULTURE.9",17.1274763394795,-4941.5375799729,4975.79253265186,"ssf","mf.is","gamma","unif",158,"ssfOUT_240_168_4_VULTURE","VULTURE",4,0.00595238095238095,240,"no effect"
"ssfOUT_240_168_4_VULTURE.10",17.1262303301286,-4807.59469427227,4841.84715493253,"ssf","mf.is","gamma","unif",500,"ssfOUT_240_168_4_VULTURE","VULTURE",4,0.00595238095238095,240,"no effect"
"ssfOUT_240_168_4_VULTURE.11",19.8080253772967,-10429.5270254149,10469.1430761695,"ssf","mf.is","exp","vonmises",5,"ssfOUT_240_168_4_VULTURE","VULTURE",4,0.00595238095238095,240,"no effect"
"ssfOUT_240_168_4_VULTURE.12",19.3259521647629,-8063.42157262446,8102.07347695399,"ssf","mf.is","exp","vonmises",15,"ssfOUT_240_168_4_VULTURE","VULTURE",4,0.00595238095238095,240,"no effect"
"ssfOUT_240_168_4_VULTURE.13",17.6080858177999,-5133.77139251418,5168.98756414978,"ssf","mf.is","exp","vonmises",50,"ssfOUT_240_168_4_VULTURE","VULTURE",4,0.00595238095238095,240,"no effect"
"ssfOUT_240_168_4_VULTURE.14",17.0467794057192,-5155.81068874163,5189.90424755307,"ssf","mf.is","exp","vonmises",158,"ssfOUT_240_168_4_VULTURE","VULTURE",4,0.00595238095238095,240,"no effect"
"ssfOUT_240_168_4_VULTURE.15",17.1205454013563,-5115.59337732037,5149.83446812308,"ssf","mf.is","exp","vonmises",500,"ssfOUT_240_168_4_VULTURE","VULTURE",4,0.00595238095238095,240,"no effect"
"ssfOUT_240_168_4_VULTURE.16",18.1413527297507,-8476.08057038326,8512.36327584276,"ssf","mf.is","exp","unif",5,"ssfOUT_240_168_4_VULTURE","VULTURE",4,0.00595238095238095,240,"no effect"
"ssfOUT_240_168_4_VULTURE.17",17.3449265802055,-6067.95512035807,6102.64497351848,"ssf","mf.is","exp","unif",15,"ssfOUT_240_168_4_VULTURE","VULTURE",4,0.00595238095238095,240,"no effect"
"ssfOUT_240_168_4_VULTURE.18",17.1754354296307,-5058.03645594241,5092.38732680167,"ssf","mf.is","exp","unif",50,"ssfOUT_240_168_4_VULTURE","VULTURE",4,0.00595238095238095,240,"no effect"
"ssfOUT_240_168_4_VULTURE.19",17.3427164056121,-5130.62412561259,5165.30955842382,"ssf","mf.is","exp","unif",158,"ssfOUT_240_168_4_VULTURE","VULTURE",4,0.00595238095238095,240,"no effect"
"ssfOUT_240_168_4_VULTURE.20",17.2173838083179,-5100.35369481935,5134.78846243598,"ssf","mf.is","exp","unif",500,"ssfOUT_240_168_4_VULTURE","VULTURE",4,0.00595238095238095,240,"no effect"
"ssfOUT_240_168_4_VULTURE.21",16.3553491271838,-5442.45557193362,5475.16627018798,"ssf","mf.ss","gamma","vonmises",5,"ssfOUT_240_168_4_VULTURE","VULTURE",4,0.00595238095238095,240,"no effect"
"ssfOUT_240_168_4_VULTURE.22",17.0480069526763,-5008.95255622453,5043.04857012989,"ssf","mf.ss","gamma","vonmises",15,"ssfOUT_240_168_4_VULTURE","VULTURE",4,0.00595238095238095,240,"no effect"
"ssfOUT_240_168_4_VULTURE.23",16.9979252614239,-5307.34193561526,5341.33778613811,"ssf","mf.ss","gamma","vonmises",50,"ssfOUT_240_168_4_VULTURE","VULTURE",4,0.00595238095238095,240,"no effect"
"ssfOUT_240_168_4_VULTURE.24",17.0194761506651,-4738.19305061321,4772.23200291454,"ssf","mf.ss","gamma","vonmises",158,"ssfOUT_240_168_4_VULTURE","VULTURE",4,0.00595238095238095,240,"no effect"
"ssfOUT_240_168_4_VULTURE.25",17.0149922442355,-4708.66268342144,4742.69266790991,"ssf","mf.ss","gamma","vonmises",500,"ssfOUT_240_168_4_VULTURE","VULTURE",4,0.00595238095238095,240,"no effect"
"ssfOUT_240_168_4_VULTURE.26",17.2256288700761,-7331.35220325978,7365.80346099994,"ssf","mf.ss","gamma","unif",5,"ssfOUT_240_168_4_VULTURE","VULTURE",4,0.00595238095238095,240,"no effect"
"ssfOUT_240_168_4_VULTURE.27",18.1756187783956,-7458.72984311978,7495.08108067657,"ssf","mf.ss","gamma","unif",15,"ssfOUT_240_168_4_VULTURE","VULTURE",4,0.00595238095238095,240,"no effect"
"ssfOUT_240_168_4_VULTURE.28",17.0211638879197,-4719.77358726864,4753.81591504448,"ssf","mf.ss","gamma","unif",50,"ssfOUT_240_168_4_VULTURE","VULTURE",4,0.00595238095238095,240,"no effect"
"ssfOUT_240_168_4_VULTURE.29",17.0411211279575,-4819.05947392959,4853.14171618551,"ssf","mf.ss","gamma","unif",158,"ssfOUT_240_168_4_VULTURE","VULTURE",4,0.00595238095238095,240,"no effect"
"ssfOUT_240_168_4_VULTURE.30",17.0331119853861,-4686.32247695472,4720.38870092549,"ssf","mf.ss","gamma","unif",500,"ssfOUT_240_168_4_VULTURE","VULTURE",4,0.00595238095238095,240,"no effect"
"ssfOUT_240_168_4_VULTURE.31",18.2084291040416,-6398.57393657785,6434.99079478593,"ssf","mf.ss","exp","vonmises",5,"ssfOUT_240_168_4_VULTURE","VULTURE",4,0.00595238095238095,240,"no effect"
"ssfOUT_240_168_4_VULTURE.32",18.1456936139904,-8669.8991710575,8706.19055828548,"ssf","mf.ss","exp","vonmises",15,"ssfOUT_240_168_4_VULTURE","VULTURE",4,0.00595238095238095,240,"no effect"
"ssfOUT_240_168_4_VULTURE.33",17.1077926819574,-4863.71306856327,4897.92865392719,"ssf","mf.ss","exp","vonmises",50,"ssfOUT_240_168_4_VULTURE","VULTURE",4,0.00595238095238095,240,"no effect"
"ssfOUT_240_168_4_VULTURE.34",17.0164926062719,-4903.49121495411,4937.52420016665,"ssf","mf.ss","exp","vonmises",158,"ssfOUT_240_168_4_VULTURE","VULTURE",4,0.00595238095238095,240,"no effect"
"ssfOUT_240_168_4_VULTURE.35",17.0267418562232,-4803.98126909244,4838.03475280488,"ssf","mf.ss","exp","vonmises",500,"ssfOUT_240_168_4_VULTURE","VULTURE",4,0.00595238095238095,240,"no effect"
"ssfOUT_240_168_4_VULTURE.36",18.5322671415208,-8844.35135185575,8881.4158861388,"ssf","mf.ss","exp","unif",5,"ssfOUT_240_168_4_VULTURE","VULTURE",4,0.00595238095238095,240,"no effect"
"ssfOUT_240_168_4_VULTURE.37",18.1400102420558,-9035.45375439506,9071.73377487917,"ssf","mf.ss","exp","unif",15,"ssfOUT_240_168_4_VULTURE","VULTURE",4,0.00595238095238095,240,"no effect"
"ssfOUT_240_168_4_VULTURE.38",17.0718579824482,-4841.5126687875,4875.6563847524,"ssf","mf.ss","exp","unif",50,"ssfOUT_240_168_4_VULTURE","VULTURE",4,0.00595238095238095,240,"no effect"
"ssfOUT_240_168_4_VULTURE.39",17.0872081965161,-4973.00835626116,5007.18277265419,"ssf","mf.ss","exp","unif",158,"ssfOUT_240_168_4_VULTURE","VULTURE",4,0.00595238095238095,240,"no effect"
"ssfOUT_240_168_4_VULTURE.40",17.0422680580932,-4984.88185989039,5018.96639600658,"ssf","mf.ss","exp","unif",500,"ssfOUT_240_168_4_VULTURE","VULTURE",4,0.00595238095238095,240,"no effect"
"ssfOUT_240_168_4_KINGCOBRA.1",18.5754828255009,-10484.6570867561,10521.8080524071,"ssf","mf.is","gamma","vonmises",5,"ssfOUT_240_168_4_KINGCOBRA","KINGCOBRA",4,0.00595238095238095,240,"no effect"
"ssfOUT_240_168_4_KINGCOBRA.2",16.7575921011134,-5952.2793704489,5985.79455465112,"ssf","mf.is","gamma","vonmises",15,"ssfOUT_240_168_4_KINGCOBRA","KINGCOBRA",4,0.00595238095238095,240,"no effect"
"ssfOUT_240_168_4_KINGCOBRA.3",17.0893688104142,-5844.96406843898,5879.14280605981,"ssf","mf.is","gamma","vonmises",50,"ssfOUT_240_168_4_KINGCOBRA","KINGCOBRA",4,0.00595238095238095,240,"no effect"
"ssfOUT_240_168_4_KINGCOBRA.4",15.8001794153608,-3659.00846231432,3690.60882114504,"ssf","mf.is","gamma","vonmises",158,"ssfOUT_240_168_4_KINGCOBRA","KINGCOBRA",4,0.00595238095238095,240,"no effect"
"ssfOUT_240_168_4_KINGCOBRA.5",15.8874141007565,-3791.26300050714,3823.03782870865,"ssf","mf.is","gamma","vonmises",500,"ssfOUT_240_168_4_KINGCOBRA","KINGCOBRA",4,0.00595238095238095,240,"no effect"
"ssfOUT_240_168_4_KINGCOBRA.6",16.4297138868979,-6916.85203769753,6949.71146547133,"ssf","mf.is","gamma","unif",5,"ssfOUT_240_168_4_KINGCOBRA","KINGCOBRA",4,0.00595238095238095,240,"no effect"
"ssfOUT_240_168_4_KINGCOBRA.7",17.0422777859235,-5526.88576447425,5560.97032004609,"ssf","mf.is","gamma","unif",15,"ssfOUT_240_168_4_KINGCOBRA","KINGCOBRA",4,0.00595238095238095,240,"no effect"
"ssfOUT_240_168_4_KINGCOBRA.8",15.9124660229491,-4476.81255874699,4508.63749079289,"ssf","mf.is","gamma","unif",50,"ssfOUT_240_168_4_KINGCOBRA","KINGCOBRA",4,0.00595238095238095,240,"no effect"
"ssfOUT_240_168_4_KINGCOBRA.9",15.8473450361783,-3586.07510913764,3617.76979921,"ssf","mf.is","gamma","unif",158,"ssfOUT_240_168_4_KINGCOBRA","KINGCOBRA",4,0.00595238095238095,240,"no effect"
"ssfOUT_240_168_4_KINGCOBRA.10",15.7765024076969,-3769.74960859422,3801.30261340962,"ssf","mf.is","gamma","unif",500,"ssfOUT_240_168_4_KINGCOBRA","KINGCOBRA",4,0.00595238095238095,240,"no effect"
"ssfOUT_240_168_4_KINGCOBRA.11",18.2810286869902,-10740.5345540374,10777.0966114113,"ssf","mf.is","exp","vonmises",5,"ssfOUT_240_168_4_KINGCOBRA","KINGCOBRA",4,0.00595238095238095,240,"no effect"
"ssfOUT_240_168_4_KINGCOBRA.12",17.5339875747527,-7341.59929054833,7376.66726569783,"ssf","mf.is","exp","vonmises",15,"ssfOUT_240_168_4_KINGCOBRA","KINGCOBRA",4,0.00595238095238095,240,"no effect"
"ssfOUT_240_168_4_KINGCOBRA.13",16.8979447060766,-6764.81448899437,6798.61037840652,"ssf","mf.is","exp","vonmises",50,"ssfOUT_240_168_4_KINGCOBRA","KINGCOBRA",4,0.00595238095238095,240,"no effect"
"ssfOUT_240_168_4_KINGCOBRA.14",15.8969818353663,-3947.3196112451,3979.11357491583,"ssf","mf.is","exp","vonmises",158,"ssfOUT_240_168_4_KINGCOBRA","KINGCOBRA",4,0.00595238095238095,240,"no effect"
"ssfOUT_240_168_4_KINGCOBRA.15",16.0633347626349,-4223.18350577261,4255.31017529788,"ssf","mf.is","exp","vonmises",500,"ssfOUT_240_168_4_KINGCOBRA","KINGCOBRA",4,0.00595238095238095,240,"no effect"
"ssfOUT_240_168_4_KINGCOBRA.16",15.777540827362,-6087.27704271733,6118.83212437206,"ssf","mf.is","exp","unif",5,"ssfOUT_240_168_4_KINGCOBRA","KINGCOBRA",4,0.00595238095238095,240,"no effect"
"ssfOUT_240_168_4_KINGCOBRA.17",15.1836253811178,-4750.719033435,4781.08628419723,"ssf","mf.is","exp","unif",15,"ssfOUT_240_168_4_KINGCOBRA","KINGCOBRA",4,0.00595238095238095,240,"no effect"
"ssfOUT_240_168_4_KINGCOBRA.18",17.0193801363494,-6500.44973932812,6534.48849960082,"ssf","mf.is","exp","unif",50,"ssfOUT_240_168_4_KINGCOBRA","KINGCOBRA",4,0.00595238095238095,240,"no effect"
"ssfOUT_240_168_4_KINGCOBRA.19",15.815037048083,-3980.37969258873,4012.0097666849,"ssf","mf.is","exp","unif",158,"ssfOUT_240_168_4_KINGCOBRA","KINGCOBRA",4,0.00595238095238095,240,"no effect"
"ssfOUT_240_168_4_KINGCOBRA.20",15.9096070237378,-3755.32391000018,3787.14312404766,"ssf","mf.is","exp","unif",500,"ssfOUT_240_168_4_KINGCOBRA","KINGCOBRA",4,0.00595238095238095,240,"no effect"
"ssfOUT_240_168_4_KINGCOBRA.21",16.8769343812483,-6573.06666585744,6606.82053461994,"ssf","mf.ss","gamma","vonmises",5,"ssfOUT_240_168_4_KINGCOBRA","KINGCOBRA",4,0.00595238095238095,240,"no effect"
"ssfOUT_240_168_4_KINGCOBRA.22",16.7853681330903,-5523.80071088121,5557.37144714739,"ssf","mf.ss","gamma","vonmises",15,"ssfOUT_240_168_4_KINGCOBRA","KINGCOBRA",4,0.00595238095238095,240,"no effect"
"ssfOUT_240_168_4_KINGCOBRA.23",16.7610019629478,-5660.58719584026,5694.10919976616,"ssf","mf.ss","gamma","vonmises",50,"ssfOUT_240_168_4_KINGCOBRA","KINGCOBRA",4,0.00595238095238095,240,"no effect"
"ssfOUT_240_168_4_KINGCOBRA.24",15.7279191000458,-3615.44997852062,3646.90581672071,"ssf","mf.ss","gamma","vonmises",158,"ssfOUT_240_168_4_KINGCOBRA","KINGCOBRA",4,0.00595238095238095,240,"no effect"
"ssfOUT_240_168_4_KINGCOBRA.25",15.713774684631,-3829.00387029762,3860.43141966688,"ssf","mf.ss","gamma","vonmises",500,"ssfOUT_240_168_4_KINGCOBRA","KINGCOBRA",4,0.00595238095238095,240,"no effect"
"ssfOUT_240_168_4_KINGCOBRA.26",17.0722828501686,-6702.65327872886,6736.7978444292,"ssf","mf.ss","gamma","unif",5,"ssfOUT_240_168_4_KINGCOBRA","KINGCOBRA",4,0.00595238095238095,240,"no effect"
"ssfOUT_240_168_4_KINGCOBRA.27",16.8089269077747,-5483.62687338067,5517.24472719622,"ssf","mf.ss","gamma","unif",15,"ssfOUT_240_168_4_KINGCOBRA","KINGCOBRA",4,0.00595238095238095,240,"no effect"
"ssfOUT_240_168_4_KINGCOBRA.28",15.7310763451346,-4403.75880313047,4435.22095582074,"ssf","mf.ss","gamma","unif",50,"ssfOUT_240_168_4_KINGCOBRA","KINGCOBRA",4,0.00595238095238095,240,"no effect"
"ssfOUT_240_168_4_KINGCOBRA.29",15.7330770988816,-3474.57665222411,3506.04280642187,"ssf","mf.ss","gamma","unif",158,"ssfOUT_240_168_4_KINGCOBRA","KINGCOBRA",4,0.00595238095238095,240,"no effect"
"ssfOUT_240_168_4_KINGCOBRA.30",15.7140590995888,-3705.89203432426,3737.32015252344,"ssf","mf.ss","gamma","unif",500,"ssfOUT_240_168_4_KINGCOBRA","KINGCOBRA",4,0.00595238095238095,240,"no effect"
"ssfOUT_240_168_4_KINGCOBRA.31",17.3098438739281,-7756.07327560902,7790.69296335687,"ssf","mf.ss","exp","vonmises",5,"ssfOUT_240_168_4_KINGCOBRA","KINGCOBRA",4,0.00595238095238095,240,"no effect"
"ssfOUT_240_168_4_KINGCOBRA.32",15.9379803708393,-4368.96279420209,4400.83875494376,"ssf","mf.ss","exp","vonmises",15,"ssfOUT_240_168_4_KINGCOBRA","KINGCOBRA",4,0.00595238095238095,240,"no effect"
"ssfOUT_240_168_4_KINGCOBRA.33",15.7636108850113,-4353.17957417163,4384.70679594165,"ssf","mf.ss","exp","vonmises",50,"ssfOUT_240_168_4_KINGCOBRA","KINGCOBRA",4,0.00595238095238095,240,"no effect"
"ssfOUT_240_168_4_KINGCOBRA.34",15.7506106021361,-3826.95447597073,3858.455697175,"ssf","mf.ss","exp","vonmises",158,"ssfOUT_240_168_4_KINGCOBRA","KINGCOBRA",4,0.00595238095238095,240,"no effect"
"ssfOUT_240_168_4_KINGCOBRA.35",15.7214075899286,-4114.50117102154,4145.9439862014,"ssf","mf.ss","exp","vonmises",500,"ssfOUT_240_168_4_KINGCOBRA","KINGCOBRA",4,0.00595238095238095,240,"no effect"
"ssfOUT_240_168_4_KINGCOBRA.36",15.9297027877368,-5586.29942705569,5618.15883263116,"ssf","mf.ss","exp","unif",5,"ssfOUT_240_168_4_KINGCOBRA","KINGCOBRA",4,0.00595238095238095,240,"no effect"
"ssfOUT_240_168_4_KINGCOBRA.37",15.7910334431041,-5051.30552281838,5082.88758970459,"ssf","mf.ss","exp","unif",15,"ssfOUT_240_168_4_KINGCOBRA","KINGCOBRA",4,0.00595238095238095,240,"no effect"
"ssfOUT_240_168_4_KINGCOBRA.38",16.762751706014,-6214.8577044611,6248.38320787313,"ssf","mf.ss","exp","unif",50,"ssfOUT_240_168_4_KINGCOBRA","KINGCOBRA",4,0.00595238095238095,240,"no effect"
"ssfOUT_240_168_4_KINGCOBRA.39",15.7401019914021,-3800.25706126948,3831.73726525228,"ssf","mf.ss","exp","unif",158,"ssfOUT_240_168_4_KINGCOBRA","KINGCOBRA",4,0.00595238095238095,240,"no effect"
"ssfOUT_240_168_4_KINGCOBRA.40",15.7241649132509,-3669.93354947743,3701.38187930393,"ssf","mf.ss","exp","unif",500,"ssfOUT_240_168_4_KINGCOBRA","KINGCOBRA",4,0.00595238095238095,240,"no effect"
